Si diamond primitive cell, a=5.43 Angstr
   1.00000000000000     
     0.0000000000000004    2.7149999999999999    2.7149999999999999
     2.7149999999999999    0.0000000000000000    2.7149999999999999
     2.7150000000000003    2.7149999999999999    0.0000000000000003
  Si            
     2
Direct
     0.0000000000000000    0.0000000000000000    0.0000000000000000
     0.2500000000000000    0.2500000000000000    0.2500000000000000
 
  0.00000000E+00  0.00000000E+00  0.00000000E+00
  0.00000000E+00  0.00000000E+00  0.00000000E+00
