   2   2   1   0
  0.2001288E+02  0.3839590E-09  0.3839590E-09  0.3839590E-09  0.5000000E-15
  1.000000000000000E-004
  CAR 
 Si_diamond_PBE_band_vasp                
     37.47867635     -8.20549790  301      6.12791177      1.00000000
     -8.205  0.0000E+00  0.0000E+00
     -8.053  0.0000E+00  0.0000E+00
     -7.901  0.0000E+00  0.0000E+00
     -7.749  0.0000E+00  0.0000E+00
     -7.596  0.0000E+00  0.0000E+00
     -7.444  0.0000E+00  0.0000E+00
     -7.292  0.0000E+00  0.0000E+00
     -7.140  0.0000E+00  0.0000E+00
     -6.987  0.0000E+00  0.0000E+00
     -6.835  0.0000E+00  0.0000E+00
     -6.683  0.0000E+00  0.0000E+00
     -6.530  0.0000E+00  0.0000E+00
     -6.378  0.3112E-12  0.4739E-13
     -6.226  0.1407E-02  0.2143E-03
     -6.074  0.9356E+00  0.1427E+00
     -5.921  0.8919E+00  0.2785E+00
     -5.769  0.5538E+00  0.3628E+00
     -5.617  0.4460E+00  0.4308E+00
     -5.464  0.3816E+00  0.4889E+00
     -5.312  0.3502E+00  0.5422E+00
     -5.160  0.3093E+00  0.5893E+00
     -5.008  0.2923E+00  0.6338E+00
     -4.855  0.2925E+00  0.6783E+00
     -4.703  0.2694E+00  0.7194E+00
     -4.551  0.2658E+00  0.7598E+00
     -4.398  0.2485E+00  0.7977E+00
     -4.246  0.2514E+00  0.8360E+00
     -4.094  0.2514E+00  0.8742E+00
     -3.942  0.2658E+00  0.9147E+00
     -3.789  0.3687E+00  0.9709E+00
     -3.637  0.1803E+00  0.9983E+00
     -3.485  0.1302E+00  0.1018E+01
     -3.333  0.1372E+00  0.1039E+01
     -3.180  0.1355E+00  0.1060E+01
     -3.028  0.1193E+00  0.1078E+01
     -2.876  0.1196E+00  0.1096E+01
     -2.723  0.1501E+00  0.1119E+01
     -2.571  0.1570E+00  0.1143E+01
     -2.419  0.2664E+00  0.1183E+01
     -2.267  0.1200E+01  0.1366E+01
     -2.114  0.6519E+00  0.1465E+01
     -1.962  0.1745E+01  0.1731E+01
     -1.810  0.4012E+01  0.2342E+01
     -1.657  0.9814E+00  0.2492E+01
     -1.505  0.6791E+00  0.2595E+01
     -1.353  0.1553E+01  0.2831E+01
     -1.201  0.2505E+00  0.2870E+01
     -1.048  0.3452E+00  0.2922E+01
     -0.896  0.2307E+00  0.2957E+01
     -0.744  0.2420E+00  0.2994E+01
     -0.591  0.1839E+00  0.3022E+01
     -0.439  0.1732E+00  0.3049E+01
     -0.287  0.1880E+00  0.3077E+01
     -0.135  0.1336E+00  0.3097E+01
      0.018  0.1837E+00  0.3125E+01
      0.170  0.1661E+00  0.3151E+01
      0.322  0.1196E+00  0.3169E+01
      0.474  0.1979E+00  0.3199E+01
      0.627  0.1285E+00  0.3219E+01
      0.779  0.1185E+00  0.3237E+01
      0.931  0.1777E+00  0.3264E+01
      1.084  0.1433E+00  0.3286E+01
      1.236  0.1080E+00  0.3302E+01
      1.388  0.1880E+00  0.3331E+01
      1.540  0.1005E+01  0.3484E+01
      1.693  0.1405E+01  0.3698E+01
      1.845  0.8772E+00  0.3831E+01
      1.997  0.1224E+01  0.4018E+01
      2.150  0.1675E+01  0.4273E+01
      2.302  0.1140E+01  0.4446E+01
      2.454  0.9132E+00  0.4585E+01
      2.606  0.9398E+00  0.4729E+01
      2.759  0.8739E+00  0.4862E+01
      2.911  0.1087E+01  0.5027E+01
      3.063  0.1969E+01  0.5327E+01
      3.216  0.9729E+00  0.5475E+01
      3.368  0.9320E+00  0.5617E+01
      3.520  0.8617E+00  0.5748E+01
      3.672  0.5827E+00  0.5837E+01
      3.825  0.5080E+00  0.5914E+01
      3.977  0.5756E+00  0.6002E+01
      4.129  0.4041E+00  0.6064E+01
      4.282  0.5350E+00  0.6145E+01
      4.434  0.4305E+00  0.6211E+01
      4.586  0.5316E+00  0.6292E+01
      4.738  0.1742E+01  0.6557E+01
      4.891  0.1142E+01  0.6731E+01
      5.043  0.1032E+01  0.6888E+01
      5.195  0.9403E+00  0.7031E+01
      5.347  0.9500E+00  0.7176E+01
      5.500  0.1004E+01  0.7329E+01
      5.652  0.1152E+01  0.7504E+01
      5.804  0.1994E+01  0.7808E+01
      5.957  0.1263E+01  0.8000E+01
      6.109  0.1839E-03  0.8000E+01
      6.261  0.5220E-05  0.8000E+01
      6.413  0.2267E+00  0.8035E+01
      6.566  0.1062E+01  0.8196E+01
      6.718  0.9793E+00  0.8345E+01
      6.870  0.6177E+00  0.8439E+01
      7.023  0.6079E+00  0.8532E+01
      7.175  0.9552E+00  0.8678E+01
      7.327  0.7602E+00  0.8793E+01
      7.479  0.1213E+01  0.8978E+01
      7.632  0.9644E+00  0.9125E+01
      7.784  0.8275E+00  0.9251E+01
      7.936  0.7670E+00  0.9368E+01
      8.089  0.7449E+00  0.9481E+01
      8.241  0.7672E+00  0.9598E+01
      8.393  0.1465E+01  0.9821E+01
      8.545  0.2878E+01  0.1026E+02
      8.698  0.1546E+01  0.1049E+02
      8.850  0.1543E+01  0.1073E+02
      9.002  0.1339E+01  0.1093E+02
      9.154  0.1142E+01  0.1111E+02
      9.307  0.2971E+01  0.1156E+02
      9.459  0.2089E+01  0.1188E+02
      9.611  0.7830E+00  0.1200E+02
      9.764  0.7383E+00  0.1211E+02
      9.916  0.8041E+00  0.1223E+02
     10.068  0.2318E+01  0.1259E+02
     10.220  0.1870E+01  0.1287E+02
     10.373  0.4785E+00  0.1294E+02
     10.525  0.3892E+00  0.1300E+02
     10.677  0.2313E+00  0.1304E+02
     10.830  0.5747E+00  0.1312E+02
     10.982  0.1184E+01  0.1331E+02
     11.134  0.7432E+00  0.1342E+02
     11.286  0.8255E+00  0.1354E+02
     11.439  0.7420E+00  0.1366E+02
     11.591  0.1038E+01  0.1382E+02
     11.743  0.8859E+00  0.1395E+02
     11.896  0.6628E+00  0.1405E+02
     12.048  0.1067E+01  0.1421E+02
     12.200  0.9086E+00  0.1435E+02
     12.352  0.8799E+00  0.1449E+02
     12.505  0.9520E+00  0.1463E+02
     12.657  0.8254E+00  0.1476E+02
     12.809  0.9054E+00  0.1489E+02
     12.962  0.1322E+01  0.1510E+02
     13.114  0.1338E+01  0.1530E+02
     13.266  0.1210E+01  0.1548E+02
     13.418  0.1166E+01  0.1566E+02
     13.571  0.1867E+01  0.1595E+02
     13.723  0.1339E+01  0.1615E+02
     13.875  0.1685E+01  0.1641E+02
     14.027  0.1088E+01  0.1657E+02
     14.180  0.1066E+01  0.1673E+02
     14.332  0.8398E+00  0.1686E+02
     14.484  0.9032E+00  0.1700E+02
     14.637  0.8162E+00  0.1712E+02
     14.789  0.9195E+00  0.1726E+02
     14.941  0.1141E+01  0.1744E+02
     15.093  0.1025E+01  0.1759E+02
     15.246  0.8855E+00  0.1773E+02
     15.398  0.7842E+00  0.1785E+02
     15.550  0.8746E+00  0.1798E+02
     15.703  0.1124E+01  0.1815E+02
     15.855  0.9180E+00  0.1829E+02
     16.007  0.1384E+01  0.1850E+02
     16.159  0.5063E+00  0.1858E+02
     16.312  0.7359E+00  0.1869E+02
     16.464  0.3921E+01  0.1929E+02
     16.616  0.1463E+01  0.1951E+02
     16.769  0.7060E+00  0.1962E+02
     16.921  0.7629E+00  0.1974E+02
     17.073  0.6226E+00  0.1983E+02
     17.225  0.1120E+01  0.2000E+02
     17.378  0.6114E+00  0.2009E+02
     17.530  0.4494E+00  0.2016E+02
     17.682  0.3321E+00  0.2021E+02
     17.834  0.3086E+00  0.2026E+02
     17.987  0.3026E+00  0.2031E+02
     18.139  0.5239E+00  0.2039E+02
     18.291  0.3244E+00  0.2044E+02
     18.444  0.3282E+00  0.2049E+02
     18.596  0.5767E+00  0.2057E+02
     18.748  0.1531E+01  0.2081E+02
     18.900  0.1214E+01  0.2099E+02
     19.053  0.6217E+00  0.2109E+02
     19.205  0.6839E+00  0.2119E+02
     19.357  0.5481E+00  0.2127E+02
     19.510  0.4137E+00  0.2134E+02
     19.662  0.3688E+00  0.2139E+02
     19.814  0.1665E+00  0.2142E+02
     19.966  0.2649E+00  0.2146E+02
     20.119  0.3877E+00  0.2152E+02
     20.271  0.4742E+00  0.2159E+02
     20.423  0.1277E+00  0.2161E+02
     20.576  0.4573E+00  0.2168E+02
     20.728  0.5915E+00  0.2177E+02
     20.880  0.2262E+00  0.2180E+02
     21.032  0.1599E+00  0.2183E+02
     21.185  0.2295E+00  0.2186E+02
     21.337  0.5377E+00  0.2194E+02
     21.489  0.3234E+00  0.2199E+02
     21.641  0.2051E+00  0.2202E+02
     21.794  0.1482E+00  0.2205E+02
     21.946  0.2819E+00  0.2209E+02
     22.098  0.2550E+00  0.2213E+02
     22.251  0.4279E+00  0.2219E+02
     22.403  0.3208E+00  0.2224E+02
     22.555  0.2863E+00  0.2229E+02
     22.707  0.1753E+00  0.2231E+02
     22.860  0.2682E+00  0.2235E+02
     23.012  0.2011E+00  0.2238E+02
     23.164  0.1691E+00  0.2241E+02
     23.317  0.4367E+00  0.2248E+02
     23.469  0.3715E+00  0.2253E+02
     23.621  0.1441E+00  0.2256E+02
     23.773  0.8516E-03  0.2256E+02
     23.926  0.4520E+00  0.2262E+02
     24.078  0.4266E+00  0.2269E+02
     24.230  0.1636E+00  0.2271E+02
     24.383  0.2785E+00  0.2276E+02
     24.535  0.6117E+00  0.2285E+02
     24.687  0.6462E+00  0.2295E+02
     24.839  0.6671E+00  0.2305E+02
     24.992  0.2716E+00  0.2309E+02
     25.144  0.2837E+00  0.2313E+02
     25.296  0.2308E+00  0.2317E+02
     25.449  0.2837E+00  0.2321E+02
     25.601  0.5999E+00  0.2330E+02
     25.753  0.2479E+00  0.2334E+02
     25.905  0.2975E+00  0.2339E+02
     26.058  0.2775E+00  0.2343E+02
     26.210  0.1444E+00  0.2345E+02
     26.362  0.9997E-01  0.2347E+02
     26.514  0.6883E-03  0.2347E+02
     26.667  0.1191E+00  0.2348E+02
     26.819  0.1034E+00  0.2350E+02
     26.971  0.2152E+00  0.2353E+02
     27.124  0.1391E+00  0.2355E+02
     27.276  0.3923E-01  0.2356E+02
     27.428  0.6542E-01  0.2357E+02
     27.580  0.1382E+00  0.2359E+02
     27.733  0.1677E+00  0.2362E+02
     27.885  0.3345E-01  0.2362E+02
     28.037  0.5733E-03  0.2362E+02
     28.190  0.1967E+00  0.2365E+02
     28.342  0.9865E-01  0.2367E+02
     28.494  0.1419E+00  0.2369E+02
     28.646  0.7174E-01  0.2370E+02
     28.799  0.5596E-02  0.2370E+02
     28.951  0.1888E+00  0.2373E+02
     29.103  0.4763E+00  0.2380E+02
     29.256  0.2710E+00  0.2384E+02
     29.408  0.1249E+00  0.2386E+02
     29.560  0.1749E+00  0.2389E+02
     29.712  0.2031E-02  0.2389E+02
     29.865  0.7035E-01  0.2390E+02
     30.017  0.6237E-03  0.2390E+02
     30.169  0.8044E-12  0.2390E+02
     30.321  0.0000E+00  0.2390E+02
     30.474  0.9721E-16  0.2390E+02
     30.626  0.1260E-04  0.2390E+02
     30.778  0.9470E-01  0.2391E+02
     30.931  0.5121E-01  0.2392E+02
     31.083  0.4125E-06  0.2392E+02
     31.235  0.0000E+00  0.2392E+02
     31.387  0.0000E+00  0.2392E+02
     31.540  0.0000E+00  0.2392E+02
     31.692  0.1215E-16  0.2392E+02
     31.844  0.4465E-05  0.2392E+02
     31.997  0.4956E-01  0.2393E+02
     32.149  0.2340E-01  0.2393E+02
     32.301  0.1401E-02  0.2393E+02
     32.453  0.7064E-01  0.2394E+02
     32.606  0.2926E-01  0.2395E+02
     32.758  0.4462E-01  0.2396E+02
     32.910  0.2090E-05  0.2396E+02
     33.063  0.5931E-11  0.2396E+02
     33.215  0.1349E-02  0.2396E+02
     33.367  0.7065E-01  0.2397E+02
     33.519  0.9680E-03  0.2397E+02
     33.672  0.5252E-01  0.2397E+02
     33.824  0.2043E-01  0.2398E+02
     33.976  0.1603E-06  0.2398E+02
     34.129  0.2681E-01  0.2398E+02
     34.281  0.4616E-01  0.2399E+02
     34.433  0.2640E-05  0.2399E+02
     34.585  0.0000E+00  0.2399E+02
     34.738  0.0000E+00  0.2399E+02
     34.890  0.0000E+00  0.2399E+02
     35.042  0.0000E+00  0.2399E+02
     35.194  0.1558E-09  0.2399E+02
     35.347  0.4279E-02  0.2399E+02
     35.499  0.6846E-01  0.2400E+02
     35.651  0.2235E-03  0.2400E+02
     35.804  0.0000E+00  0.2400E+02
     35.956  0.0000E+00  0.2400E+02
     36.108  0.0000E+00  0.2400E+02
     36.260  0.0000E+00  0.2400E+02
     36.413  0.0000E+00  0.2400E+02
     36.565  0.0000E+00  0.2400E+02
     36.717  0.0000E+00  0.2400E+02
     36.870  0.0000E+00  0.2400E+02
     37.022  0.0000E+00  0.2400E+02
     37.174  0.0000E+00  0.2400E+02
     37.326  0.0000E+00  0.2400E+02
     37.479  0.0000E+00  0.2400E+02
     37.47867635     -8.20549790  301      6.12791177      1.00000000
     -8.205  0.0000E+00  0.0000E+00  0.0000E+00  0.0000E+00  0.0000E+00  0.0000E+00  0.0000E+00  0.0000E+00  0.0000E+00
     -8.053  0.0000E+00  0.0000E+00  0.0000E+00  0.0000E+00  0.0000E+00  0.0000E+00  0.0000E+00  0.0000E+00  0.0000E+00
     -7.901  0.0000E+00  0.0000E+00  0.0000E+00  0.0000E+00  0.0000E+00  0.0000E+00  0.0000E+00  0.0000E+00  0.0000E+00
     -7.749  0.0000E+00  0.0000E+00  0.0000E+00  0.0000E+00  0.0000E+00  0.0000E+00  0.0000E+00  0.0000E+00  0.0000E+00
     -7.596  0.0000E+00  0.0000E+00  0.0000E+00  0.0000E+00  0.0000E+00  0.0000E+00  0.0000E+00  0.0000E+00  0.0000E+00
     -7.444  0.0000E+00  0.0000E+00  0.0000E+00  0.0000E+00  0.0000E+00  0.0000E+00  0.0000E+00  0.0000E+00  0.0000E+00
     -7.292  0.0000E+00  0.0000E+00  0.0000E+00  0.0000E+00  0.0000E+00  0.0000E+00  0.0000E+00  0.0000E+00  0.0000E+00
     -7.140  0.0000E+00  0.0000E+00  0.0000E+00  0.0000E+00  0.0000E+00  0.0000E+00  0.0000E+00  0.0000E+00  0.0000E+00
     -6.987  0.0000E+00  0.0000E+00  0.0000E+00  0.0000E+00  0.0000E+00  0.0000E+00  0.0000E+00  0.0000E+00  0.0000E+00
     -6.835  0.0000E+00  0.0000E+00  0.0000E+00  0.0000E+00  0.0000E+00  0.0000E+00  0.0000E+00  0.0000E+00  0.0000E+00
     -6.683  0.0000E+00  0.0000E+00  0.0000E+00  0.0000E+00  0.0000E+00  0.0000E+00  0.0000E+00  0.0000E+00  0.0000E+00
     -6.530  0.0000E+00  0.0000E+00  0.0000E+00  0.0000E+00  0.0000E+00  0.0000E+00  0.0000E+00  0.0000E+00  0.0000E+00
     -6.378  0.6642E-13  0.3360E-17  0.6968E-18  0.1549E-17  0.0000E+00  0.0000E+00  0.0000E+00  0.0000E+00  0.0000E+00
     -6.226  0.3003E-03  0.3660E-07  0.7591E-08  0.1687E-07  0.0000E+00  0.0000E+00  0.0000E+00  0.0000E+00  0.0000E+00
     -6.074  0.1996E+00  0.1265E-03  0.2628E-04  0.5829E-04  0.0000E+00  0.0000E+00  0.0000E+00  0.0000E+00  0.0000E+00
     -5.921  0.1899E+00  0.6682E-03  0.1392E-03  0.3068E-03  0.0000E+00  0.0000E+00  0.0000E+00  0.0000E+00  0.0000E+00
     -5.769  0.1174E+00  0.1003E-02  0.2099E-03  0.4578E-03  0.0000E+00  0.0000E+00  0.0000E+00  0.0000E+00  0.0000E+00
     -5.617  0.9427E-01  0.1246E-02  0.2622E-03  0.5674E-03  0.0000E+00  0.0000E+00  0.0000E+00  0.0000E+00  0.0000E+00
     -5.464  0.8042E-01  0.1425E-02  0.3060E-03  0.6500E-03  0.0000E+00  0.0000E+00  0.0000E+00  0.0000E+00  0.0000E+00
     -5.312  0.7361E-01  0.1653E-02  0.3437E-03  0.7299E-03  0.0000E+00  0.0000E+00  0.0000E+00  0.0000E+00  0.0000E+00
     -5.160  0.6488E-01  0.1708E-02  0.3885E-03  0.7712E-03  0.0000E+00  0.0000E+00  0.0000E+00  0.0000E+00  0.0000E+00
     -5.008  0.6120E-01  0.1878E-02  0.4118E-03  0.8535E-03  0.0000E+00  0.0000E+00  0.0000E+00  0.0000E+00  0.0000E+00
     -4.855  0.6115E-01  0.2141E-02  0.4698E-03  0.9448E-03  0.0000E+00  0.0000E+00  0.0000E+00  0.0000E+00  0.0000E+00
     -4.703  0.5627E-01  0.2229E-02  0.4753E-03  0.9493E-03  0.0000E+00  0.0000E+00  0.0000E+00  0.0000E+00  0.0000E+00
     -4.551  0.5555E-01  0.2349E-02  0.5569E-03  0.1026E-02  0.0000E+00  0.0000E+00  0.0000E+00  0.0000E+00  0.0000E+00
     -4.398  0.5198E-01  0.2400E-02  0.5571E-03  0.1025E-02  0.0000E+00  0.0000E+00  0.0000E+00  0.0000E+00  0.0000E+00
     -4.246  0.5274E-01  0.2536E-02  0.6386E-03  0.1103E-02  0.0000E+00  0.0000E+00  0.0000E+00  0.0000E+00  0.0000E+00
     -4.094  0.5300E-01  0.2624E-02  0.7023E-03  0.1155E-02  0.0000E+00  0.0000E+00  0.0000E+00  0.0000E+00  0.0000E+00
     -3.942  0.5656E-01  0.2716E-02  0.8354E-03  0.1265E-02  0.0000E+00  0.0000E+00  0.0000E+00  0.0000E+00  0.0000E+00
     -3.789  0.8026E-01  0.3152E-02  0.1359E-02  0.1751E-02  0.0000E+00  0.0000E+00  0.0000E+00  0.0000E+00  0.0000E+00
     -3.637  0.3827E-01  0.2340E-02  0.5254E-03  0.8688E-03  0.0000E+00  0.0000E+00  0.0000E+00  0.0000E+00  0.0000E+00
     -3.485  0.2684E-01  0.2385E-02  0.3189E-03  0.6044E-03  0.0000E+00  0.0000E+00  0.0000E+00  0.0000E+00  0.0000E+00
     -3.333  0.2823E-01  0.2701E-02  0.3917E-03  0.6087E-03  0.0000E+00  0.0000E+00  0.0000E+00  0.0000E+00  0.0000E+00
     -3.180  0.2791E-01  0.2728E-02  0.4936E-03  0.6209E-03  0.0000E+00  0.0000E+00  0.0000E+00  0.0000E+00  0.0000E+00
     -3.028  0.2476E-01  0.2192E-02  0.6377E-03  0.6355E-03  0.0000E+00  0.0000E+00  0.0000E+00  0.0000E+00  0.0000E+00
     -2.876  0.2494E-01  0.2063E-02  0.8425E-03  0.6470E-03  0.0000E+00  0.0000E+00  0.0000E+00  0.0000E+00  0.0000E+00
     -2.723  0.3107E-01  0.3003E-02  0.1123E-02  0.6446E-03  0.0000E+00  0.0000E+00  0.0000E+00  0.0000E+00  0.0000E+00
     -2.571  0.3246E-01  0.3224E-02  0.1444E-02  0.5981E-03  0.0000E+00  0.0000E+00  0.0000E+00  0.0000E+00  0.0000E+00
     -2.419  0.5620E-01  0.2895E-02  0.4976E-02  0.1063E-02  0.0000E+00  0.0000E+00  0.0000E+00  0.0000E+00  0.0000E+00
     -2.267  0.2546E+00  0.1064E-01  0.2660E-01  0.3339E-02  0.0000E+00  0.0000E+00  0.0000E+00  0.0000E+00  0.0000E+00
     -2.114  0.1360E+00  0.1046E-01  0.1306E-01  0.4893E-03  0.0000E+00  0.0000E+00  0.0000E+00  0.0000E+00  0.0000E+00
     -1.962  0.3450E+00  0.6546E-01  0.1051E-01  0.1152E-03  0.0000E+00  0.0000E+00  0.0000E+00  0.0000E+00  0.0000E+00
     -1.810  0.8027E+00  0.1385E+00  0.3600E-01  0.1075E-03  0.0000E+00  0.0000E+00  0.0000E+00  0.0000E+00  0.0000E+00
     -1.657  0.1990E+00  0.2442E-01  0.1820E-01  0.4159E-04  0.0000E+00  0.0000E+00  0.0000E+00  0.0000E+00  0.0000E+00
     -1.505  0.1337E+00  0.1236E-01  0.1984E-01  0.4802E-03  0.0000E+00  0.0000E+00  0.0000E+00  0.0000E+00  0.0000E+00
     -1.353  0.2908E+00  0.1479E-01  0.6303E-01  0.5245E-02  0.0000E+00  0.0000E+00  0.0000E+00  0.0000E+00  0.0000E+00
     -1.201  0.4598E-01  0.4936E-02  0.7929E-02  0.1139E-02  0.0000E+00  0.0000E+00  0.0000E+00  0.0000E+00  0.0000E+00
     -1.048  0.4634E-01  0.9869E-02  0.1040E-01  0.7014E-02  0.0000E+00  0.0000E+00  0.0000E+00  0.0000E+00  0.0000E+00
     -0.896  0.3209E-01  0.5909E-02  0.7522E-02  0.4556E-02  0.0000E+00  0.0000E+00  0.0000E+00  0.0000E+00  0.0000E+00
     -0.744  0.3648E-01  0.7908E-02  0.6298E-02  0.3783E-02  0.0000E+00  0.0000E+00  0.0000E+00  0.0000E+00  0.0000E+00
     -0.591  0.2693E-01  0.5413E-02  0.5542E-02  0.3334E-02  0.0000E+00  0.0000E+00  0.0000E+00  0.0000E+00  0.0000E+00
     -0.439  0.2595E-01  0.5444E-02  0.4957E-02  0.2985E-02  0.0000E+00  0.0000E+00  0.0000E+00  0.0000E+00  0.0000E+00
     -0.287  0.2926E-01  0.7158E-02  0.4451E-02  0.2730E-02  0.0000E+00  0.0000E+00  0.0000E+00  0.0000E+00  0.0000E+00
     -0.135  0.1865E-01  0.3926E-02  0.4366E-02  0.2959E-02  0.0000E+00  0.0000E+00  0.0000E+00  0.0000E+00  0.0000E+00
      0.018  0.2702E-01  0.7454E-02  0.4389E-02  0.3254E-02  0.0000E+00  0.0000E+00  0.0000E+00  0.0000E+00  0.0000E+00
      0.170  0.2433E-01  0.6667E-02  0.4232E-02  0.3071E-02  0.0000E+00  0.0000E+00  0.0000E+00  0.0000E+00  0.0000E+00
      0.322  0.1779E-01  0.4008E-02  0.3686E-02  0.2399E-02  0.0000E+00  0.0000E+00  0.0000E+00  0.0000E+00  0.0000E+00
      0.474  0.2923E-01  0.8768E-02  0.4701E-02  0.3575E-02  0.0000E+00  0.0000E+00  0.0000E+00  0.0000E+00  0.0000E+00
      0.627  0.1661E-01  0.4755E-02  0.4048E-02  0.3433E-02  0.0000E+00  0.0000E+00  0.0000E+00  0.0000E+00  0.0000E+00
      0.779  0.1813E-01  0.6166E-02  0.2301E-02  0.1779E-02  0.0000E+00  0.0000E+00  0.0000E+00  0.0000E+00  0.0000E+00
      0.931  0.2506E-01  0.8136E-02  0.4575E-02  0.3797E-02  0.0000E+00  0.0000E+00  0.0000E+00  0.0000E+00  0.0000E+00
      1.084  0.1831E-01  0.5649E-02  0.4572E-02  0.4073E-02  0.0000E+00  0.0000E+00  0.0000E+00  0.0000E+00  0.0000E+00
      1.236  0.1671E-01  0.7113E-02  0.1391E-02  0.1220E-02  0.0000E+00  0.0000E+00  0.0000E+00  0.0000E+00  0.0000E+00
      1.388  0.1827E-01  0.7820E-02  0.7224E-02  0.6485E-02  0.0000E+00  0.0000E+00  0.0000E+00  0.0000E+00  0.0000E+00
      1.540  0.2342E-01  0.5210E-01  0.4615E-01  0.4810E-01  0.0000E+00  0.0000E+00  0.0000E+00  0.0000E+00  0.0000E+00
      1.693  0.1476E-01  0.7375E-01  0.6229E-01  0.7772E-01  0.0000E+00  0.0000E+00  0.0000E+00  0.0000E+00  0.0000E+00
      1.845  0.2073E-01  0.4138E-01  0.4002E-01  0.4891E-01  0.0000E+00  0.0000E+00  0.0000E+00  0.0000E+00  0.0000E+00
      1.997  0.1758E-01  0.5702E-01  0.5733E-01  0.7525E-01  0.0000E+00  0.0000E+00  0.0000E+00  0.0000E+00  0.0000E+00
      2.150  0.1504E-01  0.6533E-01  0.8920E-01  0.1116E+00  0.0000E+00  0.0000E+00  0.0000E+00  0.0000E+00  0.0000E+00
      2.302  0.2399E-01  0.4376E-01  0.6214E-01  0.7334E-01  0.0000E+00  0.0000E+00  0.0000E+00  0.0000E+00  0.0000E+00
      2.454  0.1345E-01  0.3267E-01  0.5380E-01  0.6287E-01  0.0000E+00  0.0000E+00  0.0000E+00  0.0000E+00  0.0000E+00
      2.606  0.2115E-01  0.3211E-01  0.5608E-01  0.6572E-01  0.0000E+00  0.0000E+00  0.0000E+00  0.0000E+00  0.0000E+00
      2.759  0.1527E-01  0.2969E-01  0.5510E-01  0.6493E-01  0.0000E+00  0.0000E+00  0.0000E+00  0.0000E+00  0.0000E+00
      2.911  0.1600E-01  0.2739E-01  0.7753E-01  0.8898E-01  0.0000E+00  0.0000E+00  0.0000E+00  0.0000E+00  0.0000E+00
      3.063  0.1650E-01  0.3051E-01  0.1649E+00  0.1777E+00  0.0000E+00  0.0000E+00  0.0000E+00  0.0000E+00  0.0000E+00
      3.216  0.1500E-01  0.3268E-01  0.6503E-01  0.8110E-01  0.0000E+00  0.0000E+00  0.0000E+00  0.0000E+00  0.0000E+00
      3.368  0.1461E-01  0.4716E-01  0.4670E-01  0.7913E-01  0.0000E+00  0.0000E+00  0.0000E+00  0.0000E+00  0.0000E+00
      3.520  0.1326E-01  0.5307E-01  0.3547E-01  0.7392E-01  0.0000E+00  0.0000E+00  0.0000E+00  0.0000E+00  0.0000E+00
      3.672  0.1298E-01  0.2383E-01  0.3536E-01  0.4735E-01  0.0000E+00  0.0000E+00  0.0000E+00  0.0000E+00  0.0000E+00
      3.825  0.9850E-02  0.2355E-01  0.3186E-01  0.3893E-01  0.0000E+00  0.0000E+00  0.0000E+00  0.0000E+00  0.0000E+00
      3.977  0.1702E-01  0.2809E-01  0.3347E-01  0.4190E-01  0.0000E+00  0.0000E+00  0.0000E+00  0.0000E+00  0.0000E+00
      4.129  0.4330E-02  0.1701E-01  0.2641E-01  0.3475E-01  0.0000E+00  0.0000E+00  0.0000E+00  0.0000E+00  0.0000E+00
      4.282  0.1701E-01  0.2971E-01  0.2889E-01  0.3816E-01  0.0000E+00  0.0000E+00  0.0000E+00  0.0000E+00  0.0000E+00
      4.434  0.6723E-02  0.2073E-01  0.2840E-01  0.3326E-01  0.0000E+00  0.0000E+00  0.0000E+00  0.0000E+00  0.0000E+00
      4.586  0.1044E-01  0.2840E-01  0.3337E-01  0.4007E-01  0.0000E+00  0.0000E+00  0.0000E+00  0.0000E+00  0.0000E+00
      4.738  0.1173E-01  0.1193E+00  0.1192E+00  0.1268E+00  0.0000E+00  0.0000E+00  0.0000E+00  0.0000E+00  0.0000E+00
      4.891  0.5709E-02  0.7462E-01  0.7793E-01  0.8648E-01  0.0000E+00  0.0000E+00  0.0000E+00  0.0000E+00  0.0000E+00
      5.043  0.9054E-02  0.6671E-01  0.6875E-01  0.7633E-01  0.0000E+00  0.0000E+00  0.0000E+00  0.0000E+00  0.0000E+00
      5.195  0.7290E-02  0.6325E-01  0.6320E-01  0.6753E-01  0.0000E+00  0.0000E+00  0.0000E+00  0.0000E+00  0.0000E+00
      5.347  0.6831E-02  0.6522E-01  0.6122E-01  0.7041E-01  0.0000E+00  0.0000E+00  0.0000E+00  0.0000E+00  0.0000E+00
      5.500  0.5153E-02  0.6761E-01  0.6657E-01  0.7610E-01  0.0000E+00  0.0000E+00  0.0000E+00  0.0000E+00  0.0000E+00
      5.652  0.4092E-02  0.8016E-01  0.7604E-01  0.8787E-01  0.0000E+00  0.0000E+00  0.0000E+00  0.0000E+00  0.0000E+00
      5.804  0.2649E-02  0.1448E+00  0.1290E+00  0.1545E+00  0.0000E+00  0.0000E+00  0.0000E+00  0.0000E+00  0.0000E+00
      5.957  0.2903E-03  0.9340E-01  0.8197E-01  0.9735E-01  0.0000E+00  0.0000E+00  0.0000E+00  0.0000E+00  0.0000E+00
      6.109  0.3451E-08  0.1366E-04  0.1207E-04  0.1403E-04  0.0000E+00  0.0000E+00  0.0000E+00  0.0000E+00  0.0000E+00
      6.261  0.2780E-06  0.2266E-06  0.2228E-15  0.9484E-15  0.0000E+00  0.0000E+00  0.0000E+00  0.0000E+00  0.0000E+00
      6.413  0.1204E-01  0.9885E-02  0.2323E-08  0.3238E-08  0.0000E+00  0.0000E+00  0.0000E+00  0.0000E+00  0.0000E+00
      6.566  0.5528E-01  0.4356E-01  0.9756E-04  0.1359E-03  0.0000E+00  0.0000E+00  0.0000E+00  0.0000E+00  0.0000E+00
      6.718  0.4945E-01  0.3841E-01  0.9648E-03  0.1358E-02  0.0000E+00  0.0000E+00  0.0000E+00  0.0000E+00  0.0000E+00
      6.870  0.2985E-01  0.2537E-01  0.1550E-02  0.2221E-02  0.0000E+00  0.0000E+00  0.0000E+00  0.0000E+00  0.0000E+00
      7.023  0.2874E-01  0.2183E-01  0.5546E-02  0.2942E-02  0.0000E+00  0.0000E+00  0.0000E+00  0.0000E+00  0.0000E+00
      7.175  0.4627E-01  0.1983E-01  0.2152E-01  0.4842E-02  0.0000E+00  0.0000E+00  0.0000E+00  0.0000E+00  0.0000E+00
      7.327  0.3825E-01  0.1980E-01  0.1449E-01  0.6004E-02  0.0000E+00  0.0000E+00  0.0000E+00  0.0000E+00  0.0000E+00
      7.479  0.1354E+00  0.2229E-01  0.1615E-01  0.1029E-01  0.0000E+00  0.0000E+00  0.0000E+00  0.0000E+00  0.0000E+00
      7.632  0.8633E-01  0.2314E-01  0.1506E-01  0.1041E-01  0.0000E+00  0.0000E+00  0.0000E+00  0.0000E+00  0.0000E+00
      7.784  0.6527E-01  0.2236E-01  0.1428E-01  0.1055E-01  0.0000E+00  0.0000E+00  0.0000E+00  0.0000E+00  0.0000E+00
      7.936  0.5502E-01  0.2426E-01  0.1386E-01  0.1094E-01  0.0000E+00  0.0000E+00  0.0000E+00  0.0000E+00  0.0000E+00
      8.089  0.4926E-01  0.2585E-01  0.1476E-01  0.1184E-01  0.0000E+00  0.0000E+00  0.0000E+00  0.0000E+00  0.0000E+00
      8.241  0.4558E-01  0.3116E-01  0.1630E-01  0.1363E-01  0.0000E+00  0.0000E+00  0.0000E+00  0.0000E+00  0.0000E+00
      8.393  0.4329E-01  0.7683E-01  0.4615E-01  0.4860E-01  0.0000E+00  0.0000E+00  0.0000E+00  0.0000E+00  0.0000E+00
      8.545  0.3918E-01  0.1218E+00  0.1281E+00  0.1390E+00  0.0000E+00  0.0000E+00  0.0000E+00  0.0000E+00  0.0000E+00
      8.698  0.3308E-01  0.4770E-01  0.7999E-01  0.6573E-01  0.0000E+00  0.0000E+00  0.0000E+00  0.0000E+00  0.0000E+00
      8.850  0.6006E-01  0.3728E-01  0.9344E-01  0.5364E-01  0.0000E+00  0.0000E+00  0.0000E+00  0.0000E+00  0.0000E+00
      9.002  0.5236E-01  0.3358E-01  0.7716E-01  0.4776E-01  0.0000E+00  0.0000E+00  0.0000E+00  0.0000E+00  0.0000E+00
      9.154  0.1867E-01  0.3931E-01  0.4375E-01  0.5178E-01  0.0000E+00  0.0000E+00  0.0000E+00  0.0000E+00  0.0000E+00
      9.307  0.2008E+00  0.8435E-01  0.9128E-01  0.9964E-01  0.0000E+00  0.0000E+00  0.0000E+00  0.0000E+00  0.0000E+00
      9.459  0.1025E+00  0.6665E-01  0.7552E-01  0.8403E-01  0.0000E+00  0.0000E+00  0.0000E+00  0.0000E+00  0.0000E+00
      9.611  0.7324E-01  0.1742E-01  0.2252E-01  0.3089E-01  0.0000E+00  0.0000E+00  0.0000E+00  0.0000E+00  0.0000E+00
      9.764  0.7251E-01  0.1808E-01  0.1817E-01  0.2871E-01  0.0000E+00  0.0000E+00  0.0000E+00  0.0000E+00  0.0000E+00
      9.916  0.5309E-01  0.1839E-01  0.2358E-01  0.3895E-01  0.0000E+00  0.0000E+00  0.0000E+00  0.0000E+00  0.0000E+00
     10.068  0.7671E-01  0.5773E-01  0.3897E-01  0.1147E+00  0.0000E+00  0.0000E+00  0.0000E+00  0.0000E+00  0.0000E+00
     10.220  0.6518E-01  0.3265E-01  0.1914E-01  0.1149E+00  0.0000E+00  0.0000E+00  0.0000E+00  0.0000E+00  0.0000E+00
     10.373  0.4163E-01  0.1845E-01  0.1837E-01  0.1736E-01  0.0000E+00  0.0000E+00  0.0000E+00  0.0000E+00  0.0000E+00
     10.525  0.2415E-01  0.9999E-02  0.1881E-01  0.2022E-01  0.0000E+00  0.0000E+00  0.0000E+00  0.0000E+00  0.0000E+00
     10.677  0.1755E-01  0.7461E-02  0.1113E-01  0.1030E-01  0.0000E+00  0.0000E+00  0.0000E+00  0.0000E+00  0.0000E+00
     10.830  0.2848E-01  0.1994E-01  0.2948E-01  0.2176E-01  0.0000E+00  0.0000E+00  0.0000E+00  0.0000E+00  0.0000E+00
     10.982  0.6875E-01  0.5013E-01  0.5780E-01  0.2295E-01  0.0000E+00  0.0000E+00  0.0000E+00  0.0000E+00  0.0000E+00
     11.134  0.4091E-01  0.2828E-01  0.3570E-01  0.1889E-01  0.0000E+00  0.0000E+00  0.0000E+00  0.0000E+00  0.0000E+00
     11.286  0.3617E-01  0.2875E-01  0.3573E-01  0.3268E-01  0.0000E+00  0.0000E+00  0.0000E+00  0.0000E+00  0.0000E+00
     11.439  0.4218E-01  0.3017E-01  0.2479E-01  0.2940E-01  0.0000E+00  0.0000E+00  0.0000E+00  0.0000E+00  0.0000E+00
     11.591  0.4867E-01  0.4017E-01  0.3330E-01  0.4340E-01  0.0000E+00  0.0000E+00  0.0000E+00  0.0000E+00  0.0000E+00
     11.743  0.3795E-01  0.2887E-01  0.3384E-01  0.3732E-01  0.0000E+00  0.0000E+00  0.0000E+00  0.0000E+00  0.0000E+00
     11.896  0.2166E-01  0.2349E-01  0.2239E-01  0.2696E-01  0.0000E+00  0.0000E+00  0.0000E+00  0.0000E+00  0.0000E+00
     12.048  0.1883E-01  0.2199E-01  0.3134E-01  0.3487E-01  0.0000E+00  0.0000E+00  0.0000E+00  0.0000E+00  0.0000E+00
     12.200  0.2710E-01  0.2589E-01  0.2396E-01  0.2841E-01  0.0000E+00  0.0000E+00  0.0000E+00  0.0000E+00  0.0000E+00
     12.352  0.2490E-01  0.2139E-01  0.2096E-01  0.3000E-01  0.0000E+00  0.0000E+00  0.0000E+00  0.0000E+00  0.0000E+00
     12.505  0.3517E-01  0.2331E-01  0.2464E-01  0.3234E-01  0.0000E+00  0.0000E+00  0.0000E+00  0.0000E+00  0.0000E+00
     12.657  0.2592E-01  0.2403E-01  0.1886E-01  0.3045E-01  0.0000E+00  0.0000E+00  0.0000E+00  0.0000E+00  0.0000E+00
     12.809  0.2483E-01  0.2310E-01  0.2487E-01  0.3335E-01  0.0000E+00  0.0000E+00  0.0000E+00  0.0000E+00  0.0000E+00
     12.962  0.3204E-01  0.3240E-01  0.3899E-01  0.3809E-01  0.0000E+00  0.0000E+00  0.0000E+00  0.0000E+00  0.0000E+00
     13.114  0.2135E-01  0.2654E-01  0.3860E-01  0.4307E-01  0.0000E+00  0.0000E+00  0.0000E+00  0.0000E+00  0.0000E+00
     13.266  0.2387E-01  0.3423E-01  0.1954E-01  0.3451E-01  0.0000E+00  0.0000E+00  0.0000E+00  0.0000E+00  0.0000E+00
     13.418  0.1463E-01  0.2785E-01  0.2452E-01  0.3716E-01  0.0000E+00  0.0000E+00  0.0000E+00  0.0000E+00  0.0000E+00
     13.571  0.2285E-01  0.2108E-01  0.2259E-01  0.2953E-01  0.0000E+00  0.0000E+00  0.0000E+00  0.0000E+00  0.0000E+00
     13.723  0.1372E-01  0.2339E-01  0.2430E-01  0.2999E-01  0.0000E+00  0.0000E+00  0.0000E+00  0.0000E+00  0.0000E+00
     13.875  0.8636E-01  0.2359E-01  0.4669E-01  0.3555E-01  0.0000E+00  0.0000E+00  0.0000E+00  0.0000E+00  0.0000E+00
     14.027  0.5024E-01  0.1185E-01  0.2932E-01  0.1654E-01  0.0000E+00  0.0000E+00  0.0000E+00  0.0000E+00  0.0000E+00
     14.180  0.4402E-01  0.2449E-01  0.3028E-01  0.3377E-01  0.0000E+00  0.0000E+00  0.0000E+00  0.0000E+00  0.0000E+00
     14.332  0.3180E-01  0.1599E-01  0.2084E-01  0.1717E-01  0.0000E+00  0.0000E+00  0.0000E+00  0.0000E+00  0.0000E+00
     14.484  0.2954E-01  0.1944E-01  0.2270E-01  0.2067E-01  0.0000E+00  0.0000E+00  0.0000E+00  0.0000E+00  0.0000E+00
     14.637  0.2591E-01  0.1752E-01  0.2418E-01  0.2015E-01  0.0000E+00  0.0000E+00  0.0000E+00  0.0000E+00  0.0000E+00
     14.789  0.4219E-01  0.2251E-01  0.1893E-01  0.1791E-01  0.0000E+00  0.0000E+00  0.0000E+00  0.0000E+00  0.0000E+00
     14.941  0.3751E-01  0.2360E-01  0.3324E-01  0.3474E-01  0.0000E+00  0.0000E+00  0.0000E+00  0.0000E+00  0.0000E+00
     15.093  0.4268E-01  0.3076E-01  0.2630E-01  0.2784E-01  0.0000E+00  0.0000E+00  0.0000E+00  0.0000E+00  0.0000E+00
     15.246  0.2286E-01  0.2606E-01  0.3603E-01  0.3812E-01  0.0000E+00  0.0000E+00  0.0000E+00  0.0000E+00  0.0000E+00
     15.398  0.1811E-01  0.2632E-01  0.2654E-01  0.2861E-01  0.0000E+00  0.0000E+00  0.0000E+00  0.0000E+00  0.0000E+00
     15.550  0.2352E-01  0.2544E-01  0.3528E-01  0.3876E-01  0.0000E+00  0.0000E+00  0.0000E+00  0.0000E+00  0.0000E+00
     15.703  0.2888E-01  0.3764E-01  0.4925E-01  0.4990E-01  0.0000E+00  0.0000E+00  0.0000E+00  0.0000E+00  0.0000E+00
     15.855  0.7912E-02  0.2098E-01  0.5025E-01  0.5290E-01  0.0000E+00  0.0000E+00  0.0000E+00  0.0000E+00  0.0000E+00
     16.007  0.1772E-01  0.3505E-01  0.1024E+00  0.1054E+00  0.0000E+00  0.0000E+00  0.0000E+00  0.0000E+00  0.0000E+00
     16.159  0.8264E-02  0.2162E-01  0.1428E-01  0.1612E-01  0.0000E+00  0.0000E+00  0.0000E+00  0.0000E+00  0.0000E+00
     16.312  0.1697E-01  0.4074E-01  0.1468E-01  0.1722E-01  0.0000E+00  0.0000E+00  0.0000E+00  0.0000E+00  0.0000E+00
     16.464  0.1387E-01  0.1248E+00  0.2099E+00  0.1275E+00  0.0000E+00  0.0000E+00  0.0000E+00  0.0000E+00  0.0000E+00
     16.616  0.1770E-01  0.6501E-01  0.4775E-01  0.3458E-01  0.0000E+00  0.0000E+00  0.0000E+00  0.0000E+00  0.0000E+00
     16.769  0.6735E-02  0.3531E-01  0.8386E-02  0.1399E-01  0.0000E+00  0.0000E+00  0.0000E+00  0.0000E+00  0.0000E+00
     16.921  0.2126E-01  0.2197E-01  0.6628E-02  0.9430E-02  0.0000E+00  0.0000E+00  0.0000E+00  0.0000E+00  0.0000E+00
     17.073  0.1294E-01  0.1827E-01  0.6851E-02  0.5779E-02  0.0000E+00  0.0000E+00  0.0000E+00  0.0000E+00  0.0000E+00
     17.225  0.1363E-01  0.2961E-01  0.2418E-01  0.1244E-01  0.0000E+00  0.0000E+00  0.0000E+00  0.0000E+00  0.0000E+00
     17.378  0.1228E-01  0.1271E-01  0.8084E-02  0.8920E-02  0.0000E+00  0.0000E+00  0.0000E+00  0.0000E+00  0.0000E+00
     17.530  0.9817E-02  0.1435E-01  0.4124E-02  0.8344E-02  0.0000E+00  0.0000E+00  0.0000E+00  0.0000E+00  0.0000E+00
     17.682  0.8762E-02  0.1342E-01  0.6699E-02  0.4789E-02  0.0000E+00  0.0000E+00  0.0000E+00  0.0000E+00  0.0000E+00
     17.834  0.8808E-02  0.1326E-01  0.4448E-02  0.4028E-02  0.0000E+00  0.0000E+00  0.0000E+00  0.0000E+00  0.0000E+00
     17.987  0.8824E-02  0.1596E-01  0.7346E-02  0.2261E-02  0.0000E+00  0.0000E+00  0.0000E+00  0.0000E+00  0.0000E+00
     18.139  0.8245E-02  0.1943E-01  0.5405E-02  0.5227E-02  0.0000E+00  0.0000E+00  0.0000E+00  0.0000E+00  0.0000E+00
     18.291  0.9022E-02  0.1328E-01  0.4426E-02  0.5252E-02  0.0000E+00  0.0000E+00  0.0000E+00  0.0000E+00  0.0000E+00
     18.444  0.2931E-02  0.1640E-01  0.1200E-02  0.2981E-02  0.0000E+00  0.0000E+00  0.0000E+00  0.0000E+00  0.0000E+00
     18.596  0.1292E-01  0.4623E-01  0.3565E-02  0.4542E-02  0.0000E+00  0.0000E+00  0.0000E+00  0.0000E+00  0.0000E+00
     18.748  0.4325E-01  0.8417E-01  0.2574E-01  0.9246E-02  0.0000E+00  0.0000E+00  0.0000E+00  0.0000E+00  0.0000E+00
     18.900  0.3988E-01  0.8054E-01  0.3094E-01  0.4115E-02  0.0000E+00  0.0000E+00  0.0000E+00  0.0000E+00  0.0000E+00
     19.053  0.2512E-01  0.3818E-01  0.6284E-02  0.5723E-02  0.0000E+00  0.0000E+00  0.0000E+00  0.0000E+00  0.0000E+00
     19.205  0.1632E-01  0.2606E-01  0.1145E-01  0.1351E-01  0.0000E+00  0.0000E+00  0.0000E+00  0.0000E+00  0.0000E+00
     19.357  0.6382E-02  0.1951E-01  0.2051E-01  0.6600E-02  0.0000E+00  0.0000E+00  0.0000E+00  0.0000E+00  0.0000E+00
     19.510  0.1068E-01  0.1306E-01  0.1317E-01  0.7970E-02  0.0000E+00  0.0000E+00  0.0000E+00  0.0000E+00  0.0000E+00
     19.662  0.3307E-02  0.2514E-01  0.1610E-01  0.3502E-02  0.0000E+00  0.0000E+00  0.0000E+00  0.0000E+00  0.0000E+00
     19.814  0.3633E-02  0.6750E-02  0.7405E-02  0.4434E-02  0.0000E+00  0.0000E+00  0.0000E+00  0.0000E+00  0.0000E+00
     19.966  0.3164E-02  0.9165E-02  0.1212E-01  0.3313E-02  0.0000E+00  0.0000E+00  0.0000E+00  0.0000E+00  0.0000E+00
     20.119  0.3236E-02  0.1228E-01  0.1924E-01  0.5217E-02  0.0000E+00  0.0000E+00  0.0000E+00  0.0000E+00  0.0000E+00
     20.271  0.5341E-02  0.1293E-01  0.2239E-01  0.6038E-02  0.0000E+00  0.0000E+00  0.0000E+00  0.0000E+00  0.0000E+00
     20.423  0.1073E-02  0.2744E-02  0.6641E-02  0.1718E-02  0.0000E+00  0.0000E+00  0.0000E+00  0.0000E+00  0.0000E+00
     20.576  0.4847E-02  0.2255E-01  0.1947E-01  0.9095E-02  0.0000E+00  0.0000E+00  0.0000E+00  0.0000E+00  0.0000E+00
     20.728  0.4722E-02  0.2517E-01  0.3205E-01  0.1143E-01  0.0000E+00  0.0000E+00  0.0000E+00  0.0000E+00  0.0000E+00
     20.880  0.1363E-02  0.5114E-02  0.2086E-01  0.5331E-02  0.0000E+00  0.0000E+00  0.0000E+00  0.0000E+00  0.0000E+00
     21.032  0.8983E-03  0.4603E-02  0.8896E-02  0.4833E-02  0.0000E+00  0.0000E+00  0.0000E+00  0.0000E+00  0.0000E+00
     21.185  0.9346E-03  0.1266E-01  0.4323E-02  0.5184E-02  0.0000E+00  0.0000E+00  0.0000E+00  0.0000E+00  0.0000E+00
     21.337  0.5113E-02  0.1547E-01  0.1740E-01  0.8928E-02  0.0000E+00  0.0000E+00  0.0000E+00  0.0000E+00  0.0000E+00
     21.489  0.3227E-02  0.6069E-02  0.1148E-01  0.3838E-02  0.0000E+00  0.0000E+00  0.0000E+00  0.0000E+00  0.0000E+00
     21.641  0.1278E-02  0.6150E-02  0.6705E-02  0.3684E-02  0.0000E+00  0.0000E+00  0.0000E+00  0.0000E+00  0.0000E+00
     21.794  0.8514E-03  0.2487E-02  0.1006E-02  0.4904E-02  0.0000E+00  0.0000E+00  0.0000E+00  0.0000E+00  0.0000E+00
     21.946  0.4576E-02  0.4117E-02  0.4214E-02  0.2300E-02  0.0000E+00  0.0000E+00  0.0000E+00  0.0000E+00  0.0000E+00
     22.098  0.4084E-02  0.5111E-02  0.4270E-02  0.5664E-02  0.0000E+00  0.0000E+00  0.0000E+00  0.0000E+00  0.0000E+00
     22.251  0.6546E-02  0.4359E-02  0.1398E-01  0.1110E-01  0.0000E+00  0.0000E+00  0.0000E+00  0.0000E+00  0.0000E+00
     22.403  0.3175E-02  0.3331E-02  0.1235E-01  0.7497E-02  0.0000E+00  0.0000E+00  0.0000E+00  0.0000E+00  0.0000E+00
     22.555  0.4780E-02  0.3804E-02  0.6535E-02  0.5810E-02  0.0000E+00  0.0000E+00  0.0000E+00  0.0000E+00  0.0000E+00
     22.707  0.2142E-02  0.3421E-02  0.4132E-02  0.3510E-02  0.0000E+00  0.0000E+00  0.0000E+00  0.0000E+00  0.0000E+00
     22.860  0.5567E-02  0.3447E-02  0.4800E-02  0.3898E-02  0.0000E+00  0.0000E+00  0.0000E+00  0.0000E+00  0.0000E+00
     23.012  0.1467E-02  0.4816E-02  0.4734E-02  0.1885E-02  0.0000E+00  0.0000E+00  0.0000E+00  0.0000E+00  0.0000E+00
     23.164  0.2504E-02  0.1758E-02  0.1969E-02  0.1080E-02  0.0000E+00  0.0000E+00  0.0000E+00  0.0000E+00  0.0000E+00
     23.317  0.4703E-02  0.7011E-02  0.1013E-01  0.4632E-02  0.0000E+00  0.0000E+00  0.0000E+00  0.0000E+00  0.0000E+00
     23.469  0.4093E-02  0.6707E-02  0.1068E-01  0.8188E-02  0.0000E+00  0.0000E+00  0.0000E+00  0.0000E+00  0.0000E+00
     23.621  0.1440E-02  0.6757E-03  0.1461E-02  0.2948E-02  0.0000E+00  0.0000E+00  0.0000E+00  0.0000E+00  0.0000E+00
     23.773  0.9378E-05  0.5736E-05  0.1419E-04  0.1105E-04  0.0000E+00  0.0000E+00  0.0000E+00  0.0000E+00  0.0000E+00
     23.926  0.4447E-02  0.6742E-02  0.1100E-01  0.1169E-01  0.0000E+00  0.0000E+00  0.0000E+00  0.0000E+00  0.0000E+00
     24.078  0.8288E-02  0.4423E-02  0.4807E-02  0.7907E-02  0.0000E+00  0.0000E+00  0.0000E+00  0.0000E+00  0.0000E+00
     24.230  0.3833E-02  0.3451E-03  0.6472E-02  0.1518E-02  0.0000E+00  0.0000E+00  0.0000E+00  0.0000E+00  0.0000E+00
     24.383  0.7401E-02  0.1945E-02  0.3951E-02  0.2298E-02  0.0000E+00  0.0000E+00  0.0000E+00  0.0000E+00  0.0000E+00
     24.535  0.1208E-01  0.8697E-02  0.1075E-01  0.6998E-02  0.0000E+00  0.0000E+00  0.0000E+00  0.0000E+00  0.0000E+00
     24.687  0.7303E-02  0.6591E-02  0.1787E-01  0.5923E-02  0.0000E+00  0.0000E+00  0.0000E+00  0.0000E+00  0.0000E+00
     24.839  0.1326E-01  0.5660E-02  0.9647E-02  0.1034E-01  0.0000E+00  0.0000E+00  0.0000E+00  0.0000E+00  0.0000E+00
     24.992  0.4588E-02  0.3192E-02  0.1993E-02  0.4859E-02  0.0000E+00  0.0000E+00  0.0000E+00  0.0000E+00  0.0000E+00
     25.144  0.4236E-02  0.5280E-02  0.4510E-02  0.1652E-02  0.0000E+00  0.0000E+00  0.0000E+00  0.0000E+00  0.0000E+00
     25.296  0.7453E-02  0.3461E-03  0.4133E-02  0.1478E-02  0.0000E+00  0.0000E+00  0.0000E+00  0.0000E+00  0.0000E+00
     25.449  0.7210E-02  0.7621E-03  0.2578E-02  0.6089E-02  0.0000E+00  0.0000E+00  0.0000E+00  0.0000E+00  0.0000E+00
     25.601  0.9638E-02  0.2893E-02  0.6491E-02  0.8401E-02  0.0000E+00  0.0000E+00  0.0000E+00  0.0000E+00  0.0000E+00
     25.753  0.3681E-02  0.3094E-02  0.2833E-02  0.4090E-02  0.0000E+00  0.0000E+00  0.0000E+00  0.0000E+00  0.0000E+00
     25.905  0.5312E-02  0.2809E-02  0.2859E-02  0.6393E-02  0.0000E+00  0.0000E+00  0.0000E+00  0.0000E+00  0.0000E+00
     26.058  0.6496E-02  0.1634E-02  0.3726E-02  0.3524E-02  0.0000E+00  0.0000E+00  0.0000E+00  0.0000E+00  0.0000E+00
     26.210  0.7551E-03  0.2612E-02  0.3594E-02  0.1579E-02  0.0000E+00  0.0000E+00  0.0000E+00  0.0000E+00  0.0000E+00
     26.362  0.2234E-03  0.2673E-02  0.2841E-02  0.1401E-02  0.0000E+00  0.0000E+00  0.0000E+00  0.0000E+00  0.0000E+00
     26.514  0.1580E-04  0.3560E-05  0.2255E-04  0.5419E-05  0.0000E+00  0.0000E+00  0.0000E+00  0.0000E+00  0.0000E+00
     26.667  0.1888E-02  0.1059E-02  0.4880E-02  0.7877E-03  0.0000E+00  0.0000E+00  0.0000E+00  0.0000E+00  0.0000E+00
     26.819  0.2054E-02  0.7056E-03  0.1843E-02  0.2666E-03  0.0000E+00  0.0000E+00  0.0000E+00  0.0000E+00  0.0000E+00
     26.971  0.1221E-01  0.4139E-03  0.2480E-02  0.2503E-02  0.0000E+00  0.0000E+00  0.0000E+00  0.0000E+00  0.0000E+00
     27.124  0.6940E-02  0.6927E-03  0.1107E-02  0.7703E-03  0.0000E+00  0.0000E+00  0.0000E+00  0.0000E+00  0.0000E+00
     27.276  0.1281E-02  0.1279E-03  0.1192E-03  0.5982E-03  0.0000E+00  0.0000E+00  0.0000E+00  0.0000E+00  0.0000E+00
     27.428  0.1467E-02  0.1344E-03  0.3942E-03  0.8574E-03  0.0000E+00  0.0000E+00  0.0000E+00  0.0000E+00  0.0000E+00
     27.580  0.1918E-02  0.6865E-03  0.9440E-03  0.2515E-02  0.0000E+00  0.0000E+00  0.0000E+00  0.0000E+00  0.0000E+00
     27.733  0.1261E-02  0.1466E-02  0.2337E-02  0.3389E-02  0.0000E+00  0.0000E+00  0.0000E+00  0.0000E+00  0.0000E+00
     27.885  0.4486E-03  0.3368E-03  0.7327E-03  0.5670E-03  0.0000E+00  0.0000E+00  0.0000E+00  0.0000E+00  0.0000E+00
     28.037  0.6496E-05  0.3338E-05  0.3633E-05  0.1347E-04  0.0000E+00  0.0000E+00  0.0000E+00  0.0000E+00  0.0000E+00
     28.190  0.1304E-02  0.2305E-02  0.2590E-02  0.3609E-02  0.0000E+00  0.0000E+00  0.0000E+00  0.0000E+00  0.0000E+00
     28.342  0.3507E-03  0.9272E-03  0.1335E-02  0.3686E-02  0.0000E+00  0.0000E+00  0.0000E+00  0.0000E+00  0.0000E+00
     28.494  0.8132E-03  0.9441E-03  0.3427E-02  0.2236E-02  0.0000E+00  0.0000E+00  0.0000E+00  0.0000E+00  0.0000E+00
     28.646  0.5259E-04  0.1483E-03  0.1584E-02  0.8166E-03  0.0000E+00  0.0000E+00  0.0000E+00  0.0000E+00  0.0000E+00
     28.799  0.2827E-05  0.6147E-05  0.3451E-04  0.1634E-03  0.0000E+00  0.0000E+00  0.0000E+00  0.0000E+00  0.0000E+00
     28.951  0.8986E-03  0.1090E-02  0.7929E-03  0.4971E-02  0.0000E+00  0.0000E+00  0.0000E+00  0.0000E+00  0.0000E+00
     29.103  0.2607E-02  0.3924E-02  0.4031E-02  0.1182E-01  0.0000E+00  0.0000E+00  0.0000E+00  0.0000E+00  0.0000E+00
     29.256  0.1304E-02  0.2333E-02  0.1410E-02  0.4913E-02  0.0000E+00  0.0000E+00  0.0000E+00  0.0000E+00  0.0000E+00
     29.408  0.7050E-03  0.1222E-02  0.2190E-02  0.1160E-02  0.0000E+00  0.0000E+00  0.0000E+00  0.0000E+00  0.0000E+00
     29.560  0.1040E-02  0.2477E-02  0.2690E-02  0.1508E-02  0.0000E+00  0.0000E+00  0.0000E+00  0.0000E+00  0.0000E+00
     29.712  0.2750E-06  0.2631E-04  0.4635E-04  0.3637E-04  0.0000E+00  0.0000E+00  0.0000E+00  0.0000E+00  0.0000E+00
     29.865  0.4016E-05  0.9053E-03  0.1620E-02  0.1273E-02  0.0000E+00  0.0000E+00  0.0000E+00  0.0000E+00  0.0000E+00
     30.017  0.3561E-07  0.8026E-05  0.1436E-04  0.1129E-04  0.0000E+00  0.0000E+00  0.0000E+00  0.0000E+00  0.0000E+00
     30.169  0.4592E-16  0.1035E-13  0.1852E-13  0.1456E-13  0.0000E+00  0.0000E+00  0.0000E+00  0.0000E+00  0.0000E+00
     30.321  0.0000E+00  0.0000E+00  0.0000E+00  0.0000E+00  0.0000E+00  0.0000E+00  0.0000E+00  0.0000E+00  0.0000E+00
     30.474  0.3132E-18  0.1386E-18  0.1167E-17  0.5949E-18  0.0000E+00  0.0000E+00  0.0000E+00  0.0000E+00  0.0000E+00
     30.626  0.4094E-07  0.1667E-07  0.1447E-06  0.9328E-07  0.0000E+00  0.0000E+00  0.0000E+00  0.0000E+00  0.0000E+00
     30.778  0.3200E-03  0.8010E-04  0.8581E-03  0.1271E-02  0.0000E+00  0.0000E+00  0.0000E+00  0.0000E+00  0.0000E+00
     30.931  0.1778E-03  0.2573E-04  0.3749E-03  0.9088E-03  0.0000E+00  0.0000E+00  0.0000E+00  0.0000E+00  0.0000E+00
     31.083  0.1479E-08  0.3732E-10  0.2158E-08  0.9461E-08  0.0000E+00  0.0000E+00  0.0000E+00  0.0000E+00  0.0000E+00
     31.235  0.0000E+00  0.0000E+00  0.0000E+00  0.0000E+00  0.0000E+00  0.0000E+00  0.0000E+00  0.0000E+00  0.0000E+00
     31.387  0.0000E+00  0.0000E+00  0.0000E+00  0.0000E+00  0.0000E+00  0.0000E+00  0.0000E+00  0.0000E+00  0.0000E+00
     31.540  0.0000E+00  0.0000E+00  0.0000E+00  0.0000E+00  0.0000E+00  0.0000E+00  0.0000E+00  0.0000E+00  0.0000E+00
     31.692  0.1992E-19  0.2460E-18  0.5202E-18  0.3276E-18  0.0000E+00  0.0000E+00  0.0000E+00  0.0000E+00  0.0000E+00
     31.844  0.7319E-08  0.9041E-07  0.1912E-06  0.1204E-06  0.0000E+00  0.0000E+00  0.0000E+00  0.0000E+00  0.0000E+00
     31.997  0.8124E-04  0.1003E-02  0.2122E-02  0.1336E-02  0.0000E+00  0.0000E+00  0.0000E+00  0.0000E+00  0.0000E+00
     32.149  0.3835E-04  0.4737E-03  0.1002E-02  0.6309E-03  0.0000E+00  0.0000E+00  0.0000E+00  0.0000E+00  0.0000E+00
     32.301  0.7337E-05  0.4723E-04  0.8577E-04  0.2385E-04  0.0000E+00  0.0000E+00  0.0000E+00  0.0000E+00  0.0000E+00
     32.453  0.3699E-03  0.2381E-02  0.4324E-02  0.1202E-02  0.0000E+00  0.0000E+00  0.0000E+00  0.0000E+00  0.0000E+00
     32.606  0.4278E-03  0.2884E-03  0.8717E-04  0.4405E-03  0.0000E+00  0.0000E+00  0.0000E+00  0.0000E+00  0.0000E+00
     32.758  0.6660E-03  0.4051E-03  0.4828E-04  0.6689E-03  0.0000E+00  0.0000E+00  0.0000E+00  0.0000E+00  0.0000E+00
     32.910  0.3120E-07  0.1898E-07  0.2261E-08  0.3133E-07  0.0000E+00  0.0000E+00  0.0000E+00  0.0000E+00  0.0000E+00
     33.063  0.2415E-12  0.5886E-13  0.1225E-12  0.5788E-13  0.0000E+00  0.0000E+00  0.0000E+00  0.0000E+00  0.0000E+00
     33.215  0.5494E-04  0.1339E-04  0.2788E-04  0.1317E-04  0.0000E+00  0.0000E+00  0.0000E+00  0.0000E+00  0.0000E+00
     33.367  0.2877E-02  0.7012E-03  0.1460E-02  0.6896E-03  0.0000E+00  0.0000E+00  0.0000E+00  0.0000E+00  0.0000E+00
     33.519  0.3917E-04  0.9571E-05  0.1991E-04  0.9474E-05  0.0000E+00  0.0000E+00  0.0000E+00  0.0000E+00  0.0000E+00
     33.672  0.3192E-03  0.2615E-03  0.3977E-03  0.7051E-03  0.0000E+00  0.0000E+00  0.0000E+00  0.0000E+00  0.0000E+00
     33.824  0.1242E-03  0.1017E-03  0.1547E-03  0.2743E-03  0.0000E+00  0.0000E+00  0.0000E+00  0.0000E+00  0.0000E+00
     33.976  0.1682E-08  0.8257E-09  0.6617E-09  0.2127E-08  0.0000E+00  0.0000E+00  0.0000E+00  0.0000E+00  0.0000E+00
     34.129  0.3165E-03  0.1394E-03  0.8312E-04  0.3543E-03  0.0000E+00  0.0000E+00  0.0000E+00  0.0000E+00  0.0000E+00
     34.281  0.5450E-03  0.2401E-03  0.1431E-03  0.6100E-03  0.0000E+00  0.0000E+00  0.0000E+00  0.0000E+00  0.0000E+00
     34.433  0.3117E-07  0.1373E-07  0.8186E-08  0.3489E-07  0.0000E+00  0.0000E+00  0.0000E+00  0.0000E+00  0.0000E+00
     34.585  0.0000E+00  0.0000E+00  0.0000E+00  0.0000E+00  0.0000E+00  0.0000E+00  0.0000E+00  0.0000E+00  0.0000E+00
     34.738  0.0000E+00  0.0000E+00  0.0000E+00  0.0000E+00  0.0000E+00  0.0000E+00  0.0000E+00  0.0000E+00  0.0000E+00
     34.890  0.0000E+00  0.0000E+00  0.0000E+00  0.0000E+00  0.0000E+00  0.0000E+00  0.0000E+00  0.0000E+00  0.0000E+00
     35.042  0.0000E+00  0.0000E+00  0.0000E+00  0.0000E+00  0.0000E+00  0.0000E+00  0.0000E+00  0.0000E+00  0.0000E+00
     35.194  0.1202E-10  0.1262E-12  0.2118E-12  0.6010E-12  0.0000E+00  0.0000E+00  0.0000E+00  0.0000E+00  0.0000E+00
     35.347  0.3301E-03  0.3467E-05  0.5819E-05  0.1651E-04  0.0000E+00  0.0000E+00  0.0000E+00  0.0000E+00  0.0000E+00
     35.499  0.5281E-02  0.5547E-04  0.9310E-04  0.2641E-03  0.0000E+00  0.0000E+00  0.0000E+00  0.0000E+00  0.0000E+00
     35.651  0.1724E-04  0.1811E-06  0.3040E-06  0.8624E-06  0.0000E+00  0.0000E+00  0.0000E+00  0.0000E+00  0.0000E+00
     35.804  0.0000E+00  0.0000E+00  0.0000E+00  0.0000E+00  0.0000E+00  0.0000E+00  0.0000E+00  0.0000E+00  0.0000E+00
     35.956  0.0000E+00  0.0000E+00  0.0000E+00  0.0000E+00  0.0000E+00  0.0000E+00  0.0000E+00  0.0000E+00  0.0000E+00
     36.108  0.0000E+00  0.0000E+00  0.0000E+00  0.0000E+00  0.0000E+00  0.0000E+00  0.0000E+00  0.0000E+00  0.0000E+00
     36.260  0.0000E+00  0.0000E+00  0.0000E+00  0.0000E+00  0.0000E+00  0.0000E+00  0.0000E+00  0.0000E+00  0.0000E+00
     36.413  0.0000E+00  0.0000E+00  0.0000E+00  0.0000E+00  0.0000E+00  0.0000E+00  0.0000E+00  0.0000E+00  0.0000E+00
     36.565  0.0000E+00  0.0000E+00  0.0000E+00  0.0000E+00  0.0000E+00  0.0000E+00  0.0000E+00  0.0000E+00  0.0000E+00
     36.717  0.0000E+00  0.0000E+00  0.0000E+00  0.0000E+00  0.0000E+00  0.0000E+00  0.0000E+00  0.0000E+00  0.0000E+00
     36.870  0.0000E+00  0.0000E+00  0.0000E+00  0.0000E+00  0.0000E+00  0.0000E+00  0.0000E+00  0.0000E+00  0.0000E+00
     37.022  0.0000E+00  0.0000E+00  0.0000E+00  0.0000E+00  0.0000E+00  0.0000E+00  0.0000E+00  0.0000E+00  0.0000E+00
     37.174  0.0000E+00  0.0000E+00  0.0000E+00  0.0000E+00  0.0000E+00  0.0000E+00  0.0000E+00  0.0000E+00  0.0000E+00
     37.326  0.0000E+00  0.0000E+00  0.0000E+00  0.0000E+00  0.0000E+00  0.0000E+00  0.0000E+00  0.0000E+00  0.0000E+00
     37.479  0.0000E+00  0.0000E+00  0.0000E+00  0.0000E+00  0.0000E+00  0.0000E+00  0.0000E+00  0.0000E+00  0.0000E+00
     37.47867635     -8.20549790  301      6.12791177      1.00000000
     -8.205  0.0000E+00  0.0000E+00  0.0000E+00  0.0000E+00  0.0000E+00  0.0000E+00  0.0000E+00  0.0000E+00  0.0000E+00
     -8.053  0.0000E+00  0.0000E+00  0.0000E+00  0.0000E+00  0.0000E+00  0.0000E+00  0.0000E+00  0.0000E+00  0.0000E+00
     -7.901  0.0000E+00  0.0000E+00  0.0000E+00  0.0000E+00  0.0000E+00  0.0000E+00  0.0000E+00  0.0000E+00  0.0000E+00
     -7.749  0.0000E+00  0.0000E+00  0.0000E+00  0.0000E+00  0.0000E+00  0.0000E+00  0.0000E+00  0.0000E+00  0.0000E+00
     -7.596  0.0000E+00  0.0000E+00  0.0000E+00  0.0000E+00  0.0000E+00  0.0000E+00  0.0000E+00  0.0000E+00  0.0000E+00
     -7.444  0.0000E+00  0.0000E+00  0.0000E+00  0.0000E+00  0.0000E+00  0.0000E+00  0.0000E+00  0.0000E+00  0.0000E+00
     -7.292  0.0000E+00  0.0000E+00  0.0000E+00  0.0000E+00  0.0000E+00  0.0000E+00  0.0000E+00  0.0000E+00  0.0000E+00
     -7.140  0.0000E+00  0.0000E+00  0.0000E+00  0.0000E+00  0.0000E+00  0.0000E+00  0.0000E+00  0.0000E+00  0.0000E+00
     -6.987  0.0000E+00  0.0000E+00  0.0000E+00  0.0000E+00  0.0000E+00  0.0000E+00  0.0000E+00  0.0000E+00  0.0000E+00
     -6.835  0.0000E+00  0.0000E+00  0.0000E+00  0.0000E+00  0.0000E+00  0.0000E+00  0.0000E+00  0.0000E+00  0.0000E+00
     -6.683  0.0000E+00  0.0000E+00  0.0000E+00  0.0000E+00  0.0000E+00  0.0000E+00  0.0000E+00  0.0000E+00  0.0000E+00
     -6.530  0.0000E+00  0.0000E+00  0.0000E+00  0.0000E+00  0.0000E+00  0.0000E+00  0.0000E+00  0.0000E+00  0.0000E+00
     -6.378  0.6642E-13  0.3360E-17  0.6968E-18  0.1549E-17  0.0000E+00  0.0000E+00  0.0000E+00  0.0000E+00  0.0000E+00
     -6.226  0.3003E-03  0.3660E-07  0.7591E-08  0.1687E-07  0.0000E+00  0.0000E+00  0.0000E+00  0.0000E+00  0.0000E+00
     -6.074  0.1996E+00  0.1265E-03  0.2628E-04  0.5829E-04  0.0000E+00  0.0000E+00  0.0000E+00  0.0000E+00  0.0000E+00
     -5.921  0.1899E+00  0.6682E-03  0.1392E-03  0.3068E-03  0.0000E+00  0.0000E+00  0.0000E+00  0.0000E+00  0.0000E+00
     -5.769  0.1174E+00  0.1003E-02  0.2099E-03  0.4578E-03  0.0000E+00  0.0000E+00  0.0000E+00  0.0000E+00  0.0000E+00
     -5.617  0.9427E-01  0.1246E-02  0.2622E-03  0.5674E-03  0.0000E+00  0.0000E+00  0.0000E+00  0.0000E+00  0.0000E+00
     -5.464  0.8042E-01  0.1425E-02  0.3060E-03  0.6500E-03  0.0000E+00  0.0000E+00  0.0000E+00  0.0000E+00  0.0000E+00
     -5.312  0.7361E-01  0.1653E-02  0.3437E-03  0.7299E-03  0.0000E+00  0.0000E+00  0.0000E+00  0.0000E+00  0.0000E+00
     -5.160  0.6488E-01  0.1708E-02  0.3885E-03  0.7712E-03  0.0000E+00  0.0000E+00  0.0000E+00  0.0000E+00  0.0000E+00
     -5.008  0.6120E-01  0.1878E-02  0.4118E-03  0.8535E-03  0.0000E+00  0.0000E+00  0.0000E+00  0.0000E+00  0.0000E+00
     -4.855  0.6115E-01  0.2141E-02  0.4698E-03  0.9448E-03  0.0000E+00  0.0000E+00  0.0000E+00  0.0000E+00  0.0000E+00
     -4.703  0.5627E-01  0.2229E-02  0.4753E-03  0.9493E-03  0.0000E+00  0.0000E+00  0.0000E+00  0.0000E+00  0.0000E+00
     -4.551  0.5555E-01  0.2349E-02  0.5569E-03  0.1026E-02  0.0000E+00  0.0000E+00  0.0000E+00  0.0000E+00  0.0000E+00
     -4.398  0.5198E-01  0.2400E-02  0.5571E-03  0.1025E-02  0.0000E+00  0.0000E+00  0.0000E+00  0.0000E+00  0.0000E+00
     -4.246  0.5274E-01  0.2536E-02  0.6386E-03  0.1103E-02  0.0000E+00  0.0000E+00  0.0000E+00  0.0000E+00  0.0000E+00
     -4.094  0.5300E-01  0.2624E-02  0.7023E-03  0.1155E-02  0.0000E+00  0.0000E+00  0.0000E+00  0.0000E+00  0.0000E+00
     -3.942  0.5656E-01  0.2716E-02  0.8354E-03  0.1265E-02  0.0000E+00  0.0000E+00  0.0000E+00  0.0000E+00  0.0000E+00
     -3.789  0.8026E-01  0.3152E-02  0.1359E-02  0.1751E-02  0.0000E+00  0.0000E+00  0.0000E+00  0.0000E+00  0.0000E+00
     -3.637  0.3827E-01  0.2340E-02  0.5254E-03  0.8688E-03  0.0000E+00  0.0000E+00  0.0000E+00  0.0000E+00  0.0000E+00
     -3.485  0.2684E-01  0.2385E-02  0.3189E-03  0.6044E-03  0.0000E+00  0.0000E+00  0.0000E+00  0.0000E+00  0.0000E+00
     -3.333  0.2823E-01  0.2701E-02  0.3917E-03  0.6087E-03  0.0000E+00  0.0000E+00  0.0000E+00  0.0000E+00  0.0000E+00
     -3.180  0.2791E-01  0.2728E-02  0.4936E-03  0.6209E-03  0.0000E+00  0.0000E+00  0.0000E+00  0.0000E+00  0.0000E+00
     -3.028  0.2476E-01  0.2192E-02  0.6378E-03  0.6355E-03  0.0000E+00  0.0000E+00  0.0000E+00  0.0000E+00  0.0000E+00
     -2.876  0.2494E-01  0.2063E-02  0.8425E-03  0.6470E-03  0.0000E+00  0.0000E+00  0.0000E+00  0.0000E+00  0.0000E+00
     -2.723  0.3107E-01  0.3003E-02  0.1123E-02  0.6446E-03  0.0000E+00  0.0000E+00  0.0000E+00  0.0000E+00  0.0000E+00
     -2.571  0.3246E-01  0.3224E-02  0.1444E-02  0.5981E-03  0.0000E+00  0.0000E+00  0.0000E+00  0.0000E+00  0.0000E+00
     -2.419  0.5620E-01  0.2895E-02  0.4976E-02  0.1063E-02  0.0000E+00  0.0000E+00  0.0000E+00  0.0000E+00  0.0000E+00
     -2.267  0.2546E+00  0.1064E-01  0.2660E-01  0.3339E-02  0.0000E+00  0.0000E+00  0.0000E+00  0.0000E+00  0.0000E+00
     -2.114  0.1360E+00  0.1046E-01  0.1306E-01  0.4893E-03  0.0000E+00  0.0000E+00  0.0000E+00  0.0000E+00  0.0000E+00
     -1.962  0.3450E+00  0.6546E-01  0.1051E-01  0.1152E-03  0.0000E+00  0.0000E+00  0.0000E+00  0.0000E+00  0.0000E+00
     -1.810  0.8027E+00  0.1385E+00  0.3600E-01  0.1075E-03  0.0000E+00  0.0000E+00  0.0000E+00  0.0000E+00  0.0000E+00
     -1.657  0.1990E+00  0.2442E-01  0.1820E-01  0.4159E-04  0.0000E+00  0.0000E+00  0.0000E+00  0.0000E+00  0.0000E+00
     -1.505  0.1337E+00  0.1236E-01  0.1984E-01  0.4802E-03  0.0000E+00  0.0000E+00  0.0000E+00  0.0000E+00  0.0000E+00
     -1.353  0.2908E+00  0.1479E-01  0.6303E-01  0.5245E-02  0.0000E+00  0.0000E+00  0.0000E+00  0.0000E+00  0.0000E+00
     -1.201  0.4598E-01  0.4936E-02  0.7929E-02  0.1139E-02  0.0000E+00  0.0000E+00  0.0000E+00  0.0000E+00  0.0000E+00
     -1.048  0.4634E-01  0.9869E-02  0.1040E-01  0.7014E-02  0.0000E+00  0.0000E+00  0.0000E+00  0.0000E+00  0.0000E+00
     -0.896  0.3209E-01  0.5909E-02  0.7522E-02  0.4556E-02  0.0000E+00  0.0000E+00  0.0000E+00  0.0000E+00  0.0000E+00
     -0.744  0.3648E-01  0.7908E-02  0.6298E-02  0.3783E-02  0.0000E+00  0.0000E+00  0.0000E+00  0.0000E+00  0.0000E+00
     -0.591  0.2693E-01  0.5413E-02  0.5542E-02  0.3334E-02  0.0000E+00  0.0000E+00  0.0000E+00  0.0000E+00  0.0000E+00
     -0.439  0.2595E-01  0.5444E-02  0.4957E-02  0.2985E-02  0.0000E+00  0.0000E+00  0.0000E+00  0.0000E+00  0.0000E+00
     -0.287  0.2926E-01  0.7158E-02  0.4451E-02  0.2730E-02  0.0000E+00  0.0000E+00  0.0000E+00  0.0000E+00  0.0000E+00
     -0.135  0.1865E-01  0.3926E-02  0.4366E-02  0.2959E-02  0.0000E+00  0.0000E+00  0.0000E+00  0.0000E+00  0.0000E+00
      0.018  0.2702E-01  0.7454E-02  0.4389E-02  0.3254E-02  0.0000E+00  0.0000E+00  0.0000E+00  0.0000E+00  0.0000E+00
      0.170  0.2433E-01  0.6667E-02  0.4232E-02  0.3071E-02  0.0000E+00  0.0000E+00  0.0000E+00  0.0000E+00  0.0000E+00
      0.322  0.1779E-01  0.4008E-02  0.3686E-02  0.2399E-02  0.0000E+00  0.0000E+00  0.0000E+00  0.0000E+00  0.0000E+00
      0.474  0.2923E-01  0.8768E-02  0.4701E-02  0.3575E-02  0.0000E+00  0.0000E+00  0.0000E+00  0.0000E+00  0.0000E+00
      0.627  0.1661E-01  0.4755E-02  0.4048E-02  0.3433E-02  0.0000E+00  0.0000E+00  0.0000E+00  0.0000E+00  0.0000E+00
      0.779  0.1813E-01  0.6166E-02  0.2301E-02  0.1779E-02  0.0000E+00  0.0000E+00  0.0000E+00  0.0000E+00  0.0000E+00
      0.931  0.2506E-01  0.8136E-02  0.4575E-02  0.3797E-02  0.0000E+00  0.0000E+00  0.0000E+00  0.0000E+00  0.0000E+00
      1.084  0.1831E-01  0.5649E-02  0.4572E-02  0.4073E-02  0.0000E+00  0.0000E+00  0.0000E+00  0.0000E+00  0.0000E+00
      1.236  0.1671E-01  0.7113E-02  0.1391E-02  0.1220E-02  0.0000E+00  0.0000E+00  0.0000E+00  0.0000E+00  0.0000E+00
      1.388  0.1827E-01  0.7820E-02  0.7224E-02  0.6485E-02  0.0000E+00  0.0000E+00  0.0000E+00  0.0000E+00  0.0000E+00
      1.540  0.2342E-01  0.5210E-01  0.4615E-01  0.4810E-01  0.0000E+00  0.0000E+00  0.0000E+00  0.0000E+00  0.0000E+00
      1.693  0.1476E-01  0.7375E-01  0.6229E-01  0.7772E-01  0.0000E+00  0.0000E+00  0.0000E+00  0.0000E+00  0.0000E+00
      1.845  0.2073E-01  0.4138E-01  0.4002E-01  0.4891E-01  0.0000E+00  0.0000E+00  0.0000E+00  0.0000E+00  0.0000E+00
      1.997  0.1758E-01  0.5702E-01  0.5733E-01  0.7525E-01  0.0000E+00  0.0000E+00  0.0000E+00  0.0000E+00  0.0000E+00
      2.150  0.1504E-01  0.6533E-01  0.8920E-01  0.1116E+00  0.0000E+00  0.0000E+00  0.0000E+00  0.0000E+00  0.0000E+00
      2.302  0.2399E-01  0.4376E-01  0.6214E-01  0.7334E-01  0.0000E+00  0.0000E+00  0.0000E+00  0.0000E+00  0.0000E+00
      2.454  0.1345E-01  0.3267E-01  0.5380E-01  0.6287E-01  0.0000E+00  0.0000E+00  0.0000E+00  0.0000E+00  0.0000E+00
      2.606  0.2115E-01  0.3211E-01  0.5608E-01  0.6571E-01  0.0000E+00  0.0000E+00  0.0000E+00  0.0000E+00  0.0000E+00
      2.759  0.1527E-01  0.2969E-01  0.5510E-01  0.6493E-01  0.0000E+00  0.0000E+00  0.0000E+00  0.0000E+00  0.0000E+00
      2.911  0.1600E-01  0.2739E-01  0.7753E-01  0.8898E-01  0.0000E+00  0.0000E+00  0.0000E+00  0.0000E+00  0.0000E+00
      3.063  0.1650E-01  0.3051E-01  0.1649E+00  0.1777E+00  0.0000E+00  0.0000E+00  0.0000E+00  0.0000E+00  0.0000E+00
      3.216  0.1500E-01  0.3268E-01  0.6503E-01  0.8110E-01  0.0000E+00  0.0000E+00  0.0000E+00  0.0000E+00  0.0000E+00
      3.368  0.1461E-01  0.4716E-01  0.4670E-01  0.7913E-01  0.0000E+00  0.0000E+00  0.0000E+00  0.0000E+00  0.0000E+00
      3.520  0.1326E-01  0.5307E-01  0.3547E-01  0.7392E-01  0.0000E+00  0.0000E+00  0.0000E+00  0.0000E+00  0.0000E+00
      3.672  0.1298E-01  0.2383E-01  0.3536E-01  0.4735E-01  0.0000E+00  0.0000E+00  0.0000E+00  0.0000E+00  0.0000E+00
      3.825  0.9850E-02  0.2355E-01  0.3186E-01  0.3893E-01  0.0000E+00  0.0000E+00  0.0000E+00  0.0000E+00  0.0000E+00
      3.977  0.1702E-01  0.2809E-01  0.3347E-01  0.4190E-01  0.0000E+00  0.0000E+00  0.0000E+00  0.0000E+00  0.0000E+00
      4.129  0.4330E-02  0.1701E-01  0.2641E-01  0.3475E-01  0.0000E+00  0.0000E+00  0.0000E+00  0.0000E+00  0.0000E+00
      4.282  0.1701E-01  0.2971E-01  0.2889E-01  0.3816E-01  0.0000E+00  0.0000E+00  0.0000E+00  0.0000E+00  0.0000E+00
      4.434  0.6723E-02  0.2073E-01  0.2840E-01  0.3326E-01  0.0000E+00  0.0000E+00  0.0000E+00  0.0000E+00  0.0000E+00
      4.586  0.1044E-01  0.2840E-01  0.3337E-01  0.4007E-01  0.0000E+00  0.0000E+00  0.0000E+00  0.0000E+00  0.0000E+00
      4.738  0.1173E-01  0.1193E+00  0.1192E+00  0.1268E+00  0.0000E+00  0.0000E+00  0.0000E+00  0.0000E+00  0.0000E+00
      4.891  0.5709E-02  0.7462E-01  0.7794E-01  0.8648E-01  0.0000E+00  0.0000E+00  0.0000E+00  0.0000E+00  0.0000E+00
      5.043  0.9054E-02  0.6671E-01  0.6875E-01  0.7633E-01  0.0000E+00  0.0000E+00  0.0000E+00  0.0000E+00  0.0000E+00
      5.195  0.7290E-02  0.6325E-01  0.6320E-01  0.6753E-01  0.0000E+00  0.0000E+00  0.0000E+00  0.0000E+00  0.0000E+00
      5.347  0.6831E-02  0.6522E-01  0.6122E-01  0.7041E-01  0.0000E+00  0.0000E+00  0.0000E+00  0.0000E+00  0.0000E+00
      5.500  0.5153E-02  0.6761E-01  0.6657E-01  0.7610E-01  0.0000E+00  0.0000E+00  0.0000E+00  0.0000E+00  0.0000E+00
      5.652  0.4092E-02  0.8016E-01  0.7604E-01  0.8787E-01  0.0000E+00  0.0000E+00  0.0000E+00  0.0000E+00  0.0000E+00
      5.804  0.2649E-02  0.1448E+00  0.1290E+00  0.1545E+00  0.0000E+00  0.0000E+00  0.0000E+00  0.0000E+00  0.0000E+00
      5.957  0.2903E-03  0.9340E-01  0.8197E-01  0.9735E-01  0.0000E+00  0.0000E+00  0.0000E+00  0.0000E+00  0.0000E+00
      6.109  0.3451E-08  0.1366E-04  0.1207E-04  0.1403E-04  0.0000E+00  0.0000E+00  0.0000E+00  0.0000E+00  0.0000E+00
      6.261  0.2780E-06  0.2266E-06  0.1170E-14  0.3792E-15  0.0000E+00  0.0000E+00  0.0000E+00  0.0000E+00  0.0000E+00
      6.413  0.1204E-01  0.9885E-02  0.2353E-08  0.3215E-08  0.0000E+00  0.0000E+00  0.0000E+00  0.0000E+00  0.0000E+00
      6.566  0.5528E-01  0.4356E-01  0.9754E-04  0.1359E-03  0.0000E+00  0.0000E+00  0.0000E+00  0.0000E+00  0.0000E+00
      6.718  0.4945E-01  0.3841E-01  0.9648E-03  0.1357E-02  0.0000E+00  0.0000E+00  0.0000E+00  0.0000E+00  0.0000E+00
      6.870  0.2985E-01  0.2537E-01  0.1550E-02  0.2221E-02  0.0000E+00  0.0000E+00  0.0000E+00  0.0000E+00  0.0000E+00
      7.023  0.2874E-01  0.2183E-01  0.5546E-02  0.2942E-02  0.0000E+00  0.0000E+00  0.0000E+00  0.0000E+00  0.0000E+00
      7.175  0.4627E-01  0.1984E-01  0.2152E-01  0.4841E-02  0.0000E+00  0.0000E+00  0.0000E+00  0.0000E+00  0.0000E+00
      7.327  0.3825E-01  0.1980E-01  0.1449E-01  0.6004E-02  0.0000E+00  0.0000E+00  0.0000E+00  0.0000E+00  0.0000E+00
      7.479  0.1354E+00  0.2229E-01  0.1615E-01  0.1029E-01  0.0000E+00  0.0000E+00  0.0000E+00  0.0000E+00  0.0000E+00
      7.632  0.8633E-01  0.2314E-01  0.1506E-01  0.1041E-01  0.0000E+00  0.0000E+00  0.0000E+00  0.0000E+00  0.0000E+00
      7.784  0.6527E-01  0.2236E-01  0.1428E-01  0.1055E-01  0.0000E+00  0.0000E+00  0.0000E+00  0.0000E+00  0.0000E+00
      7.936  0.5502E-01  0.2426E-01  0.1386E-01  0.1094E-01  0.0000E+00  0.0000E+00  0.0000E+00  0.0000E+00  0.0000E+00
      8.089  0.4926E-01  0.2584E-01  0.1476E-01  0.1184E-01  0.0000E+00  0.0000E+00  0.0000E+00  0.0000E+00  0.0000E+00
      8.241  0.4558E-01  0.3116E-01  0.1630E-01  0.1363E-01  0.0000E+00  0.0000E+00  0.0000E+00  0.0000E+00  0.0000E+00
      8.393  0.4329E-01  0.7683E-01  0.4615E-01  0.4860E-01  0.0000E+00  0.0000E+00  0.0000E+00  0.0000E+00  0.0000E+00
      8.545  0.3918E-01  0.1218E+00  0.1281E+00  0.1390E+00  0.0000E+00  0.0000E+00  0.0000E+00  0.0000E+00  0.0000E+00
      8.698  0.3308E-01  0.4769E-01  0.7999E-01  0.6573E-01  0.0000E+00  0.0000E+00  0.0000E+00  0.0000E+00  0.0000E+00
      8.850  0.6006E-01  0.3728E-01  0.9344E-01  0.5364E-01  0.0000E+00  0.0000E+00  0.0000E+00  0.0000E+00  0.0000E+00
      9.002  0.5236E-01  0.3358E-01  0.7716E-01  0.4776E-01  0.0000E+00  0.0000E+00  0.0000E+00  0.0000E+00  0.0000E+00
      9.154  0.1867E-01  0.3931E-01  0.4376E-01  0.5178E-01  0.0000E+00  0.0000E+00  0.0000E+00  0.0000E+00  0.0000E+00
      9.307  0.2008E+00  0.8435E-01  0.9129E-01  0.9964E-01  0.0000E+00  0.0000E+00  0.0000E+00  0.0000E+00  0.0000E+00
      9.459  0.1025E+00  0.6665E-01  0.7552E-01  0.8403E-01  0.0000E+00  0.0000E+00  0.0000E+00  0.0000E+00  0.0000E+00
      9.611  0.7324E-01  0.1742E-01  0.2252E-01  0.3089E-01  0.0000E+00  0.0000E+00  0.0000E+00  0.0000E+00  0.0000E+00
      9.764  0.7251E-01  0.1808E-01  0.1817E-01  0.2871E-01  0.0000E+00  0.0000E+00  0.0000E+00  0.0000E+00  0.0000E+00
      9.916  0.5309E-01  0.1839E-01  0.2358E-01  0.3895E-01  0.0000E+00  0.0000E+00  0.0000E+00  0.0000E+00  0.0000E+00
     10.068  0.7671E-01  0.5773E-01  0.3897E-01  0.1147E+00  0.0000E+00  0.0000E+00  0.0000E+00  0.0000E+00  0.0000E+00
     10.220  0.6518E-01  0.3266E-01  0.1915E-01  0.1150E+00  0.0000E+00  0.0000E+00  0.0000E+00  0.0000E+00  0.0000E+00
     10.373  0.4163E-01  0.1845E-01  0.1837E-01  0.1736E-01  0.0000E+00  0.0000E+00  0.0000E+00  0.0000E+00  0.0000E+00
     10.525  0.2415E-01  0.9999E-02  0.1881E-01  0.2022E-01  0.0000E+00  0.0000E+00  0.0000E+00  0.0000E+00  0.0000E+00
     10.677  0.1755E-01  0.7461E-02  0.1114E-01  0.1030E-01  0.0000E+00  0.0000E+00  0.0000E+00  0.0000E+00  0.0000E+00
     10.830  0.2848E-01  0.1994E-01  0.2948E-01  0.2176E-01  0.0000E+00  0.0000E+00  0.0000E+00  0.0000E+00  0.0000E+00
     10.982  0.6876E-01  0.5013E-01  0.5780E-01  0.2295E-01  0.0000E+00  0.0000E+00  0.0000E+00  0.0000E+00  0.0000E+00
     11.134  0.4091E-01  0.2828E-01  0.3570E-01  0.1889E-01  0.0000E+00  0.0000E+00  0.0000E+00  0.0000E+00  0.0000E+00
     11.286  0.3617E-01  0.2875E-01  0.3573E-01  0.3268E-01  0.0000E+00  0.0000E+00  0.0000E+00  0.0000E+00  0.0000E+00
     11.439  0.4311E-01  0.2935E-01  0.2388E-01  0.3005E-01  0.0000E+00  0.0000E+00  0.0000E+00  0.0000E+00  0.0000E+00
     11.591  0.5275E-01  0.3657E-01  0.2933E-01  0.4629E-01  0.0000E+00  0.0000E+00  0.0000E+00  0.0000E+00  0.0000E+00
     11.743  0.3795E-01  0.2887E-01  0.3384E-01  0.3732E-01  0.0000E+00  0.0000E+00  0.0000E+00  0.0000E+00  0.0000E+00
     11.896  0.2166E-01  0.2349E-01  0.2239E-01  0.2696E-01  0.0000E+00  0.0000E+00  0.0000E+00  0.0000E+00  0.0000E+00
     12.048  0.1933E-01  0.2142E-01  0.3075E-01  0.3591E-01  0.0000E+00  0.0000E+00  0.0000E+00  0.0000E+00  0.0000E+00
     12.200  0.2960E-01  0.2317E-01  0.2120E-01  0.3199E-01  0.0000E+00  0.0000E+00  0.0000E+00  0.0000E+00  0.0000E+00
     12.352  0.2505E-01  0.2121E-01  0.2080E-01  0.3025E-01  0.0000E+00  0.0000E+00  0.0000E+00  0.0000E+00  0.0000E+00
     12.505  0.3517E-01  0.2328E-01  0.2465E-01  0.3238E-01  0.0000E+00  0.0000E+00  0.0000E+00  0.0000E+00  0.0000E+00
     12.657  0.2589E-01  0.2428E-01  0.1886E-01  0.3028E-01  0.0000E+00  0.0000E+00  0.0000E+00  0.0000E+00  0.0000E+00
     12.809  0.2634E-01  0.2130E-01  0.2283E-01  0.3673E-01  0.0000E+00  0.0000E+00  0.0000E+00  0.0000E+00  0.0000E+00
     12.962  0.3877E-01  0.2923E-01  0.3124E-01  0.3298E-01  0.0000E+00  0.0000E+00  0.0000E+00  0.0000E+00  0.0000E+00
     13.114  0.2179E-01  0.2614E-01  0.3806E-01  0.4286E-01  0.0000E+00  0.0000E+00  0.0000E+00  0.0000E+00  0.0000E+00
     13.266  0.2308E-01  0.3408E-01  0.2044E-01  0.3646E-01  0.0000E+00  0.0000E+00  0.0000E+00  0.0000E+00  0.0000E+00
     13.418  0.1338E-01  0.2781E-01  0.2621E-01  0.3775E-01  0.0000E+00  0.0000E+00  0.0000E+00  0.0000E+00  0.0000E+00
     13.571  0.2289E-01  0.2096E-01  0.2257E-01  0.2976E-01  0.0000E+00  0.0000E+00  0.0000E+00  0.0000E+00  0.0000E+00
     13.723  0.1425E-01  0.2258E-01  0.2502E-01  0.3113E-01  0.0000E+00  0.0000E+00  0.0000E+00  0.0000E+00  0.0000E+00
     13.875  0.8902E-01  0.2582E-01  0.4295E-01  0.3128E-01  0.0000E+00  0.0000E+00  0.0000E+00  0.0000E+00  0.0000E+00
     14.027  0.5352E-01  0.1374E-01  0.2415E-01  0.1409E-01  0.0000E+00  0.0000E+00  0.0000E+00  0.0000E+00  0.0000E+00
     14.180  0.4412E-01  0.2420E-01  0.3017E-01  0.3361E-01  0.0000E+00  0.0000E+00  0.0000E+00  0.0000E+00  0.0000E+00
     14.332  0.3210E-01  0.1637E-01  0.2041E-01  0.1659E-01  0.0000E+00  0.0000E+00  0.0000E+00  0.0000E+00  0.0000E+00
     14.484  0.2989E-01  0.2018E-01  0.2173E-01  0.1932E-01  0.0000E+00  0.0000E+00  0.0000E+00  0.0000E+00  0.0000E+00
     14.637  0.2605E-01  0.1747E-01  0.2446E-01  0.2041E-01  0.0000E+00  0.0000E+00  0.0000E+00  0.0000E+00  0.0000E+00
     14.789  0.4211E-01  0.2268E-01  0.1986E-01  0.1671E-01  0.0000E+00  0.0000E+00  0.0000E+00  0.0000E+00  0.0000E+00
     14.941  0.3774E-01  0.2334E-01  0.3360E-01  0.3505E-01  0.0000E+00  0.0000E+00  0.0000E+00  0.0000E+00  0.0000E+00
     15.093  0.4434E-01  0.3088E-01  0.2593E-01  0.2780E-01  0.0000E+00  0.0000E+00  0.0000E+00  0.0000E+00  0.0000E+00
     15.246  0.2293E-01  0.2646E-01  0.3493E-01  0.3822E-01  0.0000E+00  0.0000E+00  0.0000E+00  0.0000E+00  0.0000E+00
     15.398  0.1806E-01  0.2647E-01  0.2634E-01  0.2868E-01  0.0000E+00  0.0000E+00  0.0000E+00  0.0000E+00  0.0000E+00
     15.550  0.2351E-01  0.2548E-01  0.3524E-01  0.3877E-01  0.0000E+00  0.0000E+00  0.0000E+00  0.0000E+00  0.0000E+00
     15.703  0.2870E-01  0.3855E-01  0.4913E-01  0.5006E-01  0.0000E+00  0.0000E+00  0.0000E+00  0.0000E+00  0.0000E+00
     15.855  0.1222E-01  0.2254E-01  0.4905E-01  0.5420E-01  0.0000E+00  0.0000E+00  0.0000E+00  0.0000E+00  0.0000E+00
     16.007  0.1931E-01  0.3551E-01  0.1018E+00  0.1058E+00  0.0000E+00  0.0000E+00  0.0000E+00  0.0000E+00  0.0000E+00
     16.159  0.8306E-02  0.2147E-01  0.1556E-01  0.1510E-01  0.0000E+00  0.0000E+00  0.0000E+00  0.0000E+00  0.0000E+00
     16.312  0.1778E-01  0.4046E-01  0.1455E-01  0.1692E-01  0.0000E+00  0.0000E+00  0.0000E+00  0.0000E+00  0.0000E+00
     16.464  0.1874E-01  0.1294E+00  0.2072E+00  0.1311E+00  0.0000E+00  0.0000E+00  0.0000E+00  0.0000E+00  0.0000E+00
     16.616  0.1876E-01  0.6734E-01  0.4702E-01  0.3662E-01  0.0000E+00  0.0000E+00  0.0000E+00  0.0000E+00  0.0000E+00
     16.769  0.7071E-02  0.3451E-01  0.8339E-02  0.1453E-01  0.0000E+00  0.0000E+00  0.0000E+00  0.0000E+00  0.0000E+00
     16.921  0.1786E-01  0.2019E-01  0.7652E-02  0.7267E-02  0.0000E+00  0.0000E+00  0.0000E+00  0.0000E+00  0.0000E+00
     17.073  0.1218E-01  0.1665E-01  0.6401E-02  0.4528E-02  0.0000E+00  0.0000E+00  0.0000E+00  0.0000E+00  0.0000E+00
     17.225  0.1350E-01  0.3007E-01  0.2403E-01  0.1269E-01  0.0000E+00  0.0000E+00  0.0000E+00  0.0000E+00  0.0000E+00
     17.378  0.9454E-02  0.1301E-01  0.8433E-02  0.8389E-02  0.0000E+00  0.0000E+00  0.0000E+00  0.0000E+00  0.0000E+00
     17.530  0.9174E-02  0.1432E-01  0.4785E-02  0.7119E-02  0.0000E+00  0.0000E+00  0.0000E+00  0.0000E+00  0.0000E+00
     17.682  0.8741E-02  0.1353E-01  0.4781E-02  0.6732E-02  0.0000E+00  0.0000E+00  0.0000E+00  0.0000E+00  0.0000E+00
     17.834  0.8518E-02  0.1340E-01  0.3720E-02  0.4945E-02  0.0000E+00  0.0000E+00  0.0000E+00  0.0000E+00  0.0000E+00
     17.987  0.8701E-02  0.1638E-01  0.3096E-02  0.6853E-02  0.0000E+00  0.0000E+00  0.0000E+00  0.0000E+00  0.0000E+00
     18.139  0.6904E-02  0.2024E-01  0.7315E-02  0.6699E-02  0.0000E+00  0.0000E+00  0.0000E+00  0.0000E+00  0.0000E+00
     18.291  0.7564E-02  0.1318E-01  0.5802E-02  0.7655E-02  0.0000E+00  0.0000E+00  0.0000E+00  0.0000E+00  0.0000E+00
     18.444  0.3950E-02  0.1270E-01  0.1279E-02  0.2866E-02  0.0000E+00  0.0000E+00  0.0000E+00  0.0000E+00  0.0000E+00
     18.596  0.1551E-01  0.3286E-01  0.4164E-02  0.4589E-02  0.0000E+00  0.0000E+00  0.0000E+00  0.0000E+00  0.0000E+00
     18.748  0.3058E-01  0.1347E+00  0.2593E-01  0.1053E-01  0.0000E+00  0.0000E+00  0.0000E+00  0.0000E+00  0.0000E+00
     18.900  0.2502E-01  0.1268E+00  0.4148E-01  0.3392E-02  0.0000E+00  0.0000E+00  0.0000E+00  0.0000E+00  0.0000E+00
     19.053  0.1398E-01  0.8652E-01  0.1438E-01  0.2431E-02  0.0000E+00  0.0000E+00  0.0000E+00  0.0000E+00  0.0000E+00
     19.205  0.1068E-01  0.5565E-01  0.1514E-01  0.5699E-02  0.0000E+00  0.0000E+00  0.0000E+00  0.0000E+00  0.0000E+00
     19.357  0.6057E-02  0.2294E-01  0.2235E-01  0.7515E-02  0.0000E+00  0.0000E+00  0.0000E+00  0.0000E+00  0.0000E+00
     19.510  0.3869E-02  0.3398E-01  0.2079E-01  0.4959E-02  0.0000E+00  0.0000E+00  0.0000E+00  0.0000E+00  0.0000E+00
     19.662  0.5311E-02  0.2617E-01  0.1603E-01  0.4510E-02  0.0000E+00  0.0000E+00  0.0000E+00  0.0000E+00  0.0000E+00
     19.814  0.2711E-02  0.9546E-02  0.6971E-02  0.4222E-02  0.0000E+00  0.0000E+00  0.0000E+00  0.0000E+00  0.0000E+00
     19.966  0.5289E-02  0.1377E-01  0.7120E-02  0.5049E-02  0.0000E+00  0.0000E+00  0.0000E+00  0.0000E+00  0.0000E+00
     20.119  0.3989E-02  0.1441E-01  0.1441E-01  0.4170E-02  0.0000E+00  0.0000E+00  0.0000E+00  0.0000E+00  0.0000E+00
     20.271  0.5653E-02  0.1486E-01  0.1696E-01  0.8119E-02  0.0000E+00  0.0000E+00  0.0000E+00  0.0000E+00  0.0000E+00
     20.423  0.1804E-02  0.3088E-02  0.6067E-02  0.2458E-02  0.0000E+00  0.0000E+00  0.0000E+00  0.0000E+00  0.0000E+00
     20.576  0.4417E-02  0.2631E-01  0.2031E-01  0.9658E-02  0.0000E+00  0.0000E+00  0.0000E+00  0.0000E+00  0.0000E+00
     20.728  0.4637E-02  0.2637E-01  0.3420E-01  0.1158E-01  0.0000E+00  0.0000E+00  0.0000E+00  0.0000E+00  0.0000E+00
     20.880  0.1171E-02  0.8615E-02  0.1682E-01  0.3868E-02  0.0000E+00  0.0000E+00  0.0000E+00  0.0000E+00  0.0000E+00
     21.032  0.1208E-02  0.3064E-02  0.1865E-01  0.1494E-02  0.0000E+00  0.0000E+00  0.0000E+00  0.0000E+00  0.0000E+00
     21.185  0.2367E-02  0.5103E-02  0.9766E-02  0.4441E-02  0.0000E+00  0.0000E+00  0.0000E+00  0.0000E+00  0.0000E+00
     21.337  0.4055E-02  0.2107E-01  0.2306E-01  0.6394E-02  0.0000E+00  0.0000E+00  0.0000E+00  0.0000E+00  0.0000E+00
     21.489  0.2303E-02  0.7397E-02  0.7276E-02  0.5392E-02  0.0000E+00  0.0000E+00  0.0000E+00  0.0000E+00  0.0000E+00
     21.641  0.1222E-02  0.3882E-02  0.1606E-01  0.2454E-02  0.0000E+00  0.0000E+00  0.0000E+00  0.0000E+00  0.0000E+00
     21.794  0.7830E-03  0.2467E-02  0.4982E-02  0.3516E-02  0.0000E+00  0.0000E+00  0.0000E+00  0.0000E+00  0.0000E+00
     21.946  0.4677E-02  0.2841E-02  0.5949E-02  0.2891E-02  0.0000E+00  0.0000E+00  0.0000E+00  0.0000E+00  0.0000E+00
     22.098  0.1251E-02  0.1035E-01  0.1104E-01  0.1259E-02  0.0000E+00  0.0000E+00  0.0000E+00  0.0000E+00  0.0000E+00
     22.251  0.4840E-02  0.8352E-02  0.1508E-01  0.9475E-02  0.0000E+00  0.0000E+00  0.0000E+00  0.0000E+00  0.0000E+00
     22.403  0.2903E-02  0.8353E-02  0.1162E-01  0.6044E-02  0.0000E+00  0.0000E+00  0.0000E+00  0.0000E+00  0.0000E+00
     22.555  0.2801E-02  0.9815E-02  0.1106E-01  0.1649E-02  0.0000E+00  0.0000E+00  0.0000E+00  0.0000E+00  0.0000E+00
     22.707  0.1535E-02  0.4638E-02  0.6105E-02  0.8080E-03  0.0000E+00  0.0000E+00  0.0000E+00  0.0000E+00  0.0000E+00
     22.860  0.5043E-02  0.4168E-02  0.5644E-02  0.3315E-02  0.0000E+00  0.0000E+00  0.0000E+00  0.0000E+00  0.0000E+00
     23.012  0.1755E-02  0.6702E-02  0.5548E-02  0.2098E-02  0.0000E+00  0.0000E+00  0.0000E+00  0.0000E+00  0.0000E+00
     23.164  0.1036E-02  0.3482E-02  0.1995E-02  0.1606E-02  0.0000E+00  0.0000E+00  0.0000E+00  0.0000E+00  0.0000E+00
     23.317  0.5338E-02  0.1005E-01  0.7543E-02  0.7348E-02  0.0000E+00  0.0000E+00  0.0000E+00  0.0000E+00  0.0000E+00
     23.469  0.3887E-02  0.4312E-02  0.1193E-01  0.5289E-02  0.0000E+00  0.0000E+00  0.0000E+00  0.0000E+00  0.0000E+00
     23.621  0.1548E-02  0.4085E-02  0.6684E-02  0.6927E-03  0.0000E+00  0.0000E+00  0.0000E+00  0.0000E+00  0.0000E+00
     23.773  0.3671E-05  0.3797E-05  0.4277E-04  0.5907E-05  0.0000E+00  0.0000E+00  0.0000E+00  0.0000E+00  0.0000E+00
     23.926  0.4353E-02  0.4218E-02  0.1193E-01  0.8445E-02  0.0000E+00  0.0000E+00  0.0000E+00  0.0000E+00  0.0000E+00
     24.078  0.4505E-02  0.9466E-02  0.8091E-02  0.6475E-02  0.0000E+00  0.0000E+00  0.0000E+00  0.0000E+00  0.0000E+00
     24.230  0.3087E-02  0.3022E-02  0.2049E-02  0.8217E-03  0.0000E+00  0.0000E+00  0.0000E+00  0.0000E+00  0.0000E+00
     24.383  0.2697E-02  0.3737E-02  0.8013E-02  0.1228E-02  0.0000E+00  0.0000E+00  0.0000E+00  0.0000E+00  0.0000E+00
     24.535  0.8951E-02  0.5507E-02  0.1777E-01  0.5116E-02  0.0000E+00  0.0000E+00  0.0000E+00  0.0000E+00  0.0000E+00
     24.687  0.7962E-02  0.7781E-02  0.1613E-01  0.8505E-02  0.0000E+00  0.0000E+00  0.0000E+00  0.0000E+00  0.0000E+00
     24.839  0.8257E-02  0.7744E-02  0.1766E-01  0.6912E-02  0.0000E+00  0.0000E+00  0.0000E+00  0.0000E+00  0.0000E+00
     24.992  0.3113E-02  0.4862E-02  0.4236E-02  0.3329E-02  0.0000E+00  0.0000E+00  0.0000E+00  0.0000E+00  0.0000E+00
     25.144  0.2431E-02  0.3244E-02  0.4366E-02  0.1752E-02  0.0000E+00  0.0000E+00  0.0000E+00  0.0000E+00  0.0000E+00
     25.296  0.4825E-02  0.1661E-02  0.6381E-02  0.1821E-02  0.0000E+00  0.0000E+00  0.0000E+00  0.0000E+00  0.0000E+00
     25.449  0.5954E-02  0.3223E-02  0.3437E-02  0.3147E-02  0.0000E+00  0.0000E+00  0.0000E+00  0.0000E+00  0.0000E+00
     25.601  0.8991E-02  0.2251E-02  0.9697E-02  0.1391E-01  0.0000E+00  0.0000E+00  0.0000E+00  0.0000E+00  0.0000E+00
     25.753  0.2965E-02  0.2200E-02  0.6331E-02  0.4776E-02  0.0000E+00  0.0000E+00  0.0000E+00  0.0000E+00  0.0000E+00
     25.905  0.4946E-02  0.2266E-02  0.6087E-02  0.3820E-02  0.0000E+00  0.0000E+00  0.0000E+00  0.0000E+00  0.0000E+00
     26.058  0.4987E-02  0.1581E-02  0.4024E-02  0.3991E-02  0.0000E+00  0.0000E+00  0.0000E+00  0.0000E+00  0.0000E+00
     26.210  0.1412E-02  0.6307E-03  0.3313E-02  0.1314E-02  0.0000E+00  0.0000E+00  0.0000E+00  0.0000E+00  0.0000E+00
     26.362  0.8889E-03  0.4905E-03  0.1094E-02  0.1292E-02  0.0000E+00  0.0000E+00  0.0000E+00  0.0000E+00  0.0000E+00
     26.514  0.3663E-05  0.4276E-05  0.3299E-04  0.1128E-04  0.0000E+00  0.0000E+00  0.0000E+00  0.0000E+00  0.0000E+00
     26.667  0.4558E-03  0.4828E-03  0.6254E-02  0.1796E-02  0.0000E+00  0.0000E+00  0.0000E+00  0.0000E+00  0.0000E+00
     26.819  0.3810E-03  0.8509E-03  0.2814E-02  0.6015E-03  0.0000E+00  0.0000E+00  0.0000E+00  0.0000E+00  0.0000E+00
     26.971  0.1956E-02  0.4151E-02  0.1926E-02  0.2422E-02  0.0000E+00  0.0000E+00  0.0000E+00  0.0000E+00  0.0000E+00
     27.124  0.1981E-02  0.1617E-02  0.1215E-02  0.4201E-02  0.0000E+00  0.0000E+00  0.0000E+00  0.0000E+00  0.0000E+00
     27.276  0.2006E-03  0.4132E-03  0.4370E-03  0.4526E-03  0.0000E+00  0.0000E+00  0.0000E+00  0.0000E+00  0.0000E+00
     27.428  0.2109E-03  0.5095E-03  0.6533E-03  0.2073E-03  0.0000E+00  0.0000E+00  0.0000E+00  0.0000E+00  0.0000E+00
     27.580  0.9697E-03  0.1003E-02  0.3270E-02  0.3077E-02  0.0000E+00  0.0000E+00  0.0000E+00  0.0000E+00  0.0000E+00
     27.733  0.1834E-02  0.1982E-02  0.3293E-02  0.1116E-02  0.0000E+00  0.0000E+00  0.0000E+00  0.0000E+00  0.0000E+00
     27.885  0.3646E-03  0.4497E-03  0.1448E-03  0.2207E-03  0.0000E+00  0.0000E+00  0.0000E+00  0.0000E+00  0.0000E+00
     28.037  0.3290E-05  0.6496E-06  0.6119E-05  0.3216E-04  0.0000E+00  0.0000E+00  0.0000E+00  0.0000E+00  0.0000E+00
     28.190  0.2794E-02  0.8180E-03  0.2824E-02  0.6492E-02  0.0000E+00  0.0000E+00  0.0000E+00  0.0000E+00  0.0000E+00
     28.342  0.4302E-03  0.1225E-02  0.2212E-02  0.3068E-02  0.0000E+00  0.0000E+00  0.0000E+00  0.0000E+00  0.0000E+00
     28.494  0.1340E-03  0.1660E-02  0.1994E-02  0.4488E-02  0.0000E+00  0.0000E+00  0.0000E+00  0.0000E+00  0.0000E+00
     28.646  0.1953E-04  0.4016E-03  0.6007E-03  0.1159E-02  0.0000E+00  0.0000E+00  0.0000E+00  0.0000E+00  0.0000E+00
     28.799  0.2255E-05  0.5801E-04  0.5393E-04  0.1194E-03  0.0000E+00  0.0000E+00  0.0000E+00  0.0000E+00  0.0000E+00
     28.951  0.1346E-02  0.1378E-02  0.1514E-02  0.6056E-02  0.0000E+00  0.0000E+00  0.0000E+00  0.0000E+00  0.0000E+00
     29.103  0.1420E-02  0.4226E-02  0.4293E-02  0.1056E-01  0.0000E+00  0.0000E+00  0.0000E+00  0.0000E+00  0.0000E+00
     29.256  0.4643E-03  0.1985E-02  0.1489E-02  0.2369E-02  0.0000E+00  0.0000E+00  0.0000E+00  0.0000E+00  0.0000E+00
     29.408  0.8104E-04  0.7708E-03  0.2989E-02  0.8472E-03  0.0000E+00  0.0000E+00  0.0000E+00  0.0000E+00  0.0000E+00
     29.560  0.1084E-03  0.1388E-02  0.3480E-02  0.6551E-03  0.0000E+00  0.0000E+00  0.0000E+00  0.0000E+00  0.0000E+00
     29.712  0.1536E-06  0.8186E-06  0.7425E-04  0.1901E-04  0.0000E+00  0.0000E+00  0.0000E+00  0.0000E+00  0.0000E+00
     29.865  0.4837E-05  0.1575E-04  0.2606E-02  0.6689E-03  0.0000E+00  0.0000E+00  0.0000E+00  0.0000E+00  0.0000E+00
     30.017  0.4289E-07  0.1396E-06  0.2310E-04  0.5931E-05  0.0000E+00  0.0000E+00  0.0000E+00  0.0000E+00  0.0000E+00
     30.169  0.5531E-16  0.1800E-15  0.2979E-13  0.7648E-14  0.0000E+00  0.0000E+00  0.0000E+00  0.0000E+00  0.0000E+00
     30.321  0.0000E+00  0.0000E+00  0.0000E+00  0.0000E+00  0.0000E+00  0.0000E+00  0.0000E+00  0.0000E+00  0.0000E+00
     30.474  0.2375E-18  0.1414E-17  0.3252E-17  0.1035E-17  0.0000E+00  0.0000E+00  0.0000E+00  0.0000E+00  0.0000E+00
     30.626  0.2993E-07  0.1808E-06  0.4104E-06  0.1281E-06  0.0000E+00  0.0000E+00  0.0000E+00  0.0000E+00  0.0000E+00
     30.778  0.1952E-03  0.1276E-02  0.2696E-02  0.7510E-03  0.0000E+00  0.0000E+00  0.0000E+00  0.0000E+00  0.0000E+00
     30.931  0.9397E-04  0.6581E-03  0.1307E-02  0.3236E-03  0.0000E+00  0.0000E+00  0.0000E+00  0.0000E+00  0.0000E+00
     31.083  0.6449E-09  0.4989E-08  0.9063E-08  0.1809E-08  0.0000E+00  0.0000E+00  0.0000E+00  0.0000E+00  0.0000E+00
     31.235  0.0000E+00  0.0000E+00  0.0000E+00  0.0000E+00  0.0000E+00  0.0000E+00  0.0000E+00  0.0000E+00  0.0000E+00
     31.387  0.0000E+00  0.0000E+00  0.0000E+00  0.0000E+00  0.0000E+00  0.0000E+00  0.0000E+00  0.0000E+00  0.0000E+00
     31.540  0.0000E+00  0.0000E+00  0.0000E+00  0.0000E+00  0.0000E+00  0.0000E+00  0.0000E+00  0.0000E+00  0.0000E+00
     31.692  0.2880E-20  0.7546E-18  0.2759E-18  0.3460E-19  0.0000E+00  0.0000E+00  0.0000E+00  0.0000E+00  0.0000E+00
     31.844  0.1058E-08  0.2773E-06  0.1014E-06  0.1271E-07  0.0000E+00  0.0000E+00  0.0000E+00  0.0000E+00  0.0000E+00
     31.997  0.1175E-04  0.3078E-02  0.1125E-02  0.1411E-03  0.0000E+00  0.0000E+00  0.0000E+00  0.0000E+00  0.0000E+00
     32.149  0.5545E-05  0.1453E-02  0.5312E-03  0.6662E-04  0.0000E+00  0.0000E+00  0.0000E+00  0.0000E+00  0.0000E+00
     32.301  0.8670E-05  0.5717E-04  0.7823E-04  0.3273E-04  0.0000E+00  0.0000E+00  0.0000E+00  0.0000E+00  0.0000E+00
     32.453  0.4370E-03  0.2882E-02  0.3944E-02  0.1650E-02  0.0000E+00  0.0000E+00  0.0000E+00  0.0000E+00  0.0000E+00
     32.606  0.8841E-03  0.2807E-03  0.3772E-03  0.1885E-03  0.0000E+00  0.0000E+00  0.0000E+00  0.0000E+00  0.0000E+00
     32.758  0.1383E-02  0.3827E-03  0.5128E-03  0.2629E-03  0.0000E+00  0.0000E+00  0.0000E+00  0.0000E+00  0.0000E+00
     32.910  0.6479E-07  0.1793E-07  0.2402E-07  0.1231E-07  0.0000E+00  0.0000E+00  0.0000E+00  0.0000E+00  0.0000E+00
     33.063  0.1270E-12  0.6330E-13  0.5367E-13  0.8369E-13  0.0000E+00  0.0000E+00  0.0000E+00  0.0000E+00  0.0000E+00
     33.215  0.2890E-04  0.1440E-04  0.1221E-04  0.1904E-04  0.0000E+00  0.0000E+00  0.0000E+00  0.0000E+00  0.0000E+00
     33.367  0.1513E-02  0.7541E-03  0.6394E-03  0.9971E-03  0.0000E+00  0.0000E+00  0.0000E+00  0.0000E+00  0.0000E+00
     33.519  0.2081E-04  0.1029E-04  0.8706E-05  0.1367E-04  0.0000E+00  0.0000E+00  0.0000E+00  0.0000E+00  0.0000E+00
     33.672  0.1693E-02  0.2411E-03  0.7808E-04  0.8217E-03  0.0000E+00  0.0000E+00  0.0000E+00  0.0000E+00  0.0000E+00
     33.824  0.6586E-03  0.9380E-04  0.3037E-04  0.3197E-03  0.0000E+00  0.0000E+00  0.0000E+00  0.0000E+00  0.0000E+00
     33.976  0.1518E-08  0.2531E-08  0.5022E-09  0.1197E-08  0.0000E+00  0.0000E+00  0.0000E+00  0.0000E+00  0.0000E+00
     34.129  0.7201E-04  0.5126E-03  0.9712E-04  0.1349E-03  0.0000E+00  0.0000E+00  0.0000E+00  0.0000E+00  0.0000E+00
     34.281  0.1240E-03  0.8826E-03  0.1672E-03  0.2322E-03  0.0000E+00  0.0000E+00  0.0000E+00  0.0000E+00  0.0000E+00
     34.433  0.7092E-08  0.5048E-07  0.9564E-08  0.1328E-07  0.0000E+00  0.0000E+00  0.0000E+00  0.0000E+00  0.0000E+00
     34.585  0.0000E+00  0.0000E+00  0.0000E+00  0.0000E+00  0.0000E+00  0.0000E+00  0.0000E+00  0.0000E+00  0.0000E+00
     34.738  0.0000E+00  0.0000E+00  0.0000E+00  0.0000E+00  0.0000E+00  0.0000E+00  0.0000E+00  0.0000E+00  0.0000E+00
     34.890  0.0000E+00  0.0000E+00  0.0000E+00  0.0000E+00  0.0000E+00  0.0000E+00  0.0000E+00  0.0000E+00  0.0000E+00
     35.042  0.0000E+00  0.0000E+00  0.0000E+00  0.0000E+00  0.0000E+00  0.0000E+00  0.0000E+00  0.0000E+00  0.0000E+00
     35.194  0.7292E-12  0.2134E-11  0.3509E-12  0.2299E-12  0.0000E+00  0.0000E+00  0.0000E+00  0.0000E+00  0.0000E+00
     35.347  0.2003E-04  0.5861E-04  0.9639E-05  0.6314E-05  0.0000E+00  0.0000E+00  0.0000E+00  0.0000E+00  0.0000E+00
     35.499  0.3205E-03  0.9376E-03  0.1542E-03  0.1010E-03  0.0000E+00  0.0000E+00  0.0000E+00  0.0000E+00  0.0000E+00
     35.651  0.1046E-05  0.3061E-05  0.5035E-06  0.3298E-06  0.0000E+00  0.0000E+00  0.0000E+00  0.0000E+00  0.0000E+00
     35.804  0.0000E+00  0.0000E+00  0.0000E+00  0.0000E+00  0.0000E+00  0.0000E+00  0.0000E+00  0.0000E+00  0.0000E+00
     35.956  0.0000E+00  0.0000E+00  0.0000E+00  0.0000E+00  0.0000E+00  0.0000E+00  0.0000E+00  0.0000E+00  0.0000E+00
     36.108  0.0000E+00  0.0000E+00  0.0000E+00  0.0000E+00  0.0000E+00  0.0000E+00  0.0000E+00  0.0000E+00  0.0000E+00
     36.260  0.0000E+00  0.0000E+00  0.0000E+00  0.0000E+00  0.0000E+00  0.0000E+00  0.0000E+00  0.0000E+00  0.0000E+00
     36.413  0.0000E+00  0.0000E+00  0.0000E+00  0.0000E+00  0.0000E+00  0.0000E+00  0.0000E+00  0.0000E+00  0.0000E+00
     36.565  0.0000E+00  0.0000E+00  0.0000E+00  0.0000E+00  0.0000E+00  0.0000E+00  0.0000E+00  0.0000E+00  0.0000E+00
     36.717  0.0000E+00  0.0000E+00  0.0000E+00  0.0000E+00  0.0000E+00  0.0000E+00  0.0000E+00  0.0000E+00  0.0000E+00
     36.870  0.0000E+00  0.0000E+00  0.0000E+00  0.0000E+00  0.0000E+00  0.0000E+00  0.0000E+00  0.0000E+00  0.0000E+00
     37.022  0.0000E+00  0.0000E+00  0.0000E+00  0.0000E+00  0.0000E+00  0.0000E+00  0.0000E+00  0.0000E+00  0.0000E+00
     37.174  0.0000E+00  0.0000E+00  0.0000E+00  0.0000E+00  0.0000E+00  0.0000E+00  0.0000E+00  0.0000E+00  0.0000E+00
     37.326  0.0000E+00  0.0000E+00  0.0000E+00  0.0000E+00  0.0000E+00  0.0000E+00  0.0000E+00  0.0000E+00  0.0000E+00
     37.479  0.0000E+00  0.0000E+00  0.0000E+00  0.0000E+00  0.0000E+00  0.0000E+00  0.0000E+00  0.0000E+00  0.0000E+00
