    2    2    1    1
  0.2001288E+02  0.3839590E-09  0.3839590E-09  0.3839590E-09  0.5000000E-15
  1.000000000000000E-004
  CAR 
 Si_diamond_PBE_band_vasp                
      8     29      8
 
  0.1276756E-14  0.1276756E-14  0.1276756E-14  0.1953125E-02
      1         -6.128934   1.000000
      2          5.831515   1.000000
      3          5.831515   1.000000
      4          5.831515   1.000000
      5          8.396918   0.000000
      6          8.396918   0.000000
      7          8.396918   0.000000
      8          9.209738   0.000000
 
  0.1250000E+00  0.1329337E-14  0.1277901E-14  0.1562500E-01
      1         -5.924723   1.000000
      2          4.234510   1.000000
      3          5.542882   1.000000
      4          5.542882   1.000000
      5          8.337723   0.000000
      6          8.821265   0.000000
      7          8.821265   0.000000
      8         10.552181   0.000000
 
  0.2500000E+00  0.1365888E-14  0.1285811E-14  0.1562500E-01
      1         -5.328919   1.000000
      2          1.906545   1.000000
      3          5.072634   1.000000
      4          5.072634   1.000000
      5          7.864773   0.000000
      6          9.339033   0.000000
      7          9.339033   0.000000
      8         12.758722   0.000000
 
  0.3750000E+00  0.1389065E-14  0.1200532E-14  0.1562500E-01
      1         -4.434825   1.000000
      2         -0.113685   1.000000
      3          4.745917   1.000000
      4          4.745917   1.000000
      5          7.501389   0.000000
      6          9.283136   0.000000
      7          9.283136   0.000000
      8         13.717245   0.000000
 
  0.5000000E+00  0.1435036E-14  0.1282792E-14  0.7812500E-02
      1         -3.796600   1.000000
      2         -1.136381   1.000000
      3          4.634169   1.000000
      4          4.634169   1.000000
      5          7.373500   0.000000
      6          9.171991   0.000000
      7          9.171991   0.000000
      8         13.561783   0.000000
 
  0.1250000E+00  0.1250000E+00  0.1287063E-14  0.1171875E-01
      1         -5.855904   1.000000
      2          4.500066   1.000000
      3          5.025449   1.000000
      4          5.025449   1.000000
      5          7.845058   0.000000
      6          9.537244   0.000000
      7          9.537244   0.000000
      8         10.238770   0.000000
 
  0.2500000E+00  0.1250000E+00  0.1278596E-14  0.4687500E-01
      1         -5.387040   1.000000
      2          2.609791   1.000000
      3          4.514017   1.000000
      4          4.590455   1.000000
      5          7.981119   0.000000
      6          9.544735   0.000000
      7         10.301573   0.000000
      8         10.582937   0.000000
 
  0.3750000E+00  0.1250000E+00  0.1272628E-14  0.4687500E-01
      1         -4.571782   1.000000
      2          0.548958   1.000000
      3          3.999152   1.000000
      4          4.246148   1.000000
      5          8.080708   0.000000
      6          9.476275   0.000000
      7         10.297002   0.000000
      8         11.300124   0.000000
 
  0.5000000E+00  0.1250000E+00  0.1252783E-14  0.4687500E-01
      1         -3.709943   1.000000
      2         -0.914829   1.000000
      3          3.553541   1.000000
      4          4.270762   1.000000
      5          8.028057   0.000000
      6          9.348155   0.000000
      7          9.932594   0.000000
      8         13.204419   0.000000
 
 -0.3750000E+00  0.1250000E+00  0.1317352E-14  0.4687500E-01
      1         -3.954616   1.000000
      2         -0.544056   1.000000
      3          3.371714   1.000000
      4          4.567228   1.000000
      5          8.195232   0.000000
      6          9.455985   0.000000
      7          9.700783   0.000000
      8         13.752889   0.000000
 
 -0.2500000E+00  0.1250000E+00  0.1306423E-14  0.4687500E-01
      1         -4.878212   1.000000
      2          1.208324   1.000000
      3          3.522300   1.000000
      4          5.058616   1.000000
      5          8.554619   0.000000
      6          9.510564   0.000000
      7          9.688958   0.000000
      8         12.134667   0.000000
 
 -0.1250000E+00  0.1250000E+00  0.1338133E-14  0.2343750E-01
      1         -5.588371   1.000000
      2          3.149956   1.000000
      3          4.204021   1.000000
      4          5.539265   1.000000
      5          8.879023   0.000000
      6          8.957872   0.000000
      7          9.192287   0.000000
      8         11.387438   0.000000
 
  0.2500000E+00  0.2500000E+00  0.1297370E-14  0.1171875E-01
      1         -5.046524   1.000000
      2          2.317520   1.000000
      3          3.942932   1.000000
      4          3.942932   1.000000
      5          6.962787   0.000000
      6          8.965464   0.000000
      7         11.590933   0.000000
      8         11.590933   0.000000
 
  0.3750000E+00  0.2500000E+00  0.1284253E-14  0.4687500E-01
      1         -4.336248   1.000000
      2          0.893633   1.000000
      3          3.162409   1.000000
      4          3.624945   1.000000
      5          7.183202   0.000000
      6          8.726751   0.000000
      7         11.832801   0.000000
      8         12.102428   0.000000
 
  0.5000000E+00  0.2500000E+00  0.1287201E-14  0.4687500E-01
      1         -3.409831   1.000000
      2         -0.548775   1.000000
      3          2.298914   1.000000
      4          3.628180   1.000000
      5          7.352115   0.000000
      6         10.280115   0.000000
      7         11.581390   0.000000
      8         11.752086   0.000000
 
 -0.3750000E+00  0.2500000E+00  0.1287342E-14  0.4687500E-01
      1         -3.205442   1.000000
      2         -0.807320   1.000000
      3          1.840290   1.000000
      4          3.946613   1.000000
      5          7.676917   0.000000
      6         11.298143   0.000000
      7         11.313449   0.000000
      8         12.794673   0.000000
 
 -0.2500000E+00  0.2500000E+00  0.1369603E-14  0.2343750E-01
      1         -4.084338   1.000000
      2          0.353892   1.000000
      3          2.080278   1.000000
      4          4.505075   1.000000
      5          8.283347   0.000000
      6         10.624044   0.000000
      7         10.965106   0.000000
      8         11.984832   0.000000
 
  0.3750000E+00  0.3750000E+00  0.1345355E-14  0.1171875E-01
      1         -3.733524   1.000000
      2          0.089110   1.000000
      3          3.226682   1.000000
      4          3.226682   1.000000
      5          6.447188   0.000000
      6          7.371271   0.000000
      7         13.875656   0.000000
      8         13.875656   0.000000
 
  0.5000000E+00  0.3750000E+00  0.1344917E-14  0.4687500E-01
      1         -2.835907   1.000000
      2         -0.996144   1.000000
      3          2.397301   1.000000
      4          3.150567   1.000000
      5          6.726213   0.000000
      6          7.799186   0.000000
      7         14.100663   0.000000
      8         14.190568   0.000000
 
 -0.3750000E+00  0.3750000E+00  0.1302922E-14  0.2343750E-01
      1         -2.396848   1.000000
      2         -1.392929   1.000000
      3          1.530993   1.000000
      4          3.408114   1.000000
      5          7.035835   0.000000
      6          9.960737   0.000000
      7         13.304930   0.000000
      8         13.847283   0.000000
 
  0.5000000E+00  0.5000000E+00  0.1317983E-14  0.5859375E-02
      1         -1.983077   1.000000
      2         -1.983077   1.000000
      3          2.981125   1.000000
      4          2.981125   1.000000
      5          6.541208   0.000000
      6          6.541208   0.000000
      7         15.950804   0.000000
      8         15.950865   0.000000
 
  0.3750000E+00  0.2500000E+00  0.1250000E+00  0.4687500E-01
      1         -4.799001   1.000000
      2          1.544810   1.000000
      3          3.119883   1.000000
      4          4.405198   1.000000
      5          8.280474   0.000000
      6          9.738402   0.000000
      7         10.025051   0.000000
      8         11.335403   0.000000
 
  0.5000000E+00  0.2500000E+00  0.1250000E+00  0.9375000E-01
      1         -3.910345   1.000000
      2         -0.007495   1.000000
      3          2.512166   1.000000
      4          3.903667   1.000000
      5          8.710335   0.000000
      6          9.387320   0.000000
      7         10.852815   0.000000
      8         11.769545   0.000000
 
 -0.3750000E+00  0.2500000E+00  0.1250000E+00  0.4687500E-01
      1         -3.257651   1.000000
      2         -0.952904   1.000000
      3          2.383458   1.000000
      4          3.673971   1.000000
      5          8.901567   0.000000
      6          8.963625   0.000000
      7         11.745180   0.000000
      8         12.951003   0.000000
 
  0.5000000E+00  0.3750000E+00  0.1250000E+00  0.4687500E-01
      1         -3.534841   1.000000
      2         -0.129864   1.000000
      3          2.470886   1.000000
      4          3.073794   1.000000
      5          7.779488   0.000000
      6          8.478330   0.000000
      7         11.588459   0.000000
      8         13.824766   0.000000
 
 -0.3750000E+00  0.3750000E+00  0.1250000E+00  0.9375000E-01
      1         -2.659672   1.000000
      2         -1.098115   1.000000
      3          1.772505   1.000000
      4          2.873050   1.000000
      5          8.220664   0.000000
      6         10.112682   0.000000
      7         11.111762   0.000000
      8         13.274467   0.000000
 
 -0.2500000E+00  0.3750000E+00  0.1250000E+00  0.4687500E-01
      1         -3.010433   1.000000
      2         -0.734827   1.000000
      3          1.605580   1.000000
      4          3.249043   1.000000
      5          8.700665   0.000000
      6         10.377123   0.000000
      7         11.048617   0.000000
      8         12.863128   0.000000
 
 -0.3750000E+00  0.5000000E+00  0.1250000E+00  0.2343750E-01
      1         -1.905008   1.000000
      2         -1.905008   1.000000
      3          2.416385   1.000000
      4          2.416385   1.000000
      5          7.802533   0.000000
      6          7.802533   0.000000
      7         13.681575   0.000000
      8         13.681575   0.000000
 
 -0.2500000E+00  0.5000000E+00  0.2500000E+00  0.1171875E-01
      1         -1.819021   1.000000
      2         -1.819020   1.000000
      3          1.980179   1.000000
      4          1.980179   1.000000
      5         10.099950   0.000000
      6         10.099950   0.000000
      7         10.838749   0.000000
      8         10.838749   0.000000
