    2    2    1    1
  0.2001288E+02  0.3839590E-09  0.3839590E-09  0.3839590E-09  0.5000000E-15
  1.000000000000000E-004
  CAR 
 Si_diamond_PBE_band_vasp                
      8    180     24
 
  0.5000000E+00  0.5000000E+00  0.5000000E+00  0.5555556E-02
      1         -3.796611   1.000000
      2         -1.136391   1.000000
      3          4.634159   1.000000
      4          4.634159   1.000000
      5          7.373488   0.000000
      6          9.171986   0.000000
      7          9.171986   0.000000
      8         13.561761   0.000000
      9         16.383934   0.000000
     10         16.383935   0.000000
     11         17.179027   0.000000
     12         17.179027   0.000000
     13         17.192720   0.000000
     14         18.866925   0.000000
     15         25.231022   0.000000
     16         25.817627   0.000000
     17         27.494799   0.000000
     18         27.555743   0.000000
     19         27.659688   0.000000
     20         32.113675   0.000000
     21         32.976201   0.000000
     22         38.867335   0.000000
     23         42.661314   0.000000
     24         48.175736   0.000000
 
  0.4857143E+00  0.4857143E+00  0.4857143E+00  0.5555556E-02
      1         -3.808349   1.000000
      2         -1.119615   1.000000
      3          4.635623   1.000000
      4          4.635623   1.000000
      5          7.375176   0.000000
      6          9.173701   0.000000
      7          9.173701   0.000000
      8         13.564403   0.000000
      9         16.286330   0.000000
     10         16.286330   0.000000
     11         17.147274   0.000000
     12         17.282788   0.000000
     13         17.282789   0.000000
     14         18.910209   0.000000
     15         24.994024   0.000000
     16         26.062961   0.000000
     17         27.207189   0.000000
     18         27.222987   0.000000
     19         27.935645   0.000000
     20         31.733670   0.000000
     21         32.497957   0.000000
     22         32.874793   0.000000
     23         37.385460   0.000000
     24         39.010124   0.000000
 
  0.4714286E+00  0.4714286E+00  0.4714286E+00  0.5555556E-02
      1         -3.842661   1.000000
      2         -1.070181   1.000000
      3          4.640013   1.000000
      4          4.640013   1.000000
      5          7.380204   0.000000
      6          9.178743   0.000000
      7          9.178743   0.000000
      8         13.572241   0.000000
      9         16.073616   0.000000
     10         16.073623   0.000000
     11         17.023383   0.000000
     12         17.513502   0.000000
     13         19.026542   0.000000
     14         24.603476   0.000000
     15         26.488054   0.000000
     16         26.842852   0.000000
     17         26.869962   0.000000
     18         28.271800   0.000000
     19         28.341795   0.000000
     20         31.497527   0.000000
     21         32.352367   0.000000
     22         33.658053   0.000000
     23         37.728784   0.000000
     24         39.993266   0.000000
 
  0.4571429E+00  0.4571429E+00  0.4571429E+00  0.5555556E-02
      1         -3.897122   1.000000
      2         -0.990511   1.000000
      3          4.647319   1.000000
      4          4.647319   1.000000
      5          7.388605   0.000000
      6          9.187013   0.000000
      7          9.187013   0.000000
      8         13.585097   0.000000
      9         15.825831   0.000000
     10         15.825834   0.000000
     11         16.846139   0.000000
     12         17.791750   0.000000
     13         17.791750   0.000000
     14         19.190561   0.000000
     15         24.199217   0.000000
     16         26.471593   0.000000
     17         26.784329   0.000000
     18         31.395473   0.000000
     19         32.532273   0.000000
     20         38.351234   0.000000
     21         38.748212   0.000000
     22         38.847922   0.000000
     23         42.614306   0.000000
     24         46.710019   0.000000
 
  0.4428571E+00  0.4428571E+00  0.4428571E+00  0.5555556E-02
      1         -3.968389   1.000000
      2         -0.883970   1.000000
      3          4.657554   1.000000
      4          4.657554   1.000000
      5          7.400346   0.000000
      6          9.198346   0.000000
      7          9.198347   0.000000
      8         13.602564   0.000000
      9         15.569607   0.000000
     10         15.569611   0.000000
     11         16.637186   0.000000
     12         18.090576   0.000000
     13         19.020966   0.000000
     14         23.830956   0.000000
     15         26.107196   0.000000
     16         27.082547   0.000000
     17         28.017497   0.000000
     18         30.533453   0.000000
     19         30.695221   0.000000
     20         32.788868   0.000000
     21         33.900702   0.000000
     22         37.307229   0.000000
     23         38.955168   0.000000
     24         39.212372   0.000000
 
  0.4285714E+00  0.4285714E+00  0.4285714E+00  0.5555556E-02
      1         -4.052861   1.000000
      2         -0.754186   1.000000
      3          4.670712   1.000000
      4          4.670712   1.000000
      5          7.415460   0.000000
      6          9.212587   0.000000
      7          9.212587   0.000000
      8         13.624072   0.000000
      9         15.314195   0.000000
     10         15.314196   0.000000
     11         16.410508   0.000000
     12         18.400396   0.000000
     13         18.400414   0.000000
     14         19.563321   0.000000
     15         23.436958   0.000000
     16         25.725604   0.000000
     17         25.725624   0.000000
     18         27.853578   0.000000
     19         29.107776   0.000000
     20         29.874909   0.000000
     21         32.985702   0.000000
     22         37.539854   0.000000
     23         41.604814   0.000000
     24         47.137623   0.000000
 
  0.4142857E+00  0.4142857E+00  0.4142857E+00  0.5555556E-02
      1         -4.147145   1.000000
      2         -0.604588   1.000000
      3          4.686783   1.000000
      4          4.686783   1.000000
      5          7.433879   0.000000
      6          9.229237   0.000000
      7          9.229237   0.000000
      8         13.648616   0.000000
      9         15.063488   0.000000
     10         15.063489   0.000000
     11         16.175017   0.000000
     12         18.716639   0.000000
     13         19.719780   0.000000
     14         23.101773   0.000000
     15         25.357922   0.000000
     16         25.403133   0.000000
     17         28.722035   0.000000
     18         29.396572   0.000000
     19         29.776478   0.000000
     20         32.373377   0.000000
     21         33.136992   0.000000
     22         36.930345   0.000000
     23         37.969576   0.000000
     24         39.876654   0.000000
 
  0.4000000E+00  0.4000000E+00  0.4000000E+00  0.5555556E-02
      1         -4.248300   1.000000
      2         -0.438173   1.000000
      3          4.705757   1.000000
      4          4.705757   1.000000
      5          7.455592   0.000000
      6          9.247818   0.000000
      7          9.247818   0.000000
      8         13.674839   0.000000
      9         14.819961   0.000000
     10         14.819961   0.000000
     11         15.936753   0.000000
     12         19.036253   0.000000
     13         19.036253   0.000000
     14         19.868104   0.000000
     15         22.817789   0.000000
     16         24.993670   0.000000
     17         24.993686   0.000000
     18         28.829423   0.000000
     19         29.575127   0.000000
     20         29.549284   0.000000
     21         34.212681   0.000000
     22         37.775348   0.000000
     23         39.214330   0.000000
     24         39.581058   0.000000
 
  0.3857143E+00  0.3857143E+00  0.3857143E+00  0.5555556E-02
      1         -4.353906   1.000000
      2         -0.257430   1.000000
      3          4.727622   1.000000
      4          4.727622   1.000000
      5          7.480553   0.000000
      6          9.267738   0.000000
      7          9.267738   0.000000
      8         13.700449   0.000000
      9         14.585068   0.000000
     10         14.585070   0.000000
     11         15.700709   0.000000
     12         19.356274   0.000000
     13         19.356275   0.000000
     14         19.939633   0.000000
     15         22.608375   0.000000
     16         24.639725   0.000000
     17         24.640368   0.000000
     18         29.449781   0.000000
     19         30.372130   0.000000
     20         35.597552   0.000000
     21         36.267542   0.000000
     22         38.462400   0.000000
     23         42.686953   0.000000
     24         48.393997   0.000000
 
  0.3714286E+00  0.3714286E+00  0.3714286E+00  0.5555556E-02
      1         -4.462005   1.000000
      2         -0.064371   1.000000
      3          4.752346   1.000000
      4          4.752346   1.000000
      5          7.508714   0.000000
      6          9.288273   0.000000
      7          9.288273   0.000000
      8         13.721867   0.000000
      9         14.359980   0.000000
     10         14.359980   0.000000
     11         15.472062   0.000000
     12         19.672706   0.000000
     13         19.672706   0.000000
     14         19.925012   0.000000
     15         22.495656   0.000000
     16         24.298500   0.000000
     17         24.298500   0.000000
     18         28.754751   0.000000
     19         29.743731   0.000000
     20         29.828459   0.000000
     21         32.619944   0.000000
     22         34.759481   0.000000
     23         47.094527   0.000000
     24         49.482300   0.000000
 
  0.3571429E+00  0.3571429E+00  0.3571429E+00  0.5555556E-02
      1         -4.571036   1.000000
      2          0.139379   1.000000
      3          4.779931   1.000000
      4          4.779931   1.000000
      5          7.539927   0.000000
      6          9.308599   0.000000
      7          9.308599   0.000000
      8         13.733319   0.000000
      9         14.146141   0.000000
     10         14.146141   0.000000
     11         15.257460   0.000000
     12         19.814572   0.000000
     13         19.980780   0.000000
     14         19.980780   0.000000
     15         22.487753   0.000000
     16         23.975730   0.000000
     17         23.975730   0.000000
     18         28.390457   0.000000
     19         29.889560   0.000000
     20         30.053321   0.000000
     21         34.602625   0.000000
     22         36.279718   0.000000
     23         38.933907   0.000000
     24         46.747921   0.000000
 
  0.3428571E+00  0.3428571E+00  0.3428571E+00  0.5555556E-02
      1         -4.679778   1.000000
      2          0.352511   1.000000
      3          4.810342   1.000000
      4          4.810342   1.000000
      5          7.574308   0.000000
      6          9.327749   0.000000
      7          9.327749   0.000000
      8         13.725887   0.000000
      9         13.944767   0.000000
     10         13.944770   0.000000
     11         15.066421   0.000000
     12         19.620756   0.000000
     13         20.271618   0.000000
     14         20.271647   0.000000
     15         22.619764   0.000000
     16         23.680385   0.000000
     17         28.016020   0.000000
     18         30.048844   0.000000
     19         32.276260   0.000000
     20         35.006623   0.000000
     21         38.060709   0.000000
     22         39.015760   0.000000
     23         41.060221   0.000000
     24         48.631150   0.000000
 
  0.3285714E+00  0.3285714E+00  0.3285714E+00  0.5555556E-02
      1         -4.787277   1.000000
      2          0.573957   1.000000
      3          4.843522   1.000000
      4          4.843522   1.000000
      5          7.611671   0.000000
      6          9.344575   0.000000
      7          9.344575   0.000000
      8         13.687096   0.000000
      9         13.756968   0.000000
     10         13.756968   0.000000
     11         14.911378   0.000000
     12         19.367739   0.000000
     13         20.530884   0.000000
     14         20.530884   0.000000
     15         22.723469   0.000000
     16         23.426670   0.000000
     17         23.426670   0.000000
     18         27.641407   0.000000
     19         29.907134   0.000000
     20         31.508417   0.000000
     21         34.177990   0.000000
     22         35.963210   0.000000
     23         40.231229   0.000000
     24         48.529085   0.000000
 
  0.3142857E+00  0.3142857E+00  0.3142857E+00  0.5555556E-02
      1         -4.892767   1.000000
      2          0.802832   1.000000
      3          4.879429   1.000000
      4          4.879429   1.000000
      5          7.651920   0.000000
      6          9.357864   0.000000
      7          9.357864   0.000000
      8         13.584150   0.000000
      9         13.584150   0.000000
     10         13.604608   0.000000
     11         14.804471   0.000000
     12         19.078560   0.000000
     13         20.735460   0.000000
     14         20.735460   0.000000
     15         22.917033   0.000000
     16         23.238013   0.000000
     17         23.238013   0.000000
     18         27.278134   0.000000
     19         29.926849   0.000000
     20         30.954214   0.000000
     21         32.508791   0.000000
     22         39.218747   0.000000
     23         43.946319   0.000000
     24         47.156324   0.000000
 
  0.3000000E+00  0.3000000E+00  0.3000000E+00  0.5555556E-02
      1         -4.995644   1.000000
      2          1.038400   1.000000
      3          4.917994   1.000000
      4          4.917994   1.000000
      5          7.694938   0.000000
      6          9.366261   0.000000
      7          9.366261   0.000000
      8         13.427543   0.000000
      9         13.427543   0.000000
     10         13.473780   0.000000
     11         14.749848   0.000000
     12         18.770166   0.000000
     13         20.854093   0.000000
     14         23.132299   0.000000
     15         23.143578   0.000000
     16         26.961869   0.000000
     17         30.048913   0.000000
     18         30.768086   0.000000
     19         32.704082   0.000000
     20         32.816802   0.000000
     21         36.096433   0.000000
     22         36.565800   0.000000
     23         39.594266   0.000000
     24         46.102177   0.000000
 
  0.2857143E+00  0.2857143E+00  0.2857143E+00  0.5555556E-02
      1         -5.095433   1.000000
      2          1.279972   1.000000
      3          4.959150   1.000000
      4          4.959150   1.000000
      5          7.740560   0.000000
      6          9.368552   0.000000
      7          9.368552   0.000000
      8         13.289021   0.000000
      9         13.289023   0.000000
     10         13.301038   0.000000
     11         14.740154   0.000000
     12         18.454019   0.000000
     13         20.862405   0.000000
     14         20.862623   0.000000
     15         23.174623   0.000000
     16         23.235262   0.000000
     17         26.527417   0.000000
     18         29.976322   0.000000
     19         31.093925   0.000000
     20         32.748397   0.000000
     21         36.697452   0.000000
     22         44.091015   0.000000
     23         46.868852   0.000000
     24         50.823577   0.000000
 
  0.2714286E+00  0.2714286E+00  0.2714286E+00  0.5555556E-02
      1         -5.191730   1.000000
      2          1.526989   1.000000
      3          5.002783   1.000000
      4          5.002783   1.000000
      5          7.788614   0.000000
      6          9.363283   0.000000
      7          9.363283   0.000000
      8         13.098068   0.000000
      9         13.169346   0.000000
     10         13.169347   0.000000
     11         14.762435   0.000000
     12         18.138291   0.000000
     13         20.763863   0.000000
     14         20.763868   0.000000
     15         23.354204   0.000000
     16         26.164031   0.000000
     17         30.297686   0.000000
     18         32.620221   0.000000
     19         32.965749   0.000000
     20         35.666676   0.000000
     21         37.096573   0.000000
     22         44.324799   0.000000
     23         45.814769   0.000000
     24         47.464265   0.000000
 
  0.2571429E+00  0.2571429E+00  0.2571429E+00  0.5555556E-02
      1         -5.284206   1.000000
      2          1.778901   1.000000
      3          5.048791   1.000000
      4          5.048791   1.000000
      5          7.838873   0.000000
      6          9.349499   0.000000
      7          9.349499   0.000000
      8         12.875175   0.000000
      9         13.069910   0.000000
     10         13.069911   0.000000
     11         14.804464   0.000000
     12         17.829293   0.000000
     13         20.587574   0.000000
     14         20.587596   0.000000
     15         23.556248   0.000000
     16         23.664523   0.000000
     17         29.910553   0.000000
     18         32.025699   0.000000
     19         33.285666   0.000000
     20         35.031841   0.000000
     21         37.557971   0.000000
     22         43.814942   0.000000
     23         44.041556   0.000000
     24         47.673798   0.000000
 
  0.2428571E+00  0.2428571E+00  0.2428571E+00  0.5555556E-02
      1         -5.372604   1.000000
      2          2.035197   1.000000
      3          5.096987   1.000000
      4          5.096987   1.000000
      5          7.891104   0.000000
      6          9.326108   0.000000
      7          9.326108   0.000000
      8         12.639437   0.000000
      9         12.991326   0.000000
     10         12.991326   0.000000
     11         14.856500   0.000000
     12         17.533082   0.000000
     13         20.363238   0.000000
     14         20.363241   0.000000
     15         23.849679   0.000000
     16         23.897662   0.000000
     17         25.759285   0.000000
     18         30.735622   0.000000
     19         32.524036   0.000000
     20         34.063723   0.000000
     21         36.822211   0.000000
     22         37.824047   0.000000
     23         45.624315   0.000000
     24         47.381382   0.000000
 
  0.2285714E+00  0.2285714E+00  0.2285714E+00  0.5555556E-02
      1         -5.456703   1.000000
      2          2.295343   1.000000
      3          5.147204   1.000000
      4          5.147204   1.000000
      5          7.944989   0.000000
      6          9.292788   0.000000
      7          9.292788   0.000000
      8         12.395303   0.000000
      9         12.934049   0.000000
     10         12.934050   0.000000
     11         14.910014   0.000000
     12         17.255833   0.000000
     13         20.112932   0.000000
     14         20.112933   0.000000
     15         23.967789   0.000000
     16         24.179841   0.000000
     17         25.554178   0.000000
     18         30.019961   0.000000
     19         30.771851   0.000000
     20         32.757073   0.000000
     21         38.370893   0.000000
     22         39.855266   0.000000
     23         44.499136   0.000000
     24         51.377617   0.000000
 
  0.2142857E+00  0.2142857E+00  0.2142857E+00  0.5555556E-02
      1         -5.536310   1.000000
      2          2.558806   1.000000
      3          5.199247   1.000000
      4          5.199247   1.000000
      5          8.000160   0.000000
      6          9.249566   0.000000
      7          9.249566   0.000000
      8         12.145582   0.000000
      9         12.898114   0.000000
     10         12.898115   0.000000
     11         14.956301   0.000000
     12         17.005221   0.000000
     13         19.849947   0.000000
     14         19.849949   0.000000
     15         23.900075   0.000000
     16         24.533601   0.000000
     17         24.733996   0.000000
     18         31.256363   0.000000
     19         35.308611   0.000000
     20         36.954497   0.000000
     21         38.929056   0.000000
     22         45.907768   0.000000
     23         48.581007   0.000000
     24         51.153656   0.000000
 
  0.2000000E+00  0.2000000E+00  0.2000000E+00  0.5555556E-02
      1         -5.611296   1.000000
      2          2.824953   1.000000
      3          5.252787   1.000000
      4          5.252787   1.000000
      5          8.056277   0.000000
      6          9.196979   0.000000
      7          9.196979   0.000000
      8         11.892155   0.000000
      9         12.882693   0.000000
     10         12.882693   0.000000
     11         14.985116   0.000000
     12         16.790901   0.000000
     13         19.582130   0.000000
     14         19.582130   0.000000
     15         23.731224   0.000000
     16         24.902472   0.000000
     17         25.171216   0.000000
     18         30.665594   0.000000
     19         33.374936   0.000000
     20         35.285851   0.000000
     21         39.044987   0.000000
     22         40.759707   0.000000
     23         48.007785   0.000000
     24         49.540855   0.000000
 
  0.1857143E+00  0.1857143E+00  0.1857143E+00  0.5555556E-02
      1         -5.681537   1.000000
      2          3.093134   1.000000
      3          5.307523   1.000000
      4          5.307523   1.000000
      5          8.112602   0.000000
      6          9.136029   0.000000
      7          9.136029   0.000000
      8         11.636334   0.000000
      9         12.886320   0.000000
     10         12.886321   0.000000
     11         14.984916   0.000000
     12         16.624293   0.000000
     13         19.314578   0.000000
     14         19.314587   0.000000
     15         23.518617   0.000000
     16         25.281271   0.000000
     17         25.281272   0.000000
     18         26.128694   0.000000
     19         29.781789   0.000000
     20         29.866563   0.000000
     21         33.283361   0.000000
     22         39.909868   0.000000
     23         40.592229   0.000000
     24         46.852034   0.000000
 
  0.1714286E+00  0.1714286E+00  0.1714286E+00  0.5555556E-02
      1         -5.746912   1.000000
      2          3.362587   1.000000
      3          5.363066   1.000000
      4          5.363066   1.000000
      5          8.168599   0.000000
      6          9.068138   0.000000
      7          9.068138   0.000000
      8         11.379337   0.000000
      9         12.907545   0.000000
     10         12.907546   0.000000
     11         14.945811   0.000000
     12         16.515252   0.000000
     13         19.050870   0.000000
     14         19.050870   0.000000
     15         23.279540   0.000000
     16         25.666159   0.000000
     17         25.666246   0.000000
     18         26.369488   0.000000
     19         29.761006   0.000000
     20         31.928833   0.000000
     21         37.193489   0.000000
     22         41.611544   0.000000
     23         44.754567   0.000000
     24         50.041691   0.000000
 
  0.1571429E+00  0.1571429E+00  0.1571429E+00  0.5555556E-02
      1         -5.807325   1.000000
      2          3.632396   1.000000
      3          5.418951   1.000000
      4          5.418951   1.000000
      5          8.223493   0.000000
      6          8.995012   0.000000
      7          8.995012   0.000000
      8         11.122364   0.000000
      9         12.944325   0.000000
     10         12.944326   0.000000
     11         14.865287   0.000000
     12         16.466235   0.000000
     13         18.793680   0.000000
     14         18.793702   0.000000
     15         23.029593   0.000000
     16         26.053938   0.000000
     17         26.053997   0.000000
     18         26.631188   0.000000
     19         29.741768   0.000000
     20         31.999445   0.000000
     21         35.472514   0.000000
     22         39.521852   0.000000
     23         45.752969   0.000000
     24         49.396366   0.000000
 
  0.1428571E+00  0.1428571E+00  0.1428571E+00  0.5555556E-02
      1         -5.862702   1.000000
      2          3.901497   1.000000
      3          5.474591   1.000000
      4          5.474591   1.000000
      5          8.276353   0.000000
      6          8.918543   0.000000
      7          8.918543   0.000000
      8         10.866817   0.000000
      9         12.994349   0.000000
     10         12.994349   0.000000
     11         14.750823   0.000000
     12         16.469756   0.000000
     13         18.545058   0.000000
     14         18.545058   0.000000
     15         22.778927   0.000000
     16         26.441646   0.000000
     17         26.441682   0.000000
     18         26.903458   0.000000
     19         29.725294   0.000000
     20         33.502208   0.000000
     21         37.546289   0.000000
     22         39.698834   0.000000
     23         43.278964   0.000000
     24         48.267662   0.000000
 
  0.1285714E+00  0.1285714E+00  0.1285714E+00  0.5555556E-02
      1         -5.912971   1.000000
      2          4.168332   1.000000
      3          5.529391   1.000000
      4          5.529391   1.000000
      5          8.325972   0.000000
      6          8.840686   0.000000
      7          8.840686   0.000000
      8         10.614483   0.000000
      9         13.054837   0.000000
     10         13.054837   0.000000
     11         14.615545   0.000000
     12         16.511938   0.000000
     13         18.307495   0.000000
     14         18.307496   0.000000
     15         22.533777   0.000000
     16         26.825370   0.000000
     17         27.077277   0.000000
     18         29.671689   0.000000
     19         31.189782   0.000000
     20         35.377072   0.000000
     21         42.220605   0.000000
     22         47.974403   0.000000
     23         50.225806   0.000000
     24         51.177664   0.000000
 
  0.1142857E+00  0.1142857E+00  0.1142857E+00  0.5555556E-02
      1         -5.958077   1.000000
      2          4.431157   1.000000
      3          5.582573   1.000000
      4          5.582573   1.000000
      5          8.370923   0.000000
      6          8.763496   0.000000
      7          8.763496   0.000000
      8         10.367782   0.000000
      9         13.123281   0.000000
     10         13.123281   0.000000
     11         14.472364   0.000000
     12         16.579532   0.000000
     13         18.082962   0.000000
     14         18.082963   0.000000
     15         22.299027   0.000000
     16         27.201755   0.000000
     17         27.202573   0.000000
     18         27.457675   0.000000
     19         29.703620   0.000000
     20         32.072613   0.000000
     21         37.725221   0.000000
     22         42.348382   0.000000
     23         48.191060   0.000000
     24         50.914734   0.000000
 
  0.1000000E+00  0.1000000E+00  0.1000000E+00  0.5555556E-02
      1         -5.997974   1.000000
      2          4.687518   1.000000
      3          5.633263   1.000000
      4          5.633263   1.000000
      5          8.409328   0.000000
      6          8.689064   0.000000
      7          8.689064   0.000000
      8         10.130017   0.000000
      9         13.196666   0.000000
     10         13.196666   0.000000
     11         14.331204   0.000000
     12         16.661492   0.000000
     13         17.873757   0.000000
     14         17.873757   0.000000
     15         22.078459   0.000000
     16         27.565204   0.000000
     17         27.565634   0.000000
     18         27.727345   0.000000
     19         29.707590   0.000000
     20         35.171482   0.000000
     21         40.638649   0.000000
     22         42.330293   0.000000
     23         44.230148   0.000000
     24         48.481380   0.000000
 
  0.8571429E-01  0.8571429E-01  0.8571429E-01  0.5555556E-02
      1         -6.032638   1.000000
      2          4.934147   1.000000
      3          5.680486   1.000000
      4          5.680486   1.000000
      5          8.438953   0.000000
      6          8.619328   0.000000
      7          8.619328   0.000000
      8          9.905875   0.000000
      9         13.271673   0.000000
     10         13.271674   0.000000
     11         14.199132   0.000000
     12         16.749576   0.000000
     13         17.682451   0.000000
     14         17.682454   0.000000
     15         21.875775   0.000000
     16         27.908227   0.000000
     17         27.908745   0.000000
     18         27.987734   0.000000
     19         29.721340   0.000000
     20         32.307039   0.000000
     21         37.265856   0.000000
     22         44.284802   0.000000
     23         48.922140   0.000000
     24         49.311351   0.000000
 
  0.7142857E-01  0.7142857E-01  0.7142857E-01  0.5555556E-02
      1         -6.062023   1.000000
      2          5.166552   1.000000
      3          5.723174   1.000000
      4          5.723174   1.000000
      5          8.456937   0.000000
      6          8.556199   0.000000
      7          8.556199   0.000000
      8          9.701579   0.000000
      9         13.344737   0.000000
     10         13.344737   0.000000
     11         14.081025   0.000000
     12         16.836957   0.000000
     13         17.511939   0.000000
     14         17.511939   0.000000
     15         21.694599   0.000000
     16         28.220369   0.000000
     17         28.220374   0.000000
     18         28.234407   0.000000
     19         29.745730   0.000000
     20         29.746664   0.000000
     21         32.163565   0.000000
     22         40.649970   0.000000
     23         44.580464   0.000000
     24         49.637126   0.000000
 
  0.5714286E-01  0.5714286E-01  0.5714286E-01  0.5555556E-02
      1         -6.086091   1.000000
      2          5.378590   1.000000
      3          5.760237   1.000000
      4          5.760237   1.000000
      5          8.460811   0.000000
      6          8.501535   0.000000
      7          8.501536   0.000000
      8          9.525032   0.000000
      9         13.412228   0.000000
     10         13.412229   0.000000
     11         13.980410   0.000000
     12         16.917985   0.000000
     13         17.365558   0.000000
     14         17.365561   0.000000
     15         21.538731   0.000000
     16         28.463562   0.000000
     17         28.489892   0.000000
     18         28.494420   0.000000
     19         29.796316   0.000000
     20         31.653478   0.000000
     21         35.322306   0.000000
     22         44.007934   0.000000
     23         50.317194   0.000000
     24         54.987217   0.000000
 
  0.4285714E-01  0.4285714E-01  0.4285714E-01  0.5555556E-02
      1         -6.104835   1.000000
      2          5.561897   1.000000
      3          5.790500   1.000000
      4          5.790500   1.000000
      5          8.449721   0.000000
      6          8.456991   0.000000
      7          8.456991   0.000000
      8          9.384435   0.000000
      9         13.470218   0.000000
     10         13.470218   0.000000
     11         13.899788   0.000000
     12         16.987385   0.000000
     13         17.246564   0.000000
     14         17.246567   0.000000
     15         21.412016   0.000000
     16         28.657567   0.000000
     17         28.699278   0.000000
     18         28.702134   0.000000
     19         29.875539   0.000000
     20         29.893644   0.000000
     21         34.646923   0.000000
     22         43.637025   0.000000
     23         45.815277   0.000000
     24         51.188309   0.000000
 
  0.2857143E-01  0.2857143E-01  0.2857143E-01  0.5555556E-02
      1         -6.118232   1.000000
      2          5.705972   1.000000
      3          5.812973   1.000000
      4          5.812973   1.000000
      5          8.424019   0.000000
      6          8.424019   0.000000
      7          8.427894   0.000000
      8          9.285362   0.000000
      9         13.514982   0.000000
     10         13.514982   0.000000
     11         13.840969   0.000000
     12         17.040735   0.000000
     13         17.158455   0.000000
     14         17.158455   0.000000
     15         21.318188   0.000000
     16         28.812667   0.000000
     17         28.842616   0.000000
     18         28.846647   0.000000
     19         29.962999   0.000000
     20         30.134033   0.000000
     21         34.933609   0.000000
     22         42.226699   0.000000
     23         50.326963   0.000000
     24         50.735542   0.000000
 
  0.1428571E-01  0.1428571E-01  0.1428571E-01  0.5555556E-02
      1         -6.126270   1.000000
      2          5.799129   1.000000
      3          5.826823   1.000000
      4          5.826823   1.000000
      5          8.403751   0.000000
      6          8.403751   0.000000
      7          8.406082   0.000000
      8          9.228170   0.000000
      9         13.543316   0.000000
     10         13.543316   0.000000
     11         13.805192   0.000000
     12         17.074376   0.000000
     13         17.104204   0.000000
     14         17.104205   0.000000
     15         21.260431   0.000000
     16         28.918524   0.000000
     17         28.923223   0.000000
     18         29.027444   0.000000
     19         30.038351   0.000000
     20         41.394363   0.000000
     21         44.078477   0.000000
     22         45.253518   0.000000
     23         49.273688   0.000000
     24         50.039013   0.000000
 
  0.0000000E+00  0.0000000E+00  0.1561251E-16  0.5555556E-02
      1         -6.128945   1.000000
      2          5.831503   1.000000
      3          5.831503   1.000000
      4          5.831503   1.000000
      5          8.396912   0.000000
      6          8.396912   0.000000
      7          8.396912   0.000000
      8          9.209725   0.000000
      9         13.553023   0.000000
     10         13.553023   0.000000
     11         13.793185   0.000000
     12         17.085874   0.000000
     13         17.085874   0.000000
     14         17.085877   0.000000
     15         21.240919   0.000000
     16         28.948318   0.000000
     17         28.948283   0.000000
     18         28.963337   0.000000
     19         30.082571   0.000000
     20         31.099811   0.000000
     21         43.889402   0.000000
     22         47.085651   0.000000
     23         49.544753   0.000000
     24         50.368678   0.000000
 
  0.0000000E+00  0.0000000E+00  0.0000000E+00  0.5555556E-02
      1         -6.128945   1.000000
      2          5.831503   1.000000
      3          5.831503   1.000000
      4          5.831503   1.000000
      5          8.396912   0.000000
      6          8.396912   0.000000
      7          8.396912   0.000000
      8          9.209725   0.000000
      9         13.553022   0.000000
     10         13.553023   0.000000
     11         13.793185   0.000000
     12         17.085874   0.000000
     13         17.085874   0.000000
     14         17.085881   0.000000
     15         21.240919   0.000000
     16         28.948316   0.000000
     17         28.948657   0.000000
     18         28.999943   0.000000
     19         30.062651   0.000000
     20         31.603983   0.000000
     21         42.256213   0.000000
     22         48.235798   0.000000
     23         48.244631   0.000000
     24         50.497526   0.000000
 
  0.1428571E-01  0.0000000E+00  0.1428571E-01  0.5555556E-02
      1         -6.125377   1.000000
      2          5.806909   1.000000
      3          5.815939   1.000000
      4          5.815940   1.000000
      5          8.387977   0.000000
      6          8.416883   0.000000
      7          8.416884   0.000000
      8          9.233856   0.000000
      9         13.523303   0.000000
     10         13.556978   0.000000
     11         13.809190   0.000000
     12         17.092095   0.000000
     13         17.092098   0.000000
     14         17.106801   0.000000
     15         21.266996   0.000000
     16         28.893947   0.000000
     17         28.906392   0.000000
     18         28.976411   0.000000
     19         31.550858   0.000000
     20         34.329133   0.000000
     21         43.015457   0.000000
     22         49.681277   0.000000
     23         50.131678   0.000000
     24         50.304153   0.000000
 
  0.2857143E-01  0.0000000E+00  0.2857143E-01  0.5555556E-02
      1         -6.114656   1.000000
      2          5.735258   1.000000
      3          5.770694   1.000000
      4          5.770694   1.000000
      5          8.361528   0.000000
      6          8.475337   0.000000
      7          8.475337   0.000000
      8          9.303780   0.000000
      9         13.437574   0.000000
     10         13.568846   0.000000
     11         13.856828   0.000000
     12         17.110755   0.000000
     13         17.110756   0.000000
     14         17.166777   0.000000
     15         21.344885   0.000000
     16         28.726598   0.000000
     17         28.727763   0.000000
     18         28.968617   0.000000
     19         29.911105   0.000000
     20         30.780911   0.000000
     21         40.731288   0.000000
     22         44.333679   0.000000
     23         49.243955   0.000000
     24         50.545465   0.000000
 
  0.4285714E-01  0.0000000E+00  0.4285714E-01  0.5555556E-02
      1         -6.096785   1.000000
      2          5.622153   1.000000
      3          5.699606   1.000000
      4          5.699606   1.000000
      5          8.318597   0.000000
      6          8.568419   0.000000
      7          8.568420   0.000000
      8          9.412845   0.000000
      9         13.304987   0.000000
     10         13.588624   0.000000
     11         13.935042   0.000000
     12         17.141838   0.000000
     13         17.141841   0.000000
     14         17.258629   0.000000
     15         21.473530   0.000000
     16         28.482942   0.000000
     17         28.506305   0.000000
     18         28.995633   0.000000
     19         29.702710   0.000000
     20         35.111260   0.000000
     21         41.525741   0.000000
     22         47.624451   0.000000
     23         49.550073   0.000000
     24         50.903000   0.000000
 
  0.5714286E-01  0.0000000E+00  0.5714286E-01  0.5555556E-02
      1         -6.071775   1.000000
      2          5.474860   1.000000
      3          5.607689   1.000000
      4          5.607689   1.000000
      5          8.260752   0.000000
      6          8.691051   0.000000
      7          8.691051   0.000000
      8          9.551794   0.000000
      9         13.137978   0.000000
     10         13.616311   0.000000
     11         14.042209   0.000000
     12         17.185222   0.000000
     13         17.185223   0.000000
     14         17.373542   0.000000
     15         21.651088   0.000000
     16         28.183436   0.000000
     17         28.209598   0.000000
     18         29.345665   0.000000
     19         29.519834   0.000000
     20         31.955107   0.000000
     21         42.732460   0.000000
     22         44.074928   0.000000
     23         45.405633   0.000000
     24         52.546884   0.000000
 
  0.7142857E-01  0.0000000E+00  0.7142857E-01  0.5555556E-02
      1         -6.039629   1.000000
      2          5.300610   1.000000
      3          5.500135   1.000000
      4          5.500135   1.000000
      5          8.189931   0.000000
      6          8.838050   0.000000
      7          8.838050   0.000000
      8          9.709988   0.000000
      9         12.950341   0.000000
     10         13.651906   0.000000
     11         14.176313   0.000000
     12         17.241033   0.000000
     13         17.241036   0.000000
     14         17.503473   0.000000
     15         21.874891   0.000000
     16         27.848834   0.000000
     17         27.852457   0.000000
     18         29.062496   0.000000
     19         29.280777   0.000000
     20         32.173101   0.000000
     21         42.333513   0.000000
     22         47.491778   0.000000
     23         48.899784   0.000000
     24         50.542222   0.000000
 
  0.8571429E-01  0.0000000E+00  0.8571429E-01  0.5555556E-02
      1         -6.000367   1.000000
      2          5.105691   1.000000
      3          5.381460   1.000000
      4          5.381460   1.000000
      5          8.108261   0.000000
      6          9.004812   0.000000
      7          9.004812   0.000000
      8          9.875539   0.000000
      9         12.756731   0.000000
     10         13.695406   0.000000
     11         14.335125   0.000000
     12         17.309118   0.000000
     13         17.309122   0.000000
     14         17.642394   0.000000
     15         22.141484   0.000000
     16         27.491115   0.000000
     17         27.492110   0.000000
     18         28.967195   0.000000
     19         29.126850   0.000000
     20         32.385292   0.000000
     21         42.806577   0.000000
     22         45.490454   0.000000
     23         48.855995   0.000000
     24         52.952465   0.000000
 
  0.1000000E+00  0.0000000E+00  0.1000000E+00  0.5555556E-02
      1         -5.954025   1.000000
      2          4.895131   1.000000
      3          5.255395   1.000000
      4          5.255395   1.000000
      5          8.017927   0.000000
      6          9.187694   0.000000
      7          9.187694   0.000000
      8         10.034289   0.000000
      9         12.573675   0.000000
     10         13.747057   0.000000
     11         14.516385   0.000000
     12         17.389381   0.000000
     13         17.389384   0.000000
     14         17.786518   0.000000
     15         22.446792   0.000000
     16         27.119620   0.000000
     17         27.152459   0.000000
     18         28.991277   0.000000
     19         32.566051   0.000000
     20         39.194676   0.000000
     21         43.626665   0.000000
     22         44.279173   0.000000
     23         46.497704   0.000000
     24         50.465663   0.000000
 
  0.1142857E+00  0.0000000E+00  0.1142857E+00  0.5555556E-02
      1         -5.900611   1.000000
      2          4.672782   1.000000
      3          5.124844   1.000000
      4          5.124844   1.000000
      5          7.920950   0.000000
      6          9.383357   0.000000
      7          9.383357   0.000000
      8         10.168125   0.000000
      9         12.421001   0.000000
     10         13.806350   0.000000
     11         14.717783   0.000000
     12         17.481552   0.000000
     13         17.481559   0.000000
     14         17.933862   0.000000
     15         22.786303   0.000000
     16         26.737686   0.000000
     17         26.742848   0.000000
     18         28.155602   0.000000
     19         32.639900   0.000000
     20         33.493533   0.000000
     21         42.686315   0.000000
     22         47.587526   0.000000
     23         52.055415   0.000000
     24         52.730144   0.000000
 
  0.1285714E+00  0.0000000E+00  0.1285714E+00  0.5555556E-02
      1         -5.840137   1.000000
      2          4.441538   1.000000
      3          4.992154   1.000000
      4          4.992154   1.000000
      5          7.819294   0.000000
      6          9.589688   0.000000
      7          9.589688   0.000000
      8         10.254670   0.000000
      9         12.322739   0.000000
     10         13.873605   0.000000
     11         14.937208   0.000000
     12         17.585750   0.000000
     13         17.585754   0.000000
     14         18.083986   0.000000
     15         23.155376   0.000000
     16         26.352756   0.000000
     17         26.353268   0.000000
     18         27.593523   0.000000
     19         28.591098   0.000000
     20         31.599207   0.000000
     21         32.756047   0.000000
     22         38.804895   0.000000
     23         45.173308   0.000000
     24         54.817312   0.000000
 
  0.1428571E+00  0.0000000E+00  0.1428571E+00  0.5555556E-02
      1         -5.772644   1.000000
      2          4.203555   1.000000
      3          4.858967   1.000000
      4          4.858967   1.000000
      5          7.714674   0.000000
      6          9.804718   0.000000
      7          9.804718   0.000000
      8         10.272620   0.000000
      9         12.300848   0.000000
     10         13.948680   0.000000
     11         15.172656   0.000000
     12         17.701331   0.000000
     13         17.701335   0.000000
     14         18.236716   0.000000
     15         23.549101   0.000000
     16         25.966340   0.000000
     17         25.966518   0.000000
     18         27.169958   0.000000
     19         28.876503   0.000000
     20         32.330233   0.000000
     21         38.432336   0.000000
     22         39.914820   0.000000
     23         45.070050   0.000000
     24         51.728463   0.000000
 
  0.1571429E+00  0.0000000E+00  0.1571429E+00  0.5555556E-02
      1         -5.698156   1.000000
      2          3.960445   1.000000
      3          4.726668   1.000000
      4          4.726668   1.000000
      5          7.608655   0.000000
      6         10.027088   0.000000
      7         10.027088   0.000000
      8         10.214244   0.000000
      9         12.364736   0.000000
     10         14.031639   0.000000
     11         15.422275   0.000000
     12         17.828024   0.000000
     13         17.828025   0.000000
     14         18.393071   0.000000
     15         23.962837   0.000000
     16         25.581192   0.000000
     17         25.581208   0.000000
     18         26.762782   0.000000
     19         27.964699   0.000000
     20         32.398073   0.000000
     21         38.280265   0.000000
     22         44.003327   0.000000
     23         45.970826   0.000000
     24         46.963403   0.000000
 
  0.1714286E+00  0.0000000E+00  0.1714286E+00  0.5555556E-02
      1         -5.616709   1.000000
      2          3.713425   1.000000
      3          4.596283   1.000000
      4          4.596283   1.000000
      5          7.502580   0.000000
      6         10.090260   0.000000
      7         10.255832   0.000000
      8         10.255832   0.000000
      9         12.504156   0.000000
     10         14.122791   0.000000
     11         15.684377   0.000000
     12         17.965330   0.000000
     13         17.965330   0.000000
     14         18.553810   0.000000
     15         24.391901   0.000000
     16         25.199636   0.000000
     17         25.199856   0.000000
     18         26.407441   0.000000
     19         28.060125   0.000000
     20         32.527517   0.000000
     21         38.153118   0.000000
     22         39.241526   0.000000
     23         46.349898   0.000000
     24         56.382029   0.000000
 
  0.1857143E+00  0.0000000E+00  0.1857143E+00  0.5555556E-02
      1         -5.528369   1.000000
      2          3.463415   1.000000
      3          4.468651   1.000000
      4          4.468651   1.000000
      5          7.397578   0.000000
      6          9.920353   0.000000
      7         10.489586   0.000000
      8         10.489586   0.000000
      9         12.699401   0.000000
     10         14.221478   0.000000
     11         15.957193   0.000000
     12         18.112260   0.000000
     13         18.112264   0.000000
     14         18.719880   0.000000
     15         24.822933   0.000000
     16         24.825219   0.000000
     17         24.831375   0.000000
     18         26.251682   0.000000
     19         29.885179   0.000000
     20         33.181995   0.000000
     21         37.446661   0.000000
     22         39.817707   0.000000
     23         44.627770   0.000000
     24         54.629993   0.000000
 
  0.2000000E+00  0.0000000E+00  0.2000000E+00  0.5555556E-02
      1         -5.433155   1.000000
      2          3.211133   1.000000
      3          4.344414   1.000000
      4          4.344414   1.000000
      5          7.294712   0.000000
      6          9.723136   0.000000
      7         10.728043   0.000000
      8         10.728043   0.000000
      9         12.933088   0.000000
     10         14.328042   0.000000
     11         16.239165   0.000000
     12         18.267884   0.000000
     13         18.267885   0.000000
     14         18.892665   0.000000
     15         24.453856   0.000000
     16         24.453857   0.000000
     17         25.276087   0.000000
     18         25.555158   0.000000
     19         27.143910   0.000000
     20         32.464642   0.000000
     21         36.274814   0.000000
     22         37.085543   0.000000
     23         45.561329   0.000000
     24         51.536306   0.000000
 
  0.2142857E+00  0.0000000E+00  0.2142857E+00  0.5555556E-02
      1         -5.331120   1.000000
      2          2.957142   1.000000
      3          4.224079   1.000000
      4          4.224079   1.000000
      5          7.194817   0.000000
      6          9.511258   0.000000
      7         10.970460   0.000000
      8         10.970460   0.000000
      9         13.192372   0.000000
     10         14.442465   0.000000
     11         16.528643   0.000000
     12         18.430392   0.000000
     13         18.430392   0.000000
     14         19.072843   0.000000
     15         24.094436   0.000000
     16         24.103121   0.000000
     17         25.208342   0.000000
     18         30.213384   0.000000
     19         33.329949   0.000000
     20         36.289397   0.000000
     21         39.288829   0.000000
     22         44.522779   0.000000
     23         48.764558   0.000000
     24         52.685986   0.000000
 
  0.2285714E+00  0.0000000E+00  0.2285714E+00  0.5555556E-02
      1         -5.222313   1.000000
      2          2.701903   1.000000
      3          4.108080   1.000000
      4          4.108080   1.000000
      5          7.098661   0.000000
      6          9.293118   0.000000
      7         11.216376   0.000000
      8         11.216376   0.000000
      9         13.468945   0.000000
     10         14.564731   0.000000
     11         16.823918   0.000000
     12         18.597565   0.000000
     13         18.597565   0.000000
     14         19.261269   0.000000
     15         23.747489   0.000000
     16         23.747518   0.000000
     17         24.777585   0.000000
     18         29.624527   0.000000
     19         32.772875   0.000000
     20         35.016756   0.000000
     21         36.684593   0.000000
     22         38.470465   0.000000
     23         43.848276   0.000000
     24         46.642981   0.000000
 
  0.2428571E+00  0.0000000E+00  0.2428571E+00  0.5555556E-02
      1         -5.106793   1.000000
      2          2.445782   1.000000
      3          3.996734   1.000000
      4          3.996734   1.000000
      5          7.006831   0.000000
      6          9.074091   0.000000
      7         11.465355   0.000000
      8         11.465355   0.000000
      9         13.757326   0.000000
     10         14.694723   0.000000
     11         17.123128   0.000000
     12         18.765800   0.000000
     13         18.765800   0.000000
     14         19.458688   0.000000
     15         23.416465   0.000000
     16         23.416541   0.000000
     17         24.370786   0.000000
     18         26.366315   0.000000
     19         32.403763   0.000000
     20         33.607149   0.000000
     21         34.138493   0.000000
     22         35.735900   0.000000
     23         42.539126   0.000000
     24         52.077783   0.000000
 
  0.2571429E+00  0.0000000E+00  0.2571429E+00  0.5555556E-02
      1         -4.984622   1.000000
      2          2.189142   1.000000
      3          3.890402   1.000000
      4          3.890402   1.000000
      5          6.920041   0.000000
      6          8.857846   0.000000
      7         11.717195   0.000000
      8         11.717195   0.000000
      9         14.053842   0.000000
     10         14.832649   0.000000
     11         17.424173   0.000000
     12         18.930879   0.000000
     13         18.930879   0.000000
     14         19.665810   0.000000
     15         23.107399   0.000000
     16         23.107927   0.000000
     17         23.985818   0.000000
     18         26.170139   0.000000
     19         31.639610   0.000000
     20         33.457186   0.000000
     21         34.936381   0.000000
     22         41.326983   0.000000
     23         42.469267   0.000000
     24         44.846010   0.000000
 
  0.2714286E+00  0.0000000E+00  0.2714286E+00  0.5555556E-02
      1         -4.855890   1.000000
      2          1.932285   1.000000
      3          3.789261   1.000000
      4          3.789261   1.000000
      5          6.838786   0.000000
      6          8.646769   0.000000
      7         11.971533   0.000000
      8         11.971533   0.000000
      9         14.355834   0.000000
     10         14.978390   0.000000
     11         17.724629   0.000000
     12         19.084720   0.000000
     13         19.084721   0.000000
     14         19.883361   0.000000
     15         22.827172   0.000000
     16         22.827173   0.000000
     17         23.602649   0.000000
     18         25.854045   0.000000
     19         31.466212   0.000000
     20         32.357834   0.000000
     21         34.539964   0.000000
     22         42.356495   0.000000
     23         43.418662   0.000000
     24         47.475236   0.000000
 
  0.2857143E+00  0.0000000E+00  0.2857143E+00  0.5555556E-02
      1         -4.720652   1.000000
      2          1.675497   1.000000
      3          3.693532   1.000000
      4          3.693532   1.000000
      5          6.763354   0.000000
      6          8.442489   0.000000
      7         12.228161   0.000000
      8         12.228161   0.000000
      9         14.661298   0.000000
     10         15.131933   0.000000
     11         18.021474   0.000000
     12         19.217133   0.000000
     13         19.217140   0.000000
     14         20.111585   0.000000
     15         22.586535   0.000000
     16         22.586535   0.000000
     17         23.226626   0.000000
     18         25.620155   0.000000
     19         27.756658   0.000000
     20         31.594509   0.000000
     21         31.722559   0.000000
     22         32.796675   0.000000
     23         43.739006   0.000000
     24         55.490624   0.000000
 
  0.3000000E+00  0.0000000E+00  0.3000000E+00  0.5555556E-02
      1         -4.578985   1.000000
      2          1.419053   1.000000
      3          3.603386   1.000000
      4          3.603386   1.000000
      5          6.694221   0.000000
      6          8.246203   0.000000
      7         12.486933   0.000000
      8         12.486933   0.000000
      9         14.968668   0.000000
     10         15.293264   0.000000
     11         18.311164   0.000000
     12         19.314085   0.000000
     13         19.314085   0.000000
     14         20.351045   0.000000
     15         22.399579   0.000000
     16         22.399579   0.000000
     17         22.856288   0.000000
     18         25.401325   0.000000
     19         31.652173   0.000000
     20         33.102362   0.000000
     21         32.611761   0.000000
     22         34.378949   0.000000
     23         42.224240   0.000000
     24         42.503483   0.000000
 
  0.3142857E+00  0.0000000E+00  0.3142857E+00  0.5555556E-02
      1         -4.430977   1.000000
      2          1.163229   1.000000
      3          3.518968   1.000000
      4          3.518968   1.000000
      5          6.631736   0.000000
      6          8.058869   0.000000
      7         12.747740   0.000000
      8         12.747740   0.000000
      9         15.276726   0.000000
     10         15.462373   0.000000
     11         18.589289   0.000000
     12         19.359513   0.000000
     13         19.359513   0.000000
     14         20.603211   0.000000
     15         22.282373   0.000000
     16         22.282374   0.000000
     17         22.491849   0.000000
     18         25.201176   0.000000
     19         31.102647   0.000000
     20         32.813723   0.000000
     21         34.161941   0.000000
     22         41.765387   0.000000
     23         42.549895   0.000000
     24         48.418104   0.000000
 
  0.3285714E+00  0.0000000E+00  0.3285714E+00  0.5555556E-02
      1         -4.276719   1.000000
      2          0.908274   1.000000
      3          3.440403   1.000000
      4          3.440403   1.000000
      5          6.576219   0.000000
      6          7.880821   0.000000
      7         13.010408   0.000000
      8         13.010408   0.000000
      9         15.584195   0.000000
     10         15.639234   0.000000
     11         18.850452   0.000000
     12         19.340226   0.000000
     13         19.340232   0.000000
     14         20.867140   0.000000
     15         22.217132   0.000000
     16         22.248028   0.000000
     17         25.012606   0.000000
     18         31.042756   0.000000
     19         32.090978   0.000000
     20         32.605023   0.000000
     21         34.365337   0.000000
     22         41.584004   0.000000
     23         42.297532   0.000000
     24         46.419736   0.000000
 
  0.3428571E+00  0.0000000E+00  0.3428571E+00  0.5555556E-02
      1         -4.116312   1.000000
      2          0.654479   1.000000
      3          3.367797   1.000000
      4          3.367797   1.000000
      5          6.527956   0.000000
      6          7.712612   0.000000
      7         13.274857   0.000000
      8         13.274857   0.000000
      9         15.823837   0.000000
     10         15.890187   0.000000
     11         19.088192   0.000000
     12         19.252437   0.000000
     13         19.252438   0.000000
     14         21.141137   0.000000
     15         21.811976   0.000000
     16         22.300248   0.000000
     17         22.323463   0.000000
     18         29.087425   0.000000
     19         30.611712   0.000000
     20         31.075419   0.000000
     21         33.198493   0.000000
     22         34.080330   0.000000
     23         41.650601   0.000000
     24         45.545028   0.000000
 
  0.3571429E+00  0.0000000E+00  0.3571429E+00  0.5555556E-02
      1         -3.949884   1.000000
      2          0.402117   1.000000
      3          3.301242   1.000000
      4          3.301242   1.000000
      5          6.487216   0.000000
      6          7.554523   0.000000
      7         13.540971   0.000000
      8         13.540971   0.000000
      9         16.016163   0.000000
     10         16.193811   0.000000
     11         19.103539   0.000000
     12         19.103543   0.000000
     13         19.295139   0.000000
     14         21.428723   0.000000
     15         22.216721   0.000000
     16         22.431512   0.000000
     17         24.760386   0.000000
     18         29.291313   0.000000
     19         29.858359   0.000000
     20         30.620776   0.000000
     21         31.877450   0.000000
     22         33.895731   0.000000
     23         41.665136   0.000000
     24         47.285377   0.000000
 
  0.3714286E+00  0.0000000E+00  0.3714286E+00  0.5555556E-02
      1         -3.777535   1.000000
      2          0.151462   1.000000
      3          3.240814   1.000000
      4          3.240814   1.000000
      5          6.454180   0.000000
      6          7.406585   0.000000
      7         13.808525   0.000000
      8         13.808525   0.000000
      9         16.216189   0.000000
     10         16.494184   0.000000
     11         18.906933   0.000000
     12         18.906933   0.000000
     13         19.463499   0.000000
     14         21.096681   0.000000
     15         21.725952   0.000000
     16         22.627869   0.000000
     17         22.627869   0.000000
     18         24.696797   0.000000
     19         29.423738   0.000000
     20         29.552195   0.000000
     21         30.069030   0.000000
     22         33.960396   0.000000
     23         41.189707   0.000000
     24         43.946387   0.000000
 
  0.3857143E+00  0.0000000E+00  0.3857143E+00  0.5555556E-02
      1         -3.599378   1.000000
      2         -0.097207   1.000000
      3          3.186586   1.000000
      4          3.186586   1.000000
      5          6.429199   0.000000
      6          7.269200   0.000000
      7         14.077462   0.000000
      8         14.077462   0.000000
      9         16.423897   0.000000
     10         16.790597   0.000000
     11         18.677529   0.000000
     12         18.677529   0.000000
     13         19.586091   0.000000
     14         20.764634   0.000000
     15         22.035931   0.000000
     16         22.875148   0.000000
     17         22.931873   0.000000
     18         29.004235   0.000000
     19         29.603448   0.000000
     20         29.553897   0.000000
     21         31.011531   0.000000
     22         33.792024   0.000000
     23         41.249818   0.000000
     24         45.996735   0.000000
 
  0.4000000E+00  0.0000000E+00  0.4000000E+00  0.5555556E-02
      1         -3.415551   1.000000
      2         -0.343627   1.000000
      3          3.138617   1.000000
      4          3.138617   1.000000
      5          6.412401   0.000000
      6          7.142256   0.000000
      7         14.347287   0.000000
      8         14.347288   0.000000
      9         16.638612   0.000000
     10         17.082194   0.000000
     11         18.426443   0.000000
     12         18.426443   0.000000
     13         19.657686   0.000000
     14         20.438837   0.000000
     15         22.357897   0.000000
     16         23.161765   0.000000
     17         23.170855   0.000000
     18         24.734545   0.000000
     19         28.727321   0.000000
     20         30.209490   0.000000
     21         41.047357   0.000000
     22         41.390465   0.000000
     23         42.150326   0.000000
     24         45.959534   0.000000
 
  0.4142857E+00  0.0000000E+00  0.4142857E+00  0.5555556E-02
      1         -3.226190   1.000000
      2         -0.587520   1.000000
      3          3.096949   1.000000
      4          3.096950   1.000000
      5          6.404071   0.000000
      6          7.025767   0.000000
      7         14.617834   0.000000
      8         14.617834   0.000000
      9         16.861591   0.000000
     10         17.368193   0.000000
     11         18.162278   0.000000
     12         18.162278   0.000000
     13         19.676280   0.000000
     14         20.120237   0.000000
     15         22.687474   0.000000
     16         23.479257   0.000000
     17         23.479258   0.000000
     18         24.774935   0.000000
     19         28.403628   0.000000
     20         28.812110   0.000000
     21         33.697678   0.000000
     22         40.942995   0.000000
     23         45.343882   0.000000
     24         47.272782   0.000000
 
  0.4285714E+00  0.0000000E+00  0.4285714E+00  0.5555556E-02
      1         -3.031449   1.000000
      2         -0.828613   1.000000
      3          3.061627   1.000000
      4          3.061627   1.000000
      5          6.404356   0.000000
      6          6.919645   0.000000
      7         14.887639   0.000000
      8         14.887639   0.000000
      9         17.092175   0.000000
     10         17.647597   0.000000
     11         17.891400   0.000000
     12         17.891400   0.000000
     13         19.643354   0.000000
     14         19.808653   0.000000
     15         23.026323   0.000000
     16         23.821482   0.000000
     17         23.821482   0.000000
     18         24.880313   0.000000
     19         27.963335   0.000000
     20         28.147955   0.000000
     21         41.589132   0.000000
     22         44.217065   0.000000
     23         45.943328   0.000000
     24         46.927147   0.000000
 
  0.4428571E+00  0.0000000E+00  0.4428571E+00  0.5555556E-02
      1         -2.831512   1.000000
      2         -1.066646   1.000000
      3          3.032674   1.000000
      4          3.032674   1.000000
      5          6.413430   0.000000
      6          6.823749   0.000000
      7         15.155003   0.000000
      8         15.155005   0.000000
      9         17.330333   0.000000
     10         17.618771   0.000000
     11         17.618771   0.000000
     12         17.919361   0.000000
     13         19.503872   0.000000
     14         19.563402   0.000000
     15         23.371243   0.000000
     16         24.183740   0.000000
     17         24.183793   0.000000
     18         24.993341   0.000000
     19         27.514146   0.000000
     20         27.740076   0.000000
     21         35.086724   0.000000
     22         40.359995   0.000000
     23         41.676656   0.000000
     24         45.336766   0.000000
 
  0.4571429E+00  0.0000000E+00  0.4571429E+00  0.5555556E-02
      1         -2.626519   1.000000
      2         -1.301350   1.000000
      3          3.010126   1.000000
      4          3.010126   1.000000
      5          6.431336   0.000000
      6          6.737989   0.000000
      7         15.415891   0.000000
      8         15.415893   0.000000
      9         17.352221   0.000000
     10         17.352221   0.000000
     11         17.575977   0.000000
     12         18.182112   0.000000
     13         19.206411   0.000000
     14         19.442570   0.000000
     15         23.718576   0.000000
     16         24.562435   0.000000
     17         24.563882   0.000000
     18         25.074189   0.000000
     19         27.196363   0.000000
     20         27.242283   0.000000
     21         33.286866   0.000000
     22         44.212634   0.000000
     23         44.559169   0.000000
     24         44.918820   0.000000
 
  0.4714286E+00  0.0000000E+00  0.4714286E+00  0.5555556E-02
      1         -2.416655   1.000000
      2         -1.532480   1.000000
      3          2.994014   1.000000
      4          2.994014   1.000000
      5          6.458564   0.000000
      6          6.662479   0.000000
      7         15.660726   0.000000
      8         15.660731   0.000000
      9         17.102384   0.000000
     10         17.102384   0.000000
     11         17.829183   0.000000
     12         18.434416   0.000000
     13         18.916297   0.000000
     14         19.287593   0.000000
     15         24.063792   0.000000
     16         24.952418   0.000000
     17         24.958285   0.000000
     18         25.093957   0.000000
     19         26.843137   0.000000
     20         27.209995   0.000000
     21         31.374628   0.000000
     22         40.839338   0.000000
     23         43.714037   0.000000
     24         47.111384   0.000000
 
  0.4857143E+00  0.0000000E+00  0.4857143E+00  0.5555556E-02
      1         -2.202111   1.000000
      2         -1.759797   1.000000
      3          2.984342   1.000000
      4          2.984342   1.000000
      5          6.495128   0.000000
      6          6.596929   0.000000
      7         15.862426   0.000000
      8         15.862435   0.000000
      9         16.897308   0.000000
     10         16.897308   0.000000
     11         18.089862   0.000000
     12         18.633466   0.000000
     13         18.674125   0.000000
     14         19.104527   0.000000
     15         24.396785   0.000000
     16         24.942210   0.000000
     17         25.341340   0.000000
     18         25.352982   0.000000
     19         26.316668   0.000000
     20         27.508575   0.000000
     21         31.352494   0.000000
     22         40.631173   0.000000
     23         40.998044   0.000000
     24         45.649220   0.000000
 
  0.5000000E+00  0.0000000E+00  0.5000000E+00  0.5555556E-02
      1         -1.983088   1.000000
      2         -1.983088   1.000000
      3          2.981117   1.000000
      4          2.981117   1.000000
      5          6.541197   0.000000
      6          6.541197   0.000000
      7         15.950780   0.000000
      8         15.950780   0.000000
      9         16.807768   0.000000
     10         16.807768   0.000000
     11         18.357971   0.000000
     12         18.357971   0.000000
     13         18.898619   0.000000
     14         18.898619   0.000000
     15         24.693223   0.000000
     16         24.795800   0.000000
     17         25.593732   0.000000
     18         25.658762   0.000000
     19         26.110341   0.000000
     20         27.264334   0.000000
     21         31.204502   0.000000
     22         40.123775   0.000000
     23         41.852027   0.000000
     24         45.670530   0.000000
 
  0.5000000E+00  0.0000000E+00  0.5000000E+00  0.5555556E-02
      1         -1.983088   1.000000
      2         -1.983088   1.000000
      3          2.981117   1.000000
      4          2.981117   1.000000
      5          6.541197   0.000000
      6          6.541197   0.000000
      7         15.950787   0.000000
      8         15.950789   0.000000
      9         16.807768   0.000000
     10         16.807768   0.000000
     11         18.357971   0.000000
     12         18.357971   0.000000
     13         18.898619   0.000000
     14         18.898619   0.000000
     15         24.695339   0.000000
     16         24.728085   0.000000
     17         25.615549   0.000000
     18         25.625655   0.000000
     19         26.106590   0.000000
     20         26.798248   0.000000
     21         35.107328   0.000000
     22         40.247014   0.000000
     23         40.986875   0.000000
     24         44.586497   0.000000
 
  0.5000000E+00  0.7142857E-02  0.5071429E+00  0.5555556E-02
      1         -1.982787   1.000000
      2         -1.982787   1.000000
      3          2.978368   1.000000
      4          2.978368   1.000000
      5          6.546193   0.000000
      6          6.546193   0.000000
      7         15.942801   0.000000
      8         15.942801   0.000000
      9         16.795022   0.000000
     10         16.795022   0.000000
     11         18.368937   0.000000
     12         18.368937   0.000000
     13         18.909256   0.000000
     14         18.909256   0.000000
     15         24.695626   0.000000
     16         24.810525   0.000000
     17         25.621775   0.000000
     18         26.026575   0.000000
     19         27.268359   0.000000
     20         30.877698   0.000000
     21         35.329278   0.000000
     22         40.128669   0.000000
     23         40.711864   0.000000
     24         46.489801   0.000000
 
  0.5000000E+00  0.1428571E-01  0.5142857E+00  0.5555556E-02
      1         -1.981887   1.000000
      2         -1.981887   1.000000
      3          2.970176   1.000000
      4          2.970176   1.000000
      5          6.561128   0.000000
      6          6.561128   0.000000
      7         15.918212   0.000000
      8         15.918220   0.000000
      9         16.759864   0.000000
     10         16.759866   0.000000
     11         18.398246   0.000000
     12         18.398246   0.000000
     13         18.942330   0.000000
     14         18.942330   0.000000
     15         24.635379   0.000000
     16         24.643391   0.000000
     17         25.591306   0.000000
     18         25.658061   0.000000
     19         26.095659   0.000000
     20         27.078750   0.000000
     21         27.405369   0.000000
     22         31.354055   0.000000
     23         35.054210   0.000000
     24         40.752560   0.000000
 
  0.5000000E+00  0.2142857E-01  0.5214286E+00  0.5555556E-02
      1         -1.980392   1.000000
      2         -1.980392   1.000000
      3          2.956710   1.000000
      4          2.956710   1.000000
      5          6.586002   0.000000
      6          6.586002   0.000000
      7         15.875305   0.000000
      8         15.875312   0.000000
      9         16.710092   0.000000
     10         16.710092   0.000000
     11         18.437282   0.000000
     12         18.437282   0.000000
     13         19.000594   0.000000
     14         19.000595   0.000000
     15         24.572394   0.000000
     16         24.626719   0.000000
     17         25.605564   0.000000
     18         25.901525   0.000000
     19         27.364609   0.000000
     20         30.799465   0.000000
     21         31.428386   0.000000
     22         35.614821   0.000000
     23         40.982306   0.000000
     24         45.339024   0.000000
 
  0.5000000E+00  0.2857143E-01  0.5285714E+00  0.5555556E-02
      1         -1.978312   1.000000
      2         -1.978312   1.000000
      3          2.938221   1.000000
      4          2.938221   1.000000
      5          6.620236   0.000000
      6          6.620236   0.000000
      7         15.811896   0.000000
      8         15.811898   0.000000
      9         16.654973   0.000000
     10         16.654979   0.000000
     11         18.476812   0.000000
     12         18.476812   0.000000
     13         19.085688   0.000000
     14         19.085688   0.000000
     15         24.491066   0.000000
     16         24.491066   0.000000
     17         25.563871   0.000000
     18         25.563876   0.000000
     19         26.230809   0.000000
     20         26.230825   0.000000
     21         27.497018   0.000000
     22         27.497518   0.000000
     23         40.913159   0.000000
     24         41.427197   0.000000
 
  0.5000000E+00  0.3571429E-01  0.5357143E+00  0.5555556E-02
      1         -1.975661   1.000000
      2         -1.975661   1.000000
      3          2.915056   1.000000
      4          2.915056   1.000000
      5          6.663657   0.000000
      6          6.663657   0.000000
      7         15.726695   0.000000
      8         15.726702   0.000000
      9         16.602356   0.000000
     10         16.602358   0.000000
     11         18.511456   0.000000
     12         18.511456   0.000000
     13         19.196649   0.000000
     14         19.196649   0.000000
     15         24.400664   0.000000
     16         24.426341   0.000000
     17         25.536334   0.000000
     18         25.852813   0.000000
     19         27.229609   0.000000
     20         35.177700   0.000000
     21         39.513897   0.000000
     22         40.825917   0.000000
     23         41.167785   0.000000
     24         43.391844   0.000000
 
  0.5000000E+00  0.4285714E-01  0.5428571E+00  0.5555556E-02
      1         -1.972453   1.000000
      2         -1.972453   1.000000
      3          2.887626   1.000000
      4          2.887626   1.000000
      5          6.715865   0.000000
      6          6.715865   0.000000
      7         15.620129   0.000000
      8         15.620134   0.000000
      9         16.556961   0.000000
     10         16.556968   0.000000
     11         18.539887   0.000000
     12         18.539887   0.000000
     13         19.329612   0.000000
     14         19.329612   0.000000
     15         24.303445   0.000000
     16         24.303580   0.000000
     17         25.500385   0.000000
     18         25.512775   0.000000
     19         26.534106   0.000000
     20         26.933189   0.000000
     21         29.279929   0.000000
     22         39.405272   0.000000
     23         44.932395   0.000000
     24         45.477596   0.000000
 
  0.5000000E+00  0.5000000E-01  0.5500000E+00  0.5555556E-02
      1         -1.968707   1.000000
      2         -1.968707   1.000000
      3          2.856386   1.000000
      4          2.856386   1.000000
      5          6.776430   0.000000
      6          6.776430   0.000000
      7         15.494546   0.000000
      8         15.494552   0.000000
      9         16.520397   0.000000
     10         16.520397   0.000000
     11         18.563179   0.000000
     12         18.563179   0.000000
     13         19.479763   0.000000
     14         19.479763   0.000000
     15         24.204301   0.000000
     16         24.235880   0.000000
     17         25.462020   0.000000
     18         26.189748   0.000000
     19         27.630369   0.000000
     20         30.717559   0.000000
     21         35.691426   0.000000
     22         39.367335   0.000000
     23         41.035755   0.000000
     24         46.650750   0.000000
 
  0.5000000E+00  0.5714286E-01  0.5571429E+00  0.5555556E-02
      1         -1.964451   1.000000
      2         -1.964451   1.000000
      3          2.821818   1.000000
      4          2.821818   1.000000
      5          6.844862   0.000000
      6          6.844862   0.000000
      7         15.353126   0.000000
      8         15.353127   0.000000
      9         16.491998   0.000000
     10         16.491998   0.000000
     11         18.582585   0.000000
     12         18.582585   0.000000
     13         19.642721   0.000000
     14         19.642721   0.000000
     15         24.100319   0.000000
     16         24.177202   0.000000
     17         25.411110   0.000000
     18         26.296806   0.000000
     19         27.195812   0.000000
     20         27.437264   0.000000
     21         38.029318   0.000000
     22         39.338705   0.000000
     23         43.039328   0.000000
     24         45.306523   0.000000
 
  0.5000000E+00  0.6428571E-01  0.5642857E+00  0.5555556E-02
      1         -1.959706   1.000000
      2         -1.959706   1.000000
      3          2.784417   1.000000
      4          2.784417   1.000000
      5          6.920720   0.000000
      6          6.920720   0.000000
      7         15.199406   0.000000
      8         15.199407   0.000000
      9         16.470516   0.000000
     10         16.470524   0.000000
     11         18.599569   0.000000
     12         18.599569   0.000000
     13         19.815325   0.000000
     14         19.815325   0.000000
     15         23.997605   0.000000
     16         23.997610   0.000000
     17         25.360992   0.000000
     18         25.371434   0.000000
     19         26.787173   0.000000
     20         27.898657   0.000000
     21         36.074978   0.000000
     22         39.315585   0.000000
     23         41.334515   0.000000
     24         46.226741   0.000000
 
  0.5000000E+00  0.7142857E-01  0.5714286E+00  0.5555556E-02
      1         -1.954508   1.000000
      2         -1.954508   1.000000
      3          2.744670   1.000000
      4          2.744670   1.000000
      5          7.003481   0.000000
      6          7.003481   0.000000
      7         15.036266   0.000000
      8         15.036270   0.000000
      9         16.454253   0.000000
     10         16.454260   0.000000
     11         18.614948   0.000000
     12         18.614948   0.000000
     13         19.994675   0.000000
     14         19.994675   0.000000
     15         23.895635   0.000000
     16         23.895662   0.000000
     17         25.309083   0.000000
     18         25.322107   0.000000
     19         26.903492   0.000000
     20         27.740292   0.000000
     21         37.641100   0.000000
     22         40.863120   0.000000
     23         45.777400   0.000000
     24         48.241574   0.000000
 
  0.5000000E+00  0.7857143E-01  0.5785714E+00  0.5555556E-02
      1         -1.948889   1.000000
      2         -1.948889   1.000000
      3          2.703058   1.000000
      4          2.703058   1.000000
      5          7.092711   0.000000
      6          7.092711   0.000000
      7         14.866129   0.000000
      8         14.866130   0.000000
      9         16.442030   0.000000
     10         16.442031   0.000000
     11         18.629408   0.000000
     12         18.629408   0.000000
     13         20.179114   0.000000
     14         20.179114   0.000000
     15         23.795191   0.000000
     16         23.795303   0.000000
     17         25.256031   0.000000
     18         25.269808   0.000000
     19         27.019242   0.000000
     20         27.701351   0.000000
     21         28.200542   0.000000
     22         38.630382   0.000000
     23         44.168140   0.000000
     24         44.640233   0.000000
 
  0.5000000E+00  0.8571429E-01  0.5857143E+00  0.5555556E-02
      1         -1.942893   1.000000
      2         -1.942893   1.000000
      3          2.660038   1.000000
      4          2.660038   1.000000
      5          7.187939   0.000000
      6          7.187939   0.000000
      7         14.690809   0.000000
      8         14.690810   0.000000
      9         16.432820   0.000000
     10         16.432836   0.000000
     11         18.643231   0.000000
     12         18.643231   0.000000
     13         20.367202   0.000000
     14         20.367203   0.000000
     15         23.696854   0.000000
     16         23.697131   0.000000
     17         25.204310   0.000000
     18         25.219419   0.000000
     19         27.121286   0.000000
     20         28.231102   0.000000
     21         36.395108   0.000000
     22         38.063122   0.000000
     23         39.048864   0.000000
     24         44.564539   0.000000
 
  0.5000000E+00  0.9285714E-01  0.5928571E+00  0.5555556E-02
      1         -1.936546   1.000000
      2         -1.936546   1.000000
      3          2.616048   1.000000
      4          2.616048   1.000000
      5          7.288843   0.000000
      6          7.288843   0.000000
      7         14.511736   0.000000
      8         14.511738   0.000000
      9         16.426160   0.000000
     10         16.426161   0.000000
     11         18.656978   0.000000
     12         18.656978   0.000000
     13         20.557982   0.000000
     14         20.557982   0.000000
     15         23.601416   0.000000
     16         23.601437   0.000000
     17         25.150013   0.000000
     18         25.150214   0.000000
     19         27.224939   0.000000
     20         28.407613   0.000000
     21         37.344485   0.000000
     22         38.553676   0.000000
     23         40.378920   0.000000
     24         45.036972   0.000000
 
  0.5000000E+00  0.1000000E+00  0.6000000E+00  0.5555556E-02
      1         -1.929903   1.000000
      2         -1.929903   1.000000
      3          2.571495   1.000000
      4          2.571496   1.000000
      5          7.394946   0.000000
      6          7.394946   0.000000
      7         14.329854   0.000000
      8         14.329855   0.000000
      9         16.421038   0.000000
     10         16.421037   0.000000
     11         18.670584   0.000000
     12         18.670584   0.000000
     13         20.750410   0.000000
     14         20.750410   0.000000
     15         23.509240   0.000000
     16         23.509246   0.000000
     17         25.097789   0.000000
     18         25.097996   0.000000
     19         27.320825   0.000000
     20         27.329717   0.000000
     21         28.552804   0.000000
     22         37.840868   0.000000
     23         39.078730   0.000000
     24         43.914424   0.000000
 
  0.5000000E+00  0.1071429E+00  0.6071429E+00  0.5555556E-02
      1         -1.923011   1.000000
      2         -1.923010   1.000000
      3          2.526760   1.000000
      4          2.526760   1.000000
      5          7.505913   0.000000
      6          7.505913   0.000000
      7         14.145975   0.000000
      8         14.145976   0.000000
      9         16.417263   0.000000
     10         16.417264   0.000000
     11         18.684040   0.000000
     12         18.684040   0.000000
     13         20.943652   0.000000
     14         20.943652   0.000000
     15         23.420865   0.000000
     16         23.420884   0.000000
     17         25.046604   0.000000
     18         25.048718   0.000000
     19         27.409173   0.000000
     20         28.537762   0.000000
     21         28.751208   0.000000
     22         36.801226   0.000000
     23         38.740679   0.000000
     24         44.613649   0.000000
 
  0.5000000E+00  0.1142857E+00  0.6142857E+00  0.5555556E-02
      1         -1.915919   1.000000
      2         -1.915919   1.000000
      3          2.482191   1.000000
      4          2.482191   1.000000
      5          7.621397   0.000000
      6          7.621397   0.000000
      7         13.960780   0.000000
      8         13.960785   0.000000
      9         16.414520   0.000000
     10         16.414520   0.000000
     11         18.697669   0.000000
     12         18.697669   0.000000
     13         21.136902   0.000000
     14         21.137203   0.000000
     15         23.336994   0.000000
     16         23.678428   0.000000
     17         24.996677   0.000000
     18         27.433009   0.000000
     19         28.512112   0.000000
     20         28.818387   0.000000
     21         29.087982   0.000000
     22         37.247615   0.000000
     23         38.470775   0.000000
     24         45.084384   0.000000
 
  0.5000000E+00  0.1214286E+00  0.6214286E+00  0.5555556E-02
      1         -1.908677   1.000000
      2         -1.908677   1.000000
      3          2.438127   1.000000
      4          2.438127   1.000000
      5          7.741148   0.000000
      6          7.741148   0.000000
      7         13.774760   0.000000
      8         13.774760   0.000000
      9         16.412617   0.000000
     10         16.412619   0.000000
     11         18.711331   0.000000
     12         18.711331   0.000000
     13         21.329228   0.000000
     14         21.329228   0.000000
     15         23.258513   0.000000
     16         23.258516   0.000000
     17         24.948471   0.000000
     18         24.949014   0.000000
     19         27.537096   0.000000
     20         27.774624   0.000000
     21         29.521639   0.000000
     22         36.523190   0.000000
     23         38.194221   0.000000
     24         43.527435   0.000000
 
  0.5000000E+00  0.1285714E+00  0.6285714E+00  0.5555556E-02
      1         -1.901345   1.000000
      2         -1.901345   1.000000
      3          2.394863   1.000000
      4          2.394863   1.000000
      5          7.864850   0.000000
      6          7.864850   0.000000
      7         13.588307   0.000000
      8         13.588307   0.000000
      9         16.411355   0.000000
     10         16.411365   0.000000
     11         18.725000   0.000000
     12         18.725000   0.000000
     13         21.519320   0.000000
     14         21.519320   0.000000
     15         23.186516   0.000000
     16         23.186518   0.000000
     17         24.902080   0.000000
     18         24.902393   0.000000
     19         27.557901   0.000000
     20         28.579000   0.000000
     21         28.995242   0.000000
     22         29.774057   0.000000
     23         36.345491   0.000000
     24         38.024306   0.000000
 
  0.5000000E+00  0.1357143E+00  0.6357143E+00  0.5555556E-02
      1         -1.893978   1.000000
      2         -1.893978   1.000000
      3          2.352677   1.000000
      4          2.352677   1.000000
      5          7.992238   0.000000
      6          7.992238   0.000000
      7         13.401758   0.000000
      8         13.401759   0.000000
      9         16.410599   0.000000
     10         16.410599   0.000000
     11         18.738629   0.000000
     12         18.738629   0.000000
     13         21.705311   0.000000
     14         21.705912   0.000000
     15         23.122780   0.000000
     16         24.642200   0.000000
     17         24.857760   0.000000
     18         27.955422   0.000000
     19         28.876226   0.000000
     20         29.424999   0.000000
     21         29.892309   0.000000
     22         36.468992   0.000000
     23         37.913600   0.000000
     24         45.518946   0.000000
 
  0.5000000E+00  0.1428571E+00  0.6428571E+00  0.5555556E-02
      1         -1.886637   1.000000
      2         -1.886637   1.000000
      3          2.311825   1.000000
      4          2.311825   1.000000
      5          8.123063   0.000000
      6          8.123063   0.000000
      7         13.215403   0.000000
      8         13.215403   0.000000
      9         16.410237   0.000000
     10         16.410237   0.000000
     11         18.752153   0.000000
     12         18.752153   0.000000
     13         21.884183   0.000000
     14         21.884685   0.000000
     15         23.070238   0.000000
     16         23.154810   0.000000
     17         24.815517   0.000000
     18         27.668111   0.000000
     19         27.756101   0.000000
     20         29.240272   0.000000
     21         36.730891   0.000000
     22         37.535487   0.000000
     23         45.328010   0.000000
     24         56.771686   0.000000
 
  0.5000000E+00  0.1500000E+00  0.6500000E+00  0.5555556E-02
      1         -1.879382   1.000000
      2         -1.879382   1.000000
      3          2.272544   1.000000
      4          2.272544   1.000000
      5          8.257087   0.000000
      6          8.257087   0.000000
      7         13.029497   0.000000
      8         13.029497   0.000000
      9         16.410182   0.000000
     10         16.410187   0.000000
     11         18.765497   0.000000
     12         18.765497   0.000000
     13         22.050768   0.000000
     14         22.050768   0.000000
     15         23.033989   0.000000
     16         23.033991   0.000000
     17         24.775626   0.000000
     18         24.775659   0.000000
     19         27.493230   0.000000
     20         27.554987   0.000000
     21         29.086587   0.000000
     22         37.150314   0.000000
     23         47.282357   0.000000
     24         48.307504   0.000000
 
  0.5000000E+00  0.1571429E+00  0.6571429E+00  0.5555556E-02
      1         -1.872268   1.000000
      2         -1.872268   1.000000
      3          2.235051   1.000000
      4          2.235051   1.000000
      5          8.394129   0.000000
      6          8.394129   0.000000
      7         12.844321   0.000000
      8         12.844322   0.000000
      9         16.410363   0.000000
     10         16.410366   0.000000
     11         18.778741   0.000000
     12         18.778741   0.000000
     13         22.196371   0.000000
     14         22.196372   0.000000
     15         23.022779   0.000000
     16         23.022784   0.000000
     17         24.738287   0.000000
     18         24.738405   0.000000
     19         27.410991   0.000000
     20         27.939092   0.000000
     21         29.512183   0.000000
     22         36.074533   0.000000
     23         37.143514   0.000000
     24         37.487005   0.000000
 
  0.5000000E+00  0.1642857E+00  0.6642857E+00  0.5555556E-02
      1         -1.865368   1.000000
      2         -1.865368   1.000000
      3          2.199546   1.000000
      4          2.199546   1.000000
      5          8.533863   0.000000
      6          8.533863   0.000000
      7         12.660020   0.000000
      8         12.660021   0.000000
      9         16.410762   0.000000
     10         16.410762   0.000000
     11         18.791511   0.000000
     12         18.791511   0.000000
     13         22.308265   0.000000
     14         22.367489   0.000000
     15         23.049270   0.000000
     16         23.108034   0.000000
     17         24.703472   0.000000
     18         27.754560   0.000000
     19         29.108767   0.000000
     20         29.842105   0.000000
     21         36.477870   0.000000
     22         37.148005   0.000000
     23         43.437588   0.000000
     24         51.719607   0.000000
 
  0.5000000E+00  0.1714286E+00  0.6714286E+00  0.5555556E-02
      1         -1.858746   1.000000
      2         -1.858746   1.000000
      3          2.166202   1.000000
      4          2.166202   1.000000
      5          8.676034   0.000000
      6          8.676034   0.000000
      7         12.476749   0.000000
      8         12.476749   0.000000
      9         16.411069   0.000000
     10         16.411069   0.000000
     11         18.803837   0.000000
     12         18.803837   0.000000
     13         22.376472   0.000000
     14         22.376516   0.000000
     15         23.122752   0.000000
     16         23.123047   0.000000
     17         24.671240   0.000000
     18         24.678980   0.000000
     19         27.188135   0.000000
     20         29.206738   0.000000
     21         30.196747   0.000000
     22         36.247152   0.000000
     23         36.521586   0.000000
     24         44.531586   0.000000
 
  0.5000000E+00  0.1785714E+00  0.6785714E+00  0.5555556E-02
      1         -1.852456   1.000000
      2         -1.852456   1.000000
      3          2.135201   1.000000
      4          2.135201   1.000000
      5          8.820476   0.000000
      6          8.820476   0.000000
      7         12.294990   0.000000
      8         12.294990   0.000000
      9         16.411623   0.000000
     10         16.411633   0.000000
     11         18.815498   0.000000
     12         18.815499   0.000000
     13         22.404395   0.000000
     14         22.404395   0.000000
     15         23.239992   0.000000
     16         23.239996   0.000000
     17         24.641937   0.000000
     18         24.641964   0.000000
     19         27.048683   0.000000
     20         27.251759   0.000000
     21         29.301775   0.000000
     22         35.986226   0.000000
     23         36.519737   0.000000
     24         45.051334   0.000000
 
  0.5000000E+00  0.1857143E+00  0.6857143E+00  0.5555556E-02
      1         -1.846557   1.000000
      2         -1.846557   1.000000
      3          2.106690   1.000000
      4          2.106690   1.000000
      5          8.966836   0.000000
      6          8.966836   0.000000
      7         12.114923   0.000000
      8         12.114923   0.000000
      9         16.412221   0.000000
     10         16.412221   0.000000
     11         18.826477   0.000000
     12         18.826477   0.000000
     13         22.405578   0.000000
     14         22.406891   0.000000
     15         23.387074   0.000000
     16         23.630821   0.000000
     17         24.615679   0.000000
     18         26.223077   0.000000
     19         26.900010   0.000000
     20         29.370324   0.000000
     21         31.046410   0.000000
     22         35.520072   0.000000
     23         36.214333   0.000000
     24         59.163196   0.000000
 
  0.5000000E+00  0.1928571E+00  0.6928571E+00  0.5555556E-02
      1         -1.841106   1.000000
      2         -1.841106   1.000000
      3          2.080807   1.000000
      4          2.080807   1.000000
      5          9.114731   0.000000
      6          9.114731   0.000000
      7         11.936916   0.000000
      8         11.936916   0.000000
      9         16.412831   0.000000
     10         16.412831   0.000000
     11         18.836665   0.000000
     12         18.836665   0.000000
     13         22.392638   0.000000
     14         22.393440   0.000000
     15         23.550835   0.000000
     16         23.605699   0.000000
     17         24.592715   0.000000
     18         24.860410   0.000000
     19         26.745047   0.000000
     20         31.045781   0.000000
     21         35.652085   0.000000
     22         36.416913   0.000000
     23         43.133926   0.000000
     24         46.887850   0.000000
 
  0.5000000E+00  0.2000000E+00  0.7000000E+00  0.5555556E-02
      1         -1.836158   1.000000
      2         -1.836158   1.000000
      3          2.057675   1.000000
      4          2.057675   1.000000
      5          9.263647   0.000000
      6          9.263648   0.000000
      7         11.761465   0.000000
      8         11.761466   0.000000
      9         16.413428   0.000000
     10         16.413428   0.000000
     11         18.845956   0.000000
     12         18.845957   0.000000
     13         22.373525   0.000000
     14         22.373531   0.000000
     15         23.722403   0.000000
     16         23.723001   0.000000
     17         24.573472   0.000000
     18         24.584403   0.000000
     19         26.581123   0.000000
     20         29.356566   0.000000
     21         29.364736   0.000000
     22         31.827188   0.000000
     23         35.651108   0.000000
     24         43.487503   0.000000
 
  0.5000000E+00  0.2071429E+00  0.7071429E+00  0.5555556E-02
      1         -1.831760   1.000000
      2         -1.831760   1.000000
      3          2.037401   1.000000
      4          2.037402   1.000000
      5          9.412841   0.000000
      6          9.412841   0.000000
      7         11.589297   0.000000
      8         11.589297   0.000000
      9         16.413989   0.000000
     10         16.413988   0.000000
     11         18.854248   0.000000
     12         18.854248   0.000000
     13         22.352719   0.000000
     14         22.352781   0.000000
     15         23.895631   0.000000
     16         23.903825   0.000000
     17         24.558802   0.000000
     18         24.605653   0.000000
     19         26.416625   0.000000
     20         29.197168   0.000000
     21         32.054297   0.000000
     22         34.743438   0.000000
     23         43.002480   0.000000
     24         47.872415   0.000000
 
  0.5000000E+00  0.2142857E+00  0.7142857E+00  0.5555556E-02
      1         -1.827954   1.000000
      2         -1.827954   1.000000
      3          2.020085   1.000000
      4          2.020085   1.000000
      5          9.561150   0.000000
      6          9.561150   0.000000
      7         11.421580   0.000000
      8         11.421580   0.000000
      9         16.414505   0.000000
     10         16.414505   0.000000
     11         18.861457   0.000000
     12         18.861457   0.000000
     13         22.332769   0.000000
     14         22.332777   0.000000
     15         24.064674   0.000000
     16         24.065198   0.000000
     17         24.550656   0.000000
     18         24.551501   0.000000
     19         26.249543   0.000000
     20         29.390361   0.000000
     21         33.607544   0.000000
     22         34.875234   0.000000
     23         42.840310   0.000000
     24         43.737019   0.000000
 
  0.5000000E+00  0.2214286E+00  0.7214286E+00  0.5555556E-02
      1         -1.824788   1.000000
      2         -1.824788   1.000000
      3          2.005805   1.000000
      4          2.005806   1.000000
      5          9.706621   0.000000
      6          9.706621   0.000000
      7         11.260248   0.000000
      8         11.260249   0.000000
      9         16.414935   0.000000
     10         16.414935   0.000000
     11         18.867247   0.000000
     12         18.867247   0.000000
     13         22.315140   0.000000
     14         22.315156   0.000000
     15         24.220128   0.000000
     16         24.254532   0.000000
     17         24.554388   0.000000
     18         24.584633   0.000000
     19         26.086081   0.000000
     20         29.322549   0.000000
     21         29.477167   0.000000
     22         33.876816   0.000000
     23         35.428096   0.000000
     24         43.702261   0.000000
 
  0.5000000E+00  0.2285714E+00  0.7285714E+00  0.5555556E-02
      1         -1.822290   1.000000
      2         -1.822290   1.000000
      3          1.994629   1.000000
      4          1.994630   1.000000
      5          9.845281   0.000000
      6          9.845281   0.000000
      7         11.109250   0.000000
      8         11.109250   0.000000
      9         16.415285   0.000000
     10         16.415285   0.000000
     11         18.872000   0.000000
     12         18.872000   0.000000
     13         22.300730   0.000000
     14         22.300819   0.000000
     15         24.342160   0.000000
     16         24.408131   0.000000
     17         24.586141   0.000000
     18         29.291302   0.000000
     19         29.490461   0.000000
     20         33.584651   0.000000
     21         34.051171   0.000000
     22         34.743886   0.000000
     23         43.564358   0.000000
     24         54.114686   0.000000
 
  0.5000000E+00  0.2357143E+00  0.7357143E+00  0.5555556E-02
      1         -1.820486   1.000000
      2         -1.820486   1.000000
      3          1.986609   1.000000
      4          1.986609   1.000000
      5          9.969464   0.000000
      6          9.969465   0.000000
      7         10.976258   0.000000
      8         10.976258   0.000000
      9         16.415542   0.000000
     10         16.415542   0.000000
     11         18.875438   0.000000
     12         18.875438   0.000000
     13         22.290102   0.000000
     14         22.290116   0.000000
     15         24.405841   0.000000
     16         24.431199   0.000000
     17         24.655360   0.000000
     18         24.744466   0.000000
     19         25.793827   0.000000
     20         29.527350   0.000000
     21         33.031443   0.000000
     22         34.799224   0.000000
     23         35.175051   0.000000
     24         50.162574   0.000000
 
  0.5000000E+00  0.2428571E+00  0.7428571E+00  0.5555556E-02
      1         -1.819396   1.000000
      2         -1.819396   1.000000
      3          1.981782   1.000000
      4          1.981782   1.000000
      5         10.063147   0.000000
      6         10.063147   0.000000
      7         10.877293   0.000000
      8         10.877293   0.000000
      9         16.415699   0.000000
     10         16.415699   0.000000
     11         18.877520   0.000000
     12         18.877520   0.000000
     13         22.283608   0.000000
     14         22.283628   0.000000
     15         24.428418   0.000000
     16         24.432931   0.000000
     17         24.737371   0.000000
     18         25.401902   0.000000
     19         29.440667   0.000000
     20         33.639296   0.000000
     21         34.710853   0.000000
     22         35.691389   0.000000
     23         42.914719   0.000000
     24         44.708418   0.000000
 
  0.5000000E+00  0.2500000E+00  0.7500000E+00  0.5555556E-02
      1         -1.819032   1.000000
      2         -1.819032   1.000000
      3          1.980171   1.000000
      4          1.980171   1.000000
      5         10.099937   0.000000
      6         10.099937   0.000000
      7         10.838742   0.000000
      8         10.838742   0.000000
      9         16.415751   0.000000
     10         16.415751   0.000000
     11         18.878216   0.000000
     12         18.878216   0.000000
     13         22.281421   0.000000
     14         22.281431   0.000000
     15         24.432355   0.000000
     16         24.459091   0.000000
     17         24.767223   0.000000
     18         24.899036   0.000000
     19         25.653564   0.000000
     20         29.481803   0.000000
     21         33.245480   0.000000
     22         33.703773   0.000000
     23         34.788502   0.000000
     24         39.382727   0.000000
 
  0.5000000E+00  0.2500000E+00  0.7500000E+00  0.5555556E-02
      1         -1.819032   1.000000
      2         -1.819032   1.000000
      3          1.980171   1.000000
      4          1.980171   1.000000
      5         10.099937   0.000000
      6         10.099937   0.000000
      7         10.838742   0.000000
      8         10.838742   0.000000
      9         16.415751   0.000000
     10         16.415751   0.000000
     11         18.878216   0.000000
     12         18.878216   0.000000
     13         22.281429   0.000000
     14         22.281433   0.000000
     15         24.440315   0.000000
     16         24.447024   0.000000
     17         24.783597   0.000000
     18         25.630534   0.000000
     19         29.526648   0.000000
     20         29.577007   0.000000
     21         34.007229   0.000000
     22         34.680980   0.000000
     23         42.999117   0.000000
     24         49.005213   0.000000
 
  0.4964286E+00  0.2535714E+00  0.7500000E+00  0.5555556E-02
      1         -1.851415   1.000000
      2         -1.786957   1.000000
      3          1.955753   1.000000
      4          2.006191   1.000000
      5         10.056963   0.000000
      6         10.121420   0.000000
      7         10.830619   0.000000
      8         10.870159   0.000000
      9         16.354510   0.000000
     10         16.473573   0.000000
     11         18.816863   0.000000
     12         18.942178   0.000000
     13         22.222598   0.000000
     14         22.338701   0.000000
     15         24.364459   0.000000
     16         24.501014   0.000000
     17         24.710144   0.000000
     18         24.806163   0.000000
     19         25.610158   0.000000
     20         25.717478   0.000000
     21         29.481446   0.000000
     22         33.430799   0.000000
     23         34.405737   0.000000
     24         37.850067   0.000000
 
  0.4928571E+00  0.2571429E+00  0.7500000E+00  0.5555556E-02
      1         -1.882880   1.000000
      2         -1.756423   1.000000
      3          1.931934   1.000000
      4          2.034802   1.000000
      5          9.981990   0.000000
      6         10.136906   0.000000
      7         10.856715   0.000000
      8         10.908981   0.000000
      9         16.291140   0.000000
     10         16.526191   0.000000
     11         18.759301   0.000000
     12         19.008115   0.000000
     13         22.164275   0.000000
     14         22.392356   0.000000
     15         24.308424   0.000000
     16         24.582993   0.000000
     17         24.821002   0.000000
     18         25.033115   0.000000
     19         25.502450   0.000000
     20         32.855105   0.000000
     21         33.322852   0.000000
     22         34.164273   0.000000
     23         42.807333   0.000000
     24         49.048836   0.000000
 
  0.4892857E+00  0.2607143E+00  0.7500000E+00  0.5555556E-02
      1         -1.913423   1.000000
      2         -1.727433   1.000000
      3          1.908726   1.000000
      4          2.065964   1.000000
      5          9.884957   0.000000
      6         10.146931   0.000000
      7         10.907133   0.000000
      8         10.954657   0.000000
      9         16.225837   0.000000
     10         16.572523   0.000000
     11         18.706701   0.000000
     12         19.075810   0.000000
     13         22.106785   0.000000
     14         22.441417   0.000000
     15         24.236317   0.000000
     16         24.567108   0.000000
     17         24.654811   0.000000
     18         24.824566   0.000000
     19         25.641004   0.000000
     20         28.876831   0.000000
     21         33.020731   0.000000
     22         33.795263   0.000000
     23         34.957294   0.000000
     24         45.974748   0.000000
 
  0.4857143E+00  0.2642857E+00  0.7500000E+00  0.5555556E-02
      1         -1.943043   1.000000
      2         -1.699982   1.000000
      3          1.886139   1.000000
      4          2.099621   1.000000
      5          9.774579   0.000000
      6         10.152230   0.000000
      7         10.973211   0.000000
      8         11.006432   0.000000
      9         16.158769   0.000000
     10         16.611399   0.000000
     11         18.660353   0.000000
     12         19.145073   0.000000
     13         22.050491   0.000000
     14         22.485377   0.000000
     15         24.194748   0.000000
     16         24.482596   0.000000
     17         24.742129   0.000000
     18         25.543937   0.000000
     19         29.024791   0.000000
     20         29.812467   0.000000
     21         33.155857   0.000000
     22         33.481241   0.000000
     23         34.691723   0.000000
     24         35.642001   0.000000
 
  0.4821429E+00  0.2678571E+00  0.7500000E+00  0.5555556E-02
      1         -1.971748   1.000000
      2         -1.674057   1.000000
      3          1.864180   1.000000
      4          2.135708   1.000000
      5          9.656487   0.000000
      6         10.153583   0.000000
      7         11.049285   0.000000
      8         11.063482   0.000000
      9         16.090060   0.000000
     10         16.641554   0.000000
     11         18.621577   0.000000
     12         19.215731   0.000000
     13         21.995588   0.000000
     14         22.524103   0.000000
     15         24.178608   0.000000
     16         24.580779   0.000000
     17         24.897287   0.000000
     18         25.693405   0.000000
     19         29.231883   0.000000
     20         29.776432   0.000000
     21         32.913220   0.000000
     22         33.526919   0.000000
     23         34.847389   0.000000
     24         42.962186   0.000000
 
  0.4785714E+00  0.2714286E+00  0.7500000E+00  0.5555556E-02
      1         -1.999520   1.000000
      2         -1.649639   1.000000
      3          1.842862   1.000000
      4          2.174143   1.000000
      5          9.534251   0.000000
      6         10.151808   0.000000
      7         11.125022   0.000000
      8         11.132006   0.000000
      9         16.019870   0.000000
     10         16.661740   0.000000
     11         18.591779   0.000000
     12         19.287612   0.000000
     13         21.942146   0.000000
     14         22.554343   0.000000
     15         24.078674   0.000000
     16         24.279749   0.000000
     17         24.737774   0.000000
     18         24.891909   0.000000
     19         25.583310   0.000000
     20         29.165729   0.000000
     21         33.045740   0.000000
     22         34.826531   0.000000
     23         42.725111   0.000000
     24         53.174582   0.000000
 
  0.4750000E+00  0.2750000E+00  0.7500000E+00  0.5555556E-02
      1         -2.026362   1.000000
      2         -1.626699   1.000000
      3          1.822194   1.000000
      4          2.214837   1.000000
      5          9.409878   0.000000
      6         10.147567   0.000000
      7         11.190346   0.000000
      8         11.219363   0.000000
      9         15.948302   0.000000
     10         16.670915   0.000000
     11         18.572145   0.000000
     12         19.360643   0.000000
     13         21.890448   0.000000
     14         22.578144   0.000000
     15         24.036864   0.000000
     16         24.173826   0.000000
     17         24.704199   0.000000
     18         24.977562   0.000000
     19         25.521260   0.000000
     20         26.851948   0.000000
     21         29.808336   0.000000
     22         33.547761   0.000000
     23         35.465226   0.000000
     24         43.990551   0.000000
 
  0.4714286E+00  0.2785714E+00  0.7500000E+00  0.5555556E-02
      1         -2.052271   1.000000
      2         -1.605206   1.000000
      3          1.802185   1.000000
      4          2.257690   1.000000
      5          9.284687   0.000000
      6         10.141442   0.000000
      7         11.258877   0.000000
      8         11.310162   0.000000
      9         15.875465   0.000000
     10         16.668275   0.000000
     11         18.563574   0.000000
     12         19.434690   0.000000
     13         21.840563   0.000000
     14         22.594263   0.000000
     15         23.999309   0.000000
     16         24.066958   0.000000
     17         24.839395   0.000000
     18         25.456758   0.000000
     19         28.962789   0.000000
     20         33.669197   0.000000
     21         33.536828   0.000000
     22         36.313847   0.000000
     23         45.145225   0.000000
     24         52.296053   0.000000
 
  0.4678571E+00  0.2821429E+00  0.7500000E+00  0.5555556E-02
      1         -2.077249   1.000000
      2         -1.585121   1.000000
      3          1.782839   1.000000
      4          2.302569   1.000000
      5          9.159456   0.000000
      6         10.133905   0.000000
      7         11.330122   0.000000
      8         11.403599   0.000000
      9         15.801408   0.000000
     10         16.653356   0.000000
     11         18.566576   0.000000
     12         19.509895   0.000000
     13         21.792437   0.000000
     14         22.602325   0.000000
     15         23.954321   0.000000
     16         23.968588   0.000000
     17         24.725674   0.000000
     18         25.346296   0.000000
     19         29.097251   0.000000
     20         32.684882   0.000000
     21         33.330077   0.000000
     22         34.863735   0.000000
     23         35.778525   0.000000
     24         44.350370   0.000000
 
  0.4642857E+00  0.2857143E+00  0.7500000E+00  0.5555556E-02
      1         -2.101299   1.000000
      2         -1.566403   1.000000
      3          1.764166   1.000000
      4          2.349346   1.000000
      5          9.034814   0.000000
      6         10.125340   0.000000
      7         11.403589   0.000000
      8         11.499138   0.000000
      9         15.726228   0.000000
     10         16.626239   0.000000
     11         18.581194   0.000000
     12         19.585598   0.000000
     13         21.746167   0.000000
     14         22.602571   0.000000
     15         23.840607   0.000000
     16         23.931445   0.000000
     17         24.659283   0.000000
     18         25.217970   0.000000
     19         28.674294   0.000000
     20         32.035010   0.000000
     21         35.128156   0.000000
     22         35.281364   0.000000
     23         37.492095   0.000000
     24         44.260157   0.000000
 
  0.4607143E+00  0.2892857E+00  0.7500000E+00  0.5555556E-02
      1         -2.124415   1.000000
      2         -1.548997   1.000000
      3          1.746174   1.000000
      4          2.397879   1.000000
      5          8.911211   0.000000
      6         10.116090   0.000000
      7         11.479034   0.000000
      8         11.596546   0.000000
      9         15.650024   0.000000
     10         16.587568   0.000000
     11         18.607250   0.000000
     12         19.662030   0.000000
     13         21.701853   0.000000
     14         22.595549   0.000000
     15         23.725513   0.000000
     16         23.895959   0.000000
     17         24.625814   0.000000
     18         25.285139   0.000000
     19         25.565828   0.000000
     20         27.092300   0.000000
     21         30.493615   0.000000
     22         32.047349   0.000000
     23         34.886169   0.000000
     24         45.121612   0.000000
 
  0.4571429E+00  0.2928571E+00  0.7500000E+00  0.5555556E-02
      1         -2.146597   1.000000
      2         -1.532860   1.000000
      3          1.728868   1.000000
      4          2.448006   1.000000
      5          8.788994   0.000000
      6         10.106334   0.000000
      7         11.556118   0.000000
      8         11.695389   0.000000
      9         15.572809   0.000000
     10         16.537910   0.000000
     11         18.643545   0.000000
     12         19.739029   0.000000
     13         21.659289   0.000000
     14         22.581903   0.000000
     15         23.609272   0.000000
     16         23.859282   0.000000
     17         24.630600   0.000000
     18         25.460429   0.000000
     19         29.937570   0.000000
     20         31.558950   0.000000
     21         34.740405   0.000000
     22         36.661420   0.000000
     23         43.718437   0.000000
     24         44.825553   0.000000
 
  0.4535714E+00  0.2964286E+00  0.7500000E+00  0.5555556E-02
      1         -2.167843   1.000000
      2         -1.517934   1.000000
      3          1.712254   1.000000
      4          2.499553   1.000000
      5          8.668462   0.000000
      6         10.096304   0.000000
      7         11.634648   0.000000
      8         11.795575   0.000000
      9         15.494674   0.000000
     10         16.478468   0.000000
     11         18.689333   0.000000
     12         19.816544   0.000000
     13         21.618530   0.000000
     14         22.562744   0.000000
     15         23.493909   0.000000
     16         23.866995   0.000000
     17         24.696683   0.000000
     18         25.410431   0.000000
     19         25.733182   0.000000
     20         28.352930   0.000000
     21         31.740050   0.000000
     22         34.872409   0.000000
     23         36.240080   0.000000
     24         47.604000   0.000000
 
  0.4500000E+00  0.3000000E+00  0.7500000E+00  0.5555556E-02
      1         -2.188153   1.000000
      2         -1.504164   1.000000
      3          1.696340   1.000000
      4          2.552330   1.000000
      5          8.549877   0.000000
      6         10.086159   0.000000
      7         11.714433   0.000000
      8         11.896965   0.000000
      9         15.415675   0.000000
     10         16.410399   0.000000
     11         18.743545   0.000000
     12         19.894491   0.000000
     13         21.579562   0.000000
     14         22.538721   0.000000
     15         23.376797   0.000000
     16         23.784242   0.000000
     17         24.857055   0.000000
     18         25.490674   0.000000
     19         28.468240   0.000000
     20         31.679269   0.000000
     21         34.579926   0.000000
     22         36.546026   0.000000
     23         44.265538   0.000000
     24         46.612138   0.000000
 
  0.4464286E+00  0.3035714E+00  0.7500000E+00  0.5555556E-02
      1         -2.207525   1.000000
      2         -1.491494   1.000000
      3          1.681130   1.000000
      4          2.606132   1.000000
      5          8.433489   0.000000
      6         10.076028   0.000000
      7         11.795312   0.000000
      8         11.999449   0.000000
      9         15.335872   0.000000
     10         16.334848   0.000000
     11         18.805117   0.000000
     12         19.972787   0.000000
     13         21.542315   0.000000
     14         22.510064   0.000000
     15         23.258745   0.000000
     16         23.751901   0.000000
     17         24.730516   0.000000
     18         25.473699   0.000000
     19         28.739067   0.000000
     20         32.805127   0.000000
     21         34.257941   0.000000
     22         36.835309   0.000000
     23         37.106182   0.000000
     24         44.479135   0.000000
 
  0.4428571E+00  0.3071429E+00  0.7500000E+00  0.5555556E-02
      1         -2.225958   1.000000
      2         -1.479865   1.000000
      3          1.666630   1.000000
      4          2.660735   1.000000
      5          8.319537   0.000000
      6         10.066018   0.000000
      7         11.877144   0.000000
      8         12.102941   0.000000
      9         15.255328   0.000000
     10         16.252883   0.000000
     11         18.873059   0.000000
     12         20.051345   0.000000
     13         21.506736   0.000000
     14         22.478027   0.000000
     15         23.138525   0.000000
     16         23.677755   0.000000
     17         24.746205   0.000000
     18         25.600397   0.000000
     19         26.094112   0.000000
     20         27.820810   0.000000
     21         30.050109   0.000000
     22         33.810150   0.000000
     23         36.767408   0.000000
     24         48.863394   0.000000
 
  0.4392857E+00  0.3107143E+00  0.7500000E+00  0.5555556E-02
      1         -2.243457   1.000000
      2         -1.469222   1.000000
      3          1.652844   1.000000
      4          2.715899   1.000000
      5          8.208265   0.000000
      6         10.056203   0.000000
      7         11.959803   0.000000
      8         12.207366   0.000000
      9         15.174095   0.000000
     10         16.165461   0.000000
     11         18.946483   0.000000
     12         20.130067   0.000000
     13         21.472744   0.000000
     14         22.443774   0.000000
     15         23.020697   0.000000
     16         23.625344   0.000000
     17         24.827384   0.000000
     18         25.990697   0.000000
     19         27.730763   0.000000
     20         30.052055   0.000000
     21         31.806807   0.000000
     22         35.025761   0.000000
     23         44.498358   0.000000
     24         45.790145   0.000000
 
  0.4357143E+00  0.3142857E+00  0.7500000E+00  0.5555556E-02
      1         -2.260009   1.000000
      2         -1.459508   1.000000
      3          1.639780   1.000000
      4          2.771364   1.000000
      5          8.099925   0.000000
      6         10.046676   0.000000
      7         12.043177   0.000000
      8         12.312662   0.000000
      9         15.092240   0.000000
     10         16.073422   0.000000
     11         19.024614   0.000000
     12         20.208889   0.000000
     13         21.440225   0.000000
     14         22.407474   0.000000
     15         22.903407   0.000000
     16         23.572012   0.000000
     17         24.893398   0.000000
     18         25.909053   0.000000
     19         28.221985   0.000000
     20         29.730624   0.000000
     21         30.709324   0.000000
     22         34.713521   0.000000
     23         37.391856   0.000000
     24         43.794645   0.000000
 
  0.4321429E+00  0.3178571E+00  0.7500000E+00  0.5555556E-02
      1         -2.275620   1.000000
      2         -1.450669   1.000000
      3          1.627439   1.000000
      4          2.826848   1.000000
      5          7.994780   0.000000
      6         10.037486   0.000000
      7         12.127159   0.000000
      8         12.418773   0.000000
      9         15.009823   0.000000
     10         15.977489   0.000000
     11         19.106797   0.000000
     12         20.287766   0.000000
     13         21.413778   0.000000
     14         22.432701   0.000000
     15         23.489961   0.000000
     16         24.893640   0.000000
     17         25.308917   0.000000
     18         26.185116   0.000000
     19         28.117880   0.000000
     20         28.541461   0.000000
     21         30.600035   0.000000
     22         31.659828   0.000000
     23         34.716742   0.000000
     24         56.063708   0.000000
 
  0.4285714E+00  0.3214286E+00  0.7500000E+00  0.5555556E-02
      1         -2.290288   1.000000
      2         -1.442650   1.000000
      3          1.615826   1.000000
      4          2.882054   1.000000
      5          7.893072   0.000000
      6         10.028679   0.000000
      7         12.211593   0.000000
      8         12.525617   0.000000
      9         14.926831   0.000000
     10         15.878089   0.000000
     11         19.192337   0.000000
     12         20.366393   0.000000
     13         21.379008   0.000000
     14         22.330435   0.000000
     15         22.670240   0.000000
     16         23.457435   0.000000
     17         24.979156   0.000000
     18         25.460594   0.000000
     19         26.296495   0.000000
     20         28.101508   0.000000
     21         28.586427   0.000000
     22         31.275557   0.000000
     23         34.560021   0.000000
     24         38.596247   0.000000
 
  0.4250000E+00  0.3250000E+00  0.7500000E+00  0.5555556E-02
      1         -2.304013   1.000000
      2         -1.435401   1.000000
      3          1.604946   1.000000
      4          2.936644   1.000000
      5          7.795182   0.000000
      6         10.020303   0.000000
      7         12.296466   0.000000
      8         12.633198   0.000000
      9         14.843514   0.000000
     10         15.776127   0.000000
     11         19.280978   0.000000
     12         20.444868   0.000000
     13         21.350027   0.000000
     14         22.290276   0.000000
     15         22.555361   0.000000
     16         23.401471   0.000000
     17         25.083488   0.000000
     18         26.047751   0.000000
     19         28.088674   0.000000
     20         29.248966   0.000000
     21         34.430680   0.000000
     22         37.412782   0.000000
     23         38.285896   0.000000
     24         58.338618   0.000000
 
  0.4214286E+00  0.3285714E+00  0.7500000E+00  0.5555556E-02
      1         -2.316795   1.000000
      2         -1.428873   1.000000
      3          1.594801   1.000000
      4          2.990272   1.000000
      5          7.701395   0.000000
      6         10.012390   0.000000
      7         12.381622   0.000000
      8         12.741438   0.000000
      9         14.759874   0.000000
     10         15.671867   0.000000
     11         19.372194   0.000000
     12         20.522992   0.000000
     13         21.321830   0.000000
     14         22.251121   0.000000
     15         22.451175   0.000000
     16         23.358955   0.000000
     17         25.294332   0.000000
     18         26.066584   0.000000
     19         29.238889   0.000000
     20         31.550234   0.000000
     21         34.944445   0.000000
     22         38.130849   0.000000
     23         42.920931   0.000000
     24         45.700879   0.000000
 
  0.4178571E+00  0.3321429E+00  0.7500000E+00  0.5555556E-02
      1         -2.328630   1.000000
      2         -1.423019   1.000000
      3          1.585396   1.000000
      4          3.042566   1.000000
      5          7.612068   0.000000
      6         10.005026   0.000000
      7         12.466958   0.000000
      8         12.850344   0.000000
      9         14.676057   0.000000
     10         15.565812   0.000000
     11         19.465733   0.000000
     12         20.600712   0.000000
     13         21.293941   0.000000
     14         22.207452   0.000000
     15         22.330488   0.000000
     16         23.291420   0.000000
     17         25.191157   0.000000
     18         25.500801   0.000000
     19         28.165265   0.000000
     20         29.168250   0.000000
     21         30.936432   0.000000
     22         36.142441   0.000000
     23         38.337854   0.000000
     24         44.051981   0.000000
 
  0.4142857E+00  0.3357143E+00  0.7500000E+00  0.5555556E-02
      1         -2.339525   1.000000
      2         -1.417800   1.000000
      3          1.576730   1.000000
      4          3.093114   1.000000
      5          7.527545   0.000000
      6          9.998102   0.000000
      7         12.552270   0.000000
      8         12.959747   0.000000
      9         14.592058   0.000000
     10         15.458043   0.000000
     11         19.560938   0.000000
     12         20.677425   0.000000
     13         21.265904   0.000000
     14         22.164705   0.000000
     15         22.221242   0.000000
     16         23.238706   0.000000
     17         25.262031   0.000000
     18         26.334409   0.000000
     19         27.776319   0.000000
     20         29.719501   0.000000
     21         30.558867   0.000000
     22         34.542005   0.000000
     23         38.935035   0.000000
     24         44.988259   0.000000
 
  0.4107143E+00  0.3392857E+00  0.7500000E+00  0.5555556E-02
      1         -2.349472   1.000000
      2         -1.413169   1.000000
      3          1.568810   1.000000
      4          3.141499   1.000000
      5          7.448253   0.000000
      6          9.991740   0.000000
      7         12.637446   0.000000
      8         13.069641   0.000000
      9         14.508167   0.000000
     10         15.349027   0.000000
     11         19.657857   0.000000
     12         20.753506   0.000000
     13         21.237212   0.000000
     14         22.115483   0.000000
     15         22.121323   0.000000
     16         23.188594   0.000000
     17         25.338183   0.000000
     18         25.485872   0.000000
     19         26.836437   0.000000
     20         28.409056   0.000000
     21         29.507021   0.000000
     22         34.478154   0.000000
     23         35.632092   0.000000
     24         46.814080   0.000000
 
  0.4071429E+00  0.3428571E+00  0.7500000E+00  0.5555556E-02
      1         -2.358473   1.000000
      2         -1.409093   1.000000
      3          1.561638   1.000000
      4          3.187274   1.000000
      5          7.374601   0.000000
      6          9.985937   0.000000
      7         12.722252   0.000000
      8         13.179951   0.000000
      9         14.424548   0.000000
     10         15.239015   0.000000
     11         19.756097   0.000000
     12         20.828472   0.000000
     13         21.206947   0.000000
     14         22.013941   0.000000
     15         22.077174   0.000000
     16         23.141448   0.000000
     17         25.406758   0.000000
     18         25.582729   0.000000
     19         27.928482   0.000000
     20         35.948651   0.000000
     21         37.367780   0.000000
     22         39.861214   0.000000
     23         42.679314   0.000000
     24         46.282935   0.000000
 
  0.4035714E+00  0.3464286E+00  0.7500000E+00  0.5555556E-02
      1         -2.366528   1.000000
      2         -1.405539   1.000000
      3          1.555214   1.000000
      4          3.229971   1.000000
      5          7.307026   0.000000
      6          9.980708   0.000000
      7         12.806404   0.000000
      8         13.290587   0.000000
      9         14.341480   0.000000
     10         15.128266   0.000000
     11         19.855386   0.000000
     12         20.903087   0.000000
     13         21.174263   0.000000
     14         21.945589   0.000000
     15         22.063761   0.000000
     16         25.432587   0.000000
     17         27.113314   0.000000
     18         27.659144   0.000000
     19         29.042404   0.000000
     20         31.552105   0.000000
     21         34.967695   0.000000
     22         38.914164   0.000000
     23         39.165824   0.000000
     24         42.663358   0.000000
 
  0.4000000E+00  0.3500000E+00  0.7500000E+00  0.5555556E-02
      1         -2.373636   1.000000
      2         -1.402475   1.000000
      3          1.549542   1.000000
      4          3.269122   1.000000
      5          7.245890   0.000000
      6          9.976067   0.000000
      7         12.889478   0.000000
      8         13.401417   0.000000
      9         14.259348   0.000000
     10         15.017046   0.000000
     11         19.955410   0.000000
     12         20.973691   0.000000
     13         21.136830   0.000000
     14         21.828738   0.000000
     15         21.986762   0.000000
     16         23.058122   0.000000
     17         25.510906   0.000000
     18         25.657872   0.000000
     19         28.668538   0.000000
     20         34.909329   0.000000
     21         35.326463   0.000000
     22         40.244166   0.000000
     23         42.007858   0.000000
     24         44.288924   0.000000
 
  0.3964286E+00  0.3535714E+00  0.7500000E+00  0.5555556E-02
      1         -2.379797   1.000000
      2         -1.399875   1.000000
      3          1.544623   1.000000
      4          3.304259   1.000000
      5          7.191817   0.000000
      6          9.972023   0.000000
      7         12.970914   0.000000
      8         13.512263   0.000000
      9         14.178759   0.000000
     10         14.905653   0.000000
     11         20.055866   0.000000
     12         21.043003   0.000000
     13         21.093882   0.000000
     14         21.749102   0.000000
     15         21.941195   0.000000
     16         23.028296   0.000000
     17         26.548054   0.000000
     18         28.882827   0.000000
     19         31.562609   0.000000
     20         35.732208   0.000000
     21         36.614750   0.000000
     22         41.153892   0.000000
     23         42.338151   0.000000
     24         45.304106   0.000000
 
  0.3928571E+00  0.3571429E+00  0.7500000E+00  0.5555556E-02
      1         -2.385011   1.000000
      2         -1.397714   1.000000
      3          1.540458   1.000000
      4          3.334925   1.000000
      5          7.145159   0.000000
      6          9.968588   0.000000
      7         13.049782   0.000000
      8         13.622828   0.000000
      9         14.100612   0.000000
     10         14.794476   0.000000
     11         20.156333   0.000000
     12         21.043487   0.000000
     13         21.108958   0.000000
     14         21.679899   0.000000
     15         21.895209   0.000000
     16         22.991552   0.000000
     17         25.488357   0.000000
     18         25.656581   0.000000
     19         27.364082   0.000000
     20         28.922737   0.000000
     21         28.891623   0.000000
     22         33.527088   0.000000
     23         36.035680   0.000000
     24         40.492971   0.000000
 
  0.3892857E+00  0.3607143E+00  0.7500000E+00  0.5555556E-02
      1         -2.389272   1.000000
      2         -1.395973   1.000000
      3          1.537049   1.000000
      4          3.360700   1.000000
      5          7.106437   0.000000
      6          9.965772   0.000000
      7         13.124610   0.000000
      8         13.732619   0.000000
      9         14.026404   0.000000
     10         14.684139   0.000000
     11         20.256347   0.000000
     12         20.984677   0.000000
     13         21.170547   0.000000
     14         21.623712   0.000000
     15         21.850753   0.000000
     16         22.966040   0.000000
     17         25.677147   0.000000
     18         27.601190   0.000000
     19         28.518719   0.000000
     20         31.367888   0.000000
     21         34.933784   0.000000
     22         35.913610   0.000000
     23         40.591602   0.000000
     24         41.838215   0.000000
 
  0.3857143E+00  0.3642857E+00  0.7500000E+00  0.5555556E-02
      1         -2.392590   1.000000
      2         -1.394636   1.000000
      3          1.534396   1.000000
      4          3.381181   1.000000
      5          7.075808   0.000000
      6          9.963572   0.000000
      7         13.192869   0.000000
      8         13.840445   0.000000
      9         13.958608   0.000000
     10         14.575786   0.000000
     11         20.354907   0.000000
     12         20.917363   0.000000
     13         21.225461   0.000000
     14         21.580553   0.000000
     15         21.809270   0.000000
     16         22.945633   0.000000
     17         25.486123   0.000000
     18         25.745584   0.000000
     19         27.402226   0.000000
     20         27.428260   0.000000
     21         29.034790   0.000000
     22         40.093670   0.000000
     23         41.643258   0.000000
     24         49.931994   0.000000
 
  0.3821429E+00  0.3678571E+00  0.7500000E+00  0.5555556E-02
      1         -2.394961   1.000000
      2         -1.393690   1.000000
      3          1.532501   1.000000
      4          3.396056   1.000000
      5          7.053690   0.000000
      6          9.961998   0.000000
      7         13.250320   0.000000
      8         13.901488   0.000000
      9         13.943517   0.000000
     10         14.472306   0.000000
     11         20.450399   0.000000
     12         20.843436   0.000000
     13         21.270640   0.000000
     14         21.550517   0.000000
     15         21.773827   0.000000
     16         22.930998   0.000000
     17         25.481317   0.000000
     18         25.775405   0.000000
     19         27.378139   0.000000
     20         27.444854   0.000000
     21         28.811076   0.000000
     22         28.981054   0.000000
     23         34.799126   0.000000
     24         38.954620   0.000000
 
  0.3785714E+00  0.3714286E+00  0.7500000E+00  0.5555556E-02
      1         -2.396385   1.000000
      2         -1.393128   1.000000
      3          1.531363   1.000000
      4          3.405080   1.000000
      5          7.040298   0.000000
      6          9.961041   0.000000
      7         13.290287   0.000000
      8         13.861709   0.000000
      9         14.032626   0.000000
     10         14.382835   0.000000
     11         20.537483   0.000000
     12         20.768455   0.000000
     13         21.301294   0.000000
     14         21.532819   0.000000
     15         21.749004   0.000000
     16         22.923915   0.000000
     17         25.647306   0.000000
     18         25.719726   0.000000
     19         27.467109   0.000000
     20         28.550129   0.000000
     21         35.779451   0.000000
     22         41.743879   0.000000
     23         42.110797   0.000000
     24         48.820878   0.000000
 
  0.3750000E+00  0.3750000E+00  0.7500000E+00  0.5555556E-02
      1         -2.396859   1.000000
      2         -1.392940   1.000000
      3          1.530984   1.000000
      4          3.408106   1.000000
      5          7.035825   0.000000
      6          9.960726   0.000000
      7         13.304922   0.000000
      8         13.847138   0.000000
      9         14.075116   0.000000
     10         14.340256   0.000000
     11         20.586062   0.000000
     12         20.723953   0.000000
     13         21.312354   0.000000
     14         21.527036   0.000000
     15         21.739892   0.000000
     16         22.919216   0.000000
     17         25.573768   0.000000
     18         25.824581   0.000000
     19         27.462189   0.000000
     20         28.502250   0.000000
     21         31.564699   0.000000
     22         35.951054   0.000000
     23         41.282393   0.000000
     24         42.850946   0.000000
 
  0.3750000E+00  0.3750000E+00  0.7500000E+00  0.5555556E-02
      1         -2.396859   1.000000
      2         -1.392940   1.000000
      3          1.530984   1.000000
      4          3.408106   1.000000
      5          7.035825   0.000000
      6          9.960726   0.000000
      7         13.304922   0.000000
      8         13.847138   0.000000
      9         14.075116   0.000000
     10         14.340256   0.000000
     11         20.586062   0.000000
     12         20.723953   0.000000
     13         21.312353   0.000000
     14         21.527035   0.000000
     15         21.739892   0.000000
     16         22.919152   0.000000
     17         25.481680   0.000000
     18         25.801340   0.000000
     19         27.356935   0.000000
     20         28.571777   0.000000
     21         31.145582   0.000000
     22         36.434711   0.000000
     23         41.033199   0.000000
     24         50.895357   0.000000
 
  0.3642857E+00  0.3642857E+00  0.7285714E+00  0.5555556E-02
      1         -2.499335   1.000000
      2         -1.287826   1.000000
      3          1.468010   1.000000
      4          3.481657   1.000000
      5          7.121200   0.000000
      6         10.394860   0.000000
      7         13.041790   0.000000
      8         13.579756   0.000000
      9         13.863690   0.000000
     10         14.112381   0.000000
     11         20.663494   0.000000
     12         20.941294   0.000000
     13         21.363964   0.000000
     14         21.510383   0.000000
     15         21.616594   0.000000
     16         23.274596   0.000000
     17         24.978786   0.000000
     18         25.866498   0.000000
     19         27.713925   0.000000
     20         28.452512   0.000000
     21         30.711857   0.000000
     22         34.672371   0.000000
     23         42.077862   0.000000
     24         51.934585   0.000000
 
  0.3535714E+00  0.3535714E+00  0.7071429E+00  0.5555556E-02
      1         -2.614705   1.000000
      2         -1.174206   1.000000
      3          1.429237   1.000000
      4          3.560230   1.000000
      5          7.212416   0.000000
      6         10.832971   0.000000
      7         12.783802   0.000000
      8         13.324869   0.000000
      9         13.655212   0.000000
     10         13.891919   0.000000
     11         20.594042   0.000000
     12         21.153905   0.000000
     13         21.260556   0.000000
     14         21.351331   0.000000
     15         21.915886   0.000000
     16         23.648828   0.000000
     17         25.731086   0.000000
     18         28.028684   0.000000
     19         29.189452   0.000000
     20         31.792800   0.000000
     21         33.449710   0.000000
     22         34.812133   0.000000
     23         41.468767   0.000000
     24         44.547337   0.000000
 
  0.3428571E+00  0.3428571E+00  0.6857143E+00  0.5555556E-02
      1         -2.741822   1.000000
      2         -1.052115   1.000000
      3          1.414248   1.000000
      4          3.643554   1.000000
      5          7.309138   0.000000
      6         11.266922   0.000000
      7         12.531482   0.000000
      8         13.089617   0.000000
      9         13.450740   0.000000
     10         13.679640   0.000000
     11         20.408607   0.000000
     12         21.008396   0.000000
     13         21.362631   0.000000
     14         21.454738   0.000000
     15         22.210198   0.000000
     16         23.952691   0.000000
     17         25.789022   0.000000
     18         28.096519   0.000000
     19         29.495330   0.000000
     20         33.272565   0.000000
     21         35.099761   0.000000
     22         41.255214   0.000000
     23         42.542374   0.000000
     24         43.725344   0.000000
 
  0.3321429E+00  0.3321429E+00  0.6642857E+00  0.5555556E-02
      1         -2.879159   1.000000
      2         -0.921590   1.000000
      3          1.422051   1.000000
      4          3.731310   1.000000
      5          7.410893   0.000000
      6         11.673986   0.000000
      7         12.285188   0.000000
      8         12.895646   0.000000
      9         13.251250   0.000000
     10         13.476157   0.000000
     11         20.181625   0.000000
     12         20.760190   0.000000
     13         21.566936   0.000000
     14         21.591017   0.000000
     15         22.498168   0.000000
     16         23.357083   0.000000
     17         24.280612   0.000000
     18         25.805114   0.000000
     19         28.353054   0.000000
     20         28.626624   0.000000
     21         32.428650   0.000000
     22         34.346166   0.000000
     23         42.118285   0.000000
     24         43.538022   0.000000
 
  0.3214286E+00  0.3214286E+00  0.6428571E+00  0.5555556E-02
      1         -3.024948   1.000000
      2         -0.782677   1.000000
      3          1.451276   1.000000
      4          3.823122   1.000000
      5          7.517120   0.000000
      6         11.972920   0.000000
      7         12.045241   0.000000
      8         12.822775   0.000000
      9         13.057603   0.000000
     10         13.282105   0.000000
     11         19.944071   0.000000
     12         20.519065   0.000000
     13         21.700689   0.000000
     14         21.765757   0.000000
     15         22.780041   0.000000
     16         22.879662   0.000000
     17         24.452162   0.000000
     18         25.815658   0.000000
     19         28.197517   0.000000
     20         28.960992   0.000000
     21         32.560188   0.000000
     22         34.116228   0.000000
     23         41.933717   0.000000
     24         42.878092   0.000000
 
  0.3107143E+00  0.3107143E+00  0.6214286E+00  0.5555556E-02
      1         -3.177304   1.000000
      2         -0.635418   1.000000
      3          1.500376   1.000000
      4          3.918610   1.000000
      5          7.627356   0.000000
      6         11.811926   0.000000
      7         12.015679   0.000000
      8         12.870709   0.000000
      9         13.017672   0.000000
     10         13.098158   0.000000
     11         19.706600   0.000000
     12         20.287274   0.000000
     13         21.671097   0.000000
     14         21.959913   0.000000
     15         22.551031   0.000000
     16         23.056556   0.000000
     17         24.440152   0.000000
     18         25.913861   0.000000
     19         28.172011   0.000000
     20         29.361063   0.000000
     21         34.504351   0.000000
     22         41.424881   0.000000
     23         42.069536   0.000000
     24         43.050858   0.000000
 
  0.3000000E+00  0.3000000E+00  0.6000000E+00  0.5555556E-02
      1         -3.334408   1.000000
      2         -0.479874   1.000000
      3          1.567733   1.000000
      4          4.017330   1.000000
      5          7.740796   0.000000
      6         11.585435   0.000000
      7         11.878719   0.000000
      8         12.691448   0.000000
      9         12.924633   0.000000
     10         13.401669   0.000000
     11         19.472865   0.000000
     12         20.066820   0.000000
     13         21.366583   0.000000
     14         22.150980   0.000000
     15         22.506518   0.000000
     16         23.541106   0.000000
     17         25.923149   0.000000
     18         29.256340   0.000000
     19         30.748381   0.000000
     20         32.768736   0.000000
     21         34.656411   0.000000
     22         41.365764   0.000000
     23         42.502394   0.000000
     24         55.758216   0.000000
 
  0.2892857E+00  0.2892857E+00  0.5785714E+00  0.5555556E-02
      1         -3.494550   1.000000
      2         -0.316082   1.000000
      3          1.651779   1.000000
      4          4.118797   1.000000
      5          7.856637   0.000000
      6         11.366010   0.000000
      7         11.690932   0.000000
      8         12.520744   0.000000
      9         12.762785   0.000000
     10         13.843538   0.000000
     11         19.245173   0.000000
     12         19.860351   0.000000
     13         20.904912   0.000000
     14         22.330185   0.000000
     15         22.620812   0.000000
     16         23.594974   0.000000
     17         23.956281   0.000000
     18         26.329159   0.000000
     19         28.487899   0.000000
     20         29.378567   0.000000
     21         30.451649   0.000000
     22         34.659071   0.000000
     23         42.363727   0.000000
     24         43.379568   0.000000
 
  0.2785714E+00  0.2785714E+00  0.5571429E+00  0.5555556E-02
      1         -3.656158   1.000000
      2         -0.144116   1.000000
      3          1.751043   1.000000
      4          4.222469   1.000000
      5          7.973840   0.000000
      6         11.153783   0.000000
      7         11.491197   0.000000
      8         12.359572   0.000000
      9         12.612968   0.000000
     10         14.300357   0.000000
     11         19.023944   0.000000
     12         19.671166   0.000000
     13         20.399366   0.000000
     14         22.503449   0.000000
     15         22.789835   0.000000
     16         23.603464   0.000000
     17         28.469828   0.000000
     18         31.010669   0.000000
     19         31.658133   0.000000
     20         34.255921   0.000000
     21         35.545426   0.000000
     22         42.472199   0.000000
     23         43.461507   0.000000
     24         55.146823   0.000000
 
  0.2678571E+00  0.2678571E+00  0.5357143E+00  0.5555556E-02
      1         -3.817850   1.000000
      2          0.035959   1.000000
      3          1.864174   1.000000
      4          4.327761   1.000000
      5          8.091194   0.000000
      6         10.948876   0.000000
      7         11.290755   0.000000
      8         12.209002   0.000000
      9         12.475795   0.000000
     10         14.755306   0.000000
     11         18.808923   0.000000
     12         19.504262   0.000000
     13         19.883715   0.000000
     14         22.664402   0.000000
     15         22.974159   0.000000
     16         23.202873   0.000000
     17         24.118992   0.000000
     18         27.108180   0.000000
     19         29.842030   0.000000
     20         32.005319   0.000000
     21         34.082172   0.000000
     22         40.744062   0.000000
     23         42.502506   0.000000
     24         44.647615   0.000000
 
  0.2571429E+00  0.2571429E+00  0.5142857E+00  0.5555556E-02
      1         -3.978432   1.000000
      2          0.224051   1.000000
      3          1.989942   1.000000
      4          4.434015   1.000000
      5          8.207292   0.000000
      6         10.751429   0.000000
      7         11.093605   0.000000
      8         12.070142   0.000000
      9         12.352058   0.000000
     10         15.195539   0.000000
     11         18.598385   0.000000
     12         19.366970   0.000000
     13         19.370582   0.000000
     14         22.791918   0.000000
     15         22.807837   0.000000
     16         23.167887   0.000000
     17         24.430612   0.000000
     18         27.436283   0.000000
     19         29.390525   0.000000
     20         31.056269   0.000000
     21         35.853618   0.000000
     22         41.841965   0.000000
     23         43.153567   0.000000
     24         52.441745   0.000000
 
  0.2464286E+00  0.2464286E+00  0.4928571E+00  0.5555556E-02
      1         -4.136869   1.000000
      2          0.420084   1.000000
      3          2.127242   1.000000
      4          4.540538   1.000000
      5          8.320596   0.000000
      6         10.561496   0.000000
      7         10.901574   0.000000
      8         11.944301   0.000000
      9         12.242220   0.000000
     10         15.606416   0.000000
     11         18.384319   0.000000
     12         18.872327   0.000000
     13         19.270568   0.000000
     14         22.374525   0.000000
     15         22.925415   0.000000
     16         23.365826   0.000000
     17         24.961581   0.000000
     18         29.788923   0.000000
     19         30.589134   0.000000
     20         32.483451   0.000000
     21         34.189021   0.000000
     22         36.569694   0.000000
     23         42.893212   0.000000
     24         43.910761   0.000000
 
  0.2357143E+00  0.2357143E+00  0.4714286E+00  0.5555556E-02
      1         -4.292282   1.000000
      2          0.623962   1.000000
      3          2.275064   1.000000
      4          4.646625   1.000000
      5          8.428967   0.000000
      6         10.379244   0.000000
      7         10.715591   0.000000
      8         11.832687   0.000000
      9         12.147373   0.000000
     10         15.968340   0.000000
     11         18.125797   0.000000
     12         18.433723   0.000000
     13         19.231067   0.000000
     14         21.959594   0.000000
     15         23.006986   0.000000
     16         23.565294   0.000000
     17         29.914383   0.000000
     18         31.491991   0.000000
     19         33.245555   0.000000
     20         33.458237   0.000000
     21         34.261889   0.000000
     22         42.164779   0.000000
     23         43.970050   0.000000
     24         52.191679   0.000000
 
  0.2250000E+00  0.2250000E+00  0.4500000E+00  0.5555556E-02
      1         -4.443913   1.000000
      2          0.835577   1.000000
      3          2.432474   1.000000
      4          4.751500   1.000000
      5          8.530448   0.000000
      6         10.204714   0.000000
      7         10.536125   0.000000
      8         11.736641   0.000000
      9         12.068049   0.000000
     10         16.257598   0.000000
     11         17.731716   0.000000
     12         18.147506   0.000000
     13         19.266610   0.000000
     14         21.556249   0.000000
     15         23.033873   0.000000
     16         23.761041   0.000000
     17         25.143584   0.000000
     18         27.105492   0.000000
     19         28.996064   0.000000
     20         32.995078   0.000000
     21         33.644873   0.000000
     22         37.084117   0.000000
     23         43.903469   0.000000
     24         51.679266   0.000000
 
  0.2142857E+00  0.2142857E+00  0.4285714E+00  0.5555556E-02
      1         -4.591109   1.000000
      2          1.054802   1.000000
      3          2.598593   1.000000
      4          4.854377   1.000000
      5          8.622839   0.000000
      6         10.037973   0.000000
      7         10.363439   0.000000
      8         11.657285   0.000000
      9         12.004949   0.000000
     10         16.453281   0.000000
     11         17.263739   0.000000
     12         17.953918   0.000000
     13         19.386538   0.000000
     14         21.178737   0.000000
     15         22.990953   0.000000
     16         23.954276   0.000000
     17         25.437400   0.000000
     18         26.614039   0.000000
     19         28.815049   0.000000
     20         31.769642   0.000000
     21         34.357153   0.000000
     22         40.336352   0.000000
     23         42.950258   0.000000
     24         48.159146   0.000000
 
  0.2035714E+00  0.2035714E+00  0.4071429E+00  0.5555556E-02
      1         -4.733321   1.000000
      2          1.281503   1.000000
      3          2.772577   1.000000
      4          4.954464   1.000000
      5          8.703984   0.000000
      6          9.879084   0.000000
      7         10.197682   0.000000
      8         11.595347   0.000000
      9         11.958739   0.000000
     10         16.548994   0.000000
     11         16.786957   0.000000
     12         17.789885   0.000000
     13         19.565312   0.000000
     14         20.861407   0.000000
     15         22.864098   0.000000
     16         24.140682   0.000000
     17         25.770384   0.000000
     18         28.264711   0.000000
     19         33.284027   0.000000
     20         36.078131   0.000000
     21         40.094564   0.000000
     22         44.661950   0.000000
     23         45.104675   0.000000
     24         45.543833   0.000000
 
  0.1928571E+00  0.1928571E+00  0.3857143E+00  0.5555556E-02
      1         -4.870087   1.000000
      2          1.515485   1.000000
      3          2.953583   1.000000
      4          5.050961   1.000000
      5          8.771995   0.000000
      6          9.728082   0.000000
      7         10.038858   0.000000
      8         11.550695   0.000000
      9         11.930019   0.000000
     10         16.316550   0.000000
     11         16.556178   0.000000
     12         17.642298   0.000000
     13         19.688084   0.000000
     14         20.708569   0.000000
     15         22.651840   0.000000
     16         24.310233   0.000000
     17         25.923220   0.000000
     18         26.139860   0.000000
     19         27.979917   0.000000
     20         33.504121   0.000000
     21         34.699418   0.000000
     22         36.717076   0.000000
     23         38.041680   0.000000
     24         41.598129   0.000000
 
  0.1821429E+00  0.1821429E+00  0.3642857E+00  0.5555556E-02
      1         -5.001001   1.000000
      2          1.756576   1.000000
      3          3.140771   1.000000
      4          5.143177   1.000000
      5          8.825547   0.000000
      6          9.585048   0.000000
      7          9.887042   0.000000
      8         11.522021   0.000000
      9         11.919320   0.000000
     10         15.858380   0.000000
     11         16.495416   0.000000
     12         17.508539   0.000000
     13         19.591338   0.000000
     14         20.864956   0.000000
     15         22.367332   0.000000
     16         24.455401   0.000000
     17         26.167185   0.000000
     18         26.380223   0.000000
     19         32.501982   0.000000
     20         34.067096   0.000000
     21         35.014329   0.000000
     22         41.355696   0.000000
     23         45.274240   0.000000
     24         52.614997   0.000000
 
  0.1714286E+00  0.1714286E+00  0.3428571E+00  0.5555556E-02
      1         -5.125743   1.000000
      2          2.004533   1.000000
      3          3.333264   1.000000
      4          5.230418   1.000000
      5          8.864059   0.000000
      6          9.450009   0.000000
      7          9.742167   0.000000
      8         11.506160   0.000000
      9         11.927023   0.000000
     10         15.416979   0.000000
     11         16.385545   0.000000
     12         17.387724   0.000000
     13         19.343562   0.000000
     14         21.244400   0.000000
     15         22.029341   0.000000
     16         24.556849   0.000000
     17         26.249714   0.000000
     18         26.470107   0.000000
     19         27.215581   0.000000
     20         33.569877   0.000000
     21         35.466913   0.000000
     22         37.152793   0.000000
     23         39.916985   0.000000
     24         45.302876   0.000000
 
  0.1607143E+00  0.1607143E+00  0.3214286E+00  0.5555556E-02
      1         -5.244003   1.000000
      2          2.259066   1.000000
      3          3.530122   1.000000
      4          5.312104   1.000000
      5          8.887837   0.000000
      6          9.323001   0.000000
      7          9.604157   0.000000
      8         11.497557   0.000000
      9         11.953350   0.000000
     10         14.997594   0.000000
     11         16.240159   0.000000
     12         17.279843   0.000000
     13         19.059003   0.000000
     14         21.656283   0.000000
     15         21.720086   0.000000
     16         24.588330   0.000000
     17         26.774525   0.000000
     18         32.807812   0.000000
     19         34.822626   0.000000
     20         35.474866   0.000000
     21         37.087758   0.000000
     22         39.450328   0.000000
     23         40.674528   0.000000
     24         45.688693   0.000000
 
  0.1500000E+00  0.1500000E+00  0.3000000E+00  0.5555556E-02
      1         -5.355528   1.000000
      2          2.519829   1.000000
      3          3.730333   1.000000
      4          5.387759   1.000000
      5          8.897997   0.000000
      6          9.204051   0.000000
      7          9.472890   0.000000
      8         11.487685   0.000000
      9         11.998308   0.000000
     10         14.607183   0.000000
     11         16.068321   0.000000
     12         17.185144   0.000000
     13         18.778216   0.000000
     14         21.262569   0.000000
     15         22.242964   0.000000
     16         24.517748   0.000000
     17         26.666430   0.000000
     18         26.780450   0.000000
     19         34.018949   0.000000
     20         36.030445   0.000000
     21         38.510409   0.000000
     22         39.672532   0.000000
     23         46.904786   0.000000
     24         50.688551   0.000000
 
  0.1392857E+00  0.1392857E+00  0.2785714E+00  0.5555556E-02
      1         -5.460092   1.000000
      2          2.786427   1.000000
      3          3.932816   1.000000
      4          5.457088   1.000000
      5          8.896303   0.000000
      6          9.093092   0.000000
      7          9.348389   0.000000
      8         11.464738   0.000000
      9         12.061984   0.000000
     10         14.255518   0.000000
     11         15.876367   0.000000
     12         17.104096   0.000000
     13         18.515489   0.000000
     14         20.858878   0.000000
     15         22.794069   0.000000
     16         24.342595   0.000000
     17         26.722150   0.000000
     18         26.738043   0.000000
     19         27.856077   0.000000
     20         35.872872   0.000000
     21         37.908740   0.000000
     22         39.944769   0.000000
     23         45.683412   0.000000
     24         46.212961   0.000000
 
  0.1285714E+00  0.1285714E+00  0.2571429E+00  0.5555556E-02
      1         -5.557522   1.000000
      2          3.058264   1.000000
      3          4.136229   1.000000
      4          5.519804   1.000000
      5          8.884709   0.000000
      6          8.990302   0.000000
      7          9.230214   0.000000
      8         11.413505   0.000000
      9         12.143159   0.000000
     10         13.954208   0.000000
     11         15.669345   0.000000
     12         17.037090   0.000000
     13         18.276070   0.000000
     14         20.451751   0.000000
     15         23.362790   0.000000
     16         24.083923   0.000000
     17         26.841338   0.000000
     18         27.442829   0.000000
     19         34.602565   0.000000
     20         37.728991   0.000000
     21         39.333043   0.000000
     22         41.045175   0.000000
     23         48.616391   0.000000
     24         49.275456   0.000000
 
  0.1178571E+00  0.1178571E+00  0.2357143E+00  0.5555556E-02
      1         -5.647651   1.000000
      2          3.334719   1.000000
      3          4.339194   1.000000
      4          5.575967   1.000000
      5          8.865356   0.000000
      6          8.895714   0.000000
      7          9.118537   0.000000
      8         11.318687   0.000000
      9         12.241627   0.000000
     10         13.716442   0.000000
     11         15.452092   0.000000
     12         16.984638   0.000000
     13         18.062231   0.000000
     14         20.047719   0.000000
     15         23.775926   0.000000
     16         23.943702   0.000000
     17         26.968446   0.000000
     18         27.223507   0.000000
     19         33.180678   0.000000
     20         36.758579   0.000000
     21         39.676931   0.000000
     22         40.394502   0.000000
     23         43.397583   0.000000
     24         50.582554   0.000000
 
  0.1071429E+00  0.1071429E+00  0.2142857E+00  0.5555556E-02
      1         -5.730350   1.000000
      2          3.614899   1.000000
      3          4.540061   1.000000
      4          5.625613   1.000000
      5          8.809313   0.000000
      6          8.840034   0.000000
      7          9.013145   0.000000
      8         11.169988   0.000000
      9         12.356040   0.000000
     10         13.549396   0.000000
     11         15.229532   0.000000
     12         16.947049   0.000000
     13         17.873975   0.000000
     14         19.650637   0.000000
     15         23.445321   0.000000
     16         24.531041   0.000000
     17         27.107135   0.000000
     18         27.374660   0.000000
     19         32.473827   0.000000
     20         36.135073   0.000000
     21         37.990306   0.000000
     22         39.915297   0.000000
     23         45.869332   0.000000
     24         49.061907   0.000000
 
  0.9642857E-01  0.9642857E-01  0.1928571E+00  0.5555556E-02
      1         -5.805484   1.000000
      2          3.897583   1.000000
      3          4.736920   1.000000
      4          5.668946   1.000000
      5          8.731027   0.000000
      6          8.810259   0.000000
      7          8.913944   0.000000
      8         10.967988   0.000000
      9         12.484054   0.000000
     10         13.450275   0.000000
     11         15.006812   0.000000
     12         16.924353   0.000000
     13         17.710363   0.000000
     14         19.264260   0.000000
     15         23.109707   0.000000
     16         25.122392   0.000000
     17         27.327516   0.000000
     18         28.142771   0.000000
     19         29.072650   0.000000
     20         33.377130   0.000000
     21         37.548316   0.000000
     22         40.695267   0.000000
     23         44.667574   0.000000
     24         48.256684   0.000000
 
  0.8571429E-01  0.8571429E-01  0.1714286E+00  0.5555556E-02
      1         -5.872957   1.000000
      2          4.181116   1.000000
      3          4.927431   1.000000
      4          5.706245   1.000000
      5          8.660978   0.000000
      6          8.776965   0.000000
      7          8.821027   0.000000
      8         10.724159   0.000000
      9         12.623973   0.000000
     10         13.406374   0.000000
     11         14.789210   0.000000
     12         16.916152   0.000000
     13         17.569342   0.000000
     14         18.892038   0.000000
     15         22.780773   0.000000
     16         25.711258   0.000000
     17         27.718609   0.000000
     18         28.656853   0.000000
     19         35.378248   0.000000
     20         37.751657   0.000000
     21         39.686077   0.000000
     22         42.623432   0.000000
     23         47.516598   0.000000
     24         51.291182   0.000000
 
  0.7500000E-01  0.7500000E-01  0.1500000E+00  0.5555556E-02
      1         -5.932678   1.000000
      2          4.463222   1.000000
      3          5.109024   1.000000
      4          5.737877   1.000000
      5          8.599139   0.000000
      6          8.734543   0.000000
      7          8.740459   0.000000
      8         10.455240   0.000000
      9         12.772671   0.000000
     10         13.400938   0.000000
     11         14.581919   0.000000
     12         16.921543   0.000000
     13         17.449321   0.000000
     14         18.537826   0.000000
     15         22.466890   0.000000
     16         26.292850   0.000000
     17         27.782016   0.000000
     18         28.161902   0.000000
     19         29.114260   0.000000
     20         35.948723   0.000000
     21         38.340442   0.000000
     22         41.768856   0.000000
     23         45.579616   0.000000
     24         48.341258   0.000000
 
  0.6428571E-01  0.6428571E-01  0.1285714E+00  0.5555556E-02
      1         -5.984573   1.000000
      2          4.740660   1.000000
      3          5.278626   1.000000
      4          5.764233   1.000000
      5          8.545496   0.000000
      6          8.654986   0.000000
      7          8.700194   0.000000
      8         10.178599   0.000000
      9         12.926080   0.000000
     10         13.418615   0.000000
     11         14.390015   0.000000
     12         16.938861   0.000000
     13         17.348634   0.000000
     14         18.205934   0.000000
     15         22.175097   0.000000
     16         26.859862   0.000000
     17         27.997880   0.000000
     18         28.247157   0.000000
     19         29.070519   0.000000
     20         31.955376   0.000000
     21         38.596726   0.000000
     22         44.928100   0.000000
     23         48.474883   0.000000
     24         53.987855   0.000000
 
  0.5357143E-01  0.5357143E-01  0.1071429E+00  0.5555556E-02
      1         -6.028593   1.000000
      2          5.008645   1.000000
      3          5.432806   1.000000
      4          5.785710   1.000000
      5          8.500112   0.000000
      6          8.583348   0.000000
      7          8.654714   0.000000
      8          9.910751   0.000000
      9         13.079253   0.000000
     10         13.447828   0.000000
     11         14.218273   0.000000
     12         16.965495   0.000000
     13         17.265942   0.000000
     14         17.901902   0.000000
     15         21.911752   0.000000
     16         27.402677   0.000000
     17         28.228245   0.000000
     18         28.441784   0.000000
     19         29.315921   0.000000
     20         31.340750   0.000000
     21         35.566694   0.000000
     22         45.776874   0.000000
     23         48.542732   0.000000
     24         50.236192   0.000000
 
  0.4285714E-01  0.4285714E-01  0.8571429E-01  0.5555556E-02
      1         -6.064675   1.000000
      2          5.260103   1.000000
      3          5.567601   1.000000
      4          5.802716   1.000000
      5          8.462969   0.000000
      6          8.520751   0.000000
      7          8.601537   0.000000
      8          9.668270   0.000000
      9         13.225353   0.000000
     10         13.480024   0.000000
     11         14.071006   0.000000
     12         16.997695   0.000000
     13         17.199871   0.000000
     14         17.632534   0.000000
     15         21.683248   0.000000
     16         27.907404   0.000000
     17         28.447960   0.000000
     18         28.627487   0.000000
     19         29.613869   0.000000
     20         35.100777   0.000000
     21         41.307042   0.000000
     22         43.602282   0.000000
     23         48.489985   0.000000
     24         49.555192   0.000000
 
  0.3214286E-01  0.3214286E-01  0.6428571E-01  0.5555556E-02
      1         -6.092779   1.000000
      2          5.484467   1.000000
      3          5.678815   1.000000
      4          5.815537   1.000000
      5          8.434074   0.000000
      6          8.468897   0.000000
      7          8.539452   0.000000
      8          9.467772   0.000000
      9         13.355826   0.000000
     10         13.509709   0.000000
     11         13.952065   0.000000
     12         17.030672   0.000000
     13         17.149529   0.000000
     14         17.406192   0.000000
     15         21.496045   0.000000
     16         28.341854   0.000000
     17         28.645664   0.000000
     18         28.861576   0.000000
     19         29.845499   0.000000
     20         34.991034   0.000000
     21         42.919510   0.000000
     22         45.800715   0.000000
     23         48.212197   0.000000
     24         49.703981   0.000000
 
  0.2142857E-01  0.2142857E-01  0.4285714E-01  0.5555556E-02
      1         -6.112872   1.000000
      2          5.666829   1.000000
      3          5.762161   1.000000
      4          5.824480   1.000000
      5          8.413430   0.000000
      6          8.429745   0.000000
      7          8.473163   0.000000
      8          9.322524   0.000000
      9         13.460573   0.000000
     10         13.533105   0.000000
     11         13.864647   0.000000
     12         17.059356   0.000000
     13         17.114003   0.000000
     14         17.233023   0.000000
     15         21.356501   0.000000
     16         28.681089   0.000000
     17         28.838992   0.000000
     18         29.035610   0.000000
     19         29.913186   0.000000
     20         35.027376   0.000000
     21         40.769527   0.000000
     22         44.915414   0.000000
     23         45.540228   0.000000
     24         49.332093   0.000000
 
  0.1071429E-01  0.1071429E-01  0.2142857E-01  0.5555556E-02
      1         -6.124931   1.000000
      2          5.788423   1.000000
      3          5.813931   1.000000
      4          5.829759   1.000000
      5          8.401041   0.000000
      6          8.405259   0.000000
      7          8.418537   0.000000
      8          9.237358   0.000000
      9         13.529095   0.000000
     10         13.547948   0.000000
     11         13.811181   0.000000
     12         17.078923   0.000000
     13         17.092882   0.000000
     14         17.123474   0.000000
     15         21.270166   0.000000
     16         28.889316   0.000000
     17         28.911916   0.000000
     18         28.956564   0.000000
     19         30.030052   0.000000
     20         34.903115   0.000000
     21         41.478966   0.000000
     22         47.032198   0.000000
     23         49.298458   0.000000
     24         50.823571   0.000000
 
  0.0000000E+00  0.0000000E+00 -0.6938894E-17  0.5555556E-02
      1         -6.128945   1.000000
      2          5.831503   1.000000
      3          5.831503   1.000000
      4          5.831503   1.000000
      5          8.396912   0.000000
      6          8.396912   0.000000
      7          8.396912   0.000000
      8          9.209725   0.000000
      9         13.553023   0.000000
     10         13.553023   0.000000
     11         13.793185   0.000000
     12         17.085874   0.000000
     13         17.085875   0.000000
     14         17.085876   0.000000
     15         21.240919   0.000000
     16         28.948596   0.000000
     17         28.948513   0.000000
     18         29.060617   0.000000
     19         30.084898   0.000000
     20         41.472847   0.000000
     21         44.119597   0.000000
     22         50.017023   0.000000
     23         50.318263   0.000000
     24         50.810442   0.000000
