       N       E                     dE             d eps       ncg     rms          rms(c)
DAV:   1    -0.409728732334E+01   -0.40973E+01   -0.45901E+02 11296   0.305E+01
RMM:   2    -0.829262061227E+01   -0.41953E+01   -0.41871E+01 12060   0.238E+01
RMM:   3    -0.882057108841E+01   -0.52795E+00   -0.20180E+00 11963   0.467E+00
RMM:   4    -0.884567773631E+01   -0.25107E-01   -0.19233E-01 12279   0.155E+00
RMM:   5    -0.884856188475E+01   -0.28841E-02   -0.25796E-02 12408   0.565E-01
RMM:   6    -0.884900817033E+01   -0.44629E-03   -0.40646E-03 12453   0.223E-01
RMM:   7    -0.884907675640E+01   -0.68586E-04   -0.63370E-04 12451   0.871E-02
RMM:   8    -0.884908862863E+01   -0.11872E-04   -0.11110E-04 12440   0.361E-02
RMM:   9    -0.884909059120E+01   -0.19626E-05   -0.18472E-05 12379   0.146E-02
RMM:  10    -0.884909094802E+01   -0.35682E-06   -0.33887E-06 12040   0.621E-03
   1 F= -.88490909E+01 E0= -.88490909E+01  d E =-.151112E-10
