PROCAR lm decomposed
# of k-points:  180         # of bands:   12         # of ions:    2

 k-point     1 :    0.50000000 0.50000000 0.50000000     weight = 0.00555556

band     1 # energy   -3.79661103 # occ.  2.00000000
 
ion      s     py     pz     px    dxy    dyz    dz2    dxz  x2-y2    tot
    1  0.225  0.005  0.005  0.005  0.000  0.000  0.000  0.000  0.000  0.239
    2  0.225  0.005  0.005  0.005  0.000  0.000  0.000  0.000  0.000  0.239
tot    0.450  0.009  0.009  0.009  0.000  0.000  0.000  0.000  0.000  0.478
 
band     2 # energy   -1.13639054 # occ.  2.00000000
 
ion      s     py     pz     px    dxy    dyz    dz2    dxz  x2-y2    tot
    1  0.098  0.031  0.031  0.031  0.000  0.000  0.000  0.000  0.000  0.192
    2  0.098  0.031  0.031  0.031  0.000  0.000  0.000  0.000  0.000  0.192
tot    0.196  0.063  0.063  0.063  0.000  0.000  0.000  0.000  0.000  0.385
 
band     3 # energy    4.63415859 # occ.  2.00000000
 
ion      s     py     pz     px    dxy    dyz    dz2    dxz  x2-y2    tot
    1  0.000  0.119  0.001  0.099  0.000  0.000  0.000  0.000  0.000  0.218
    2  0.000  0.119  0.001  0.099  0.000  0.000  0.000  0.000  0.000  0.218
tot    0.000  0.237  0.002  0.198  0.000  0.000  0.000  0.000  0.000  0.437
 
band     4 # energy    4.63415860 # occ.  2.00000000
 
ion      s     py     pz     px    dxy    dyz    dz2    dxz  x2-y2    tot
    1  0.000  0.027  0.145  0.047  0.000  0.000  0.000  0.000  0.000  0.218
    2  0.000  0.027  0.145  0.047  0.000  0.000  0.000  0.000  0.000  0.218
tot    0.000  0.054  0.289  0.093  0.000  0.000  0.000  0.000  0.000  0.437
 
band     5 # energy    7.37348805 # occ.  0.00000000
 
ion      s     py     pz     px    dxy    dyz    dz2    dxz  x2-y2    tot
    1  0.186  0.006  0.006  0.006  0.000  0.000  0.000  0.000  0.000  0.205
    2  0.186  0.006  0.006  0.006  0.000  0.000  0.000  0.000  0.000  0.205
tot    0.372  0.013  0.013  0.013  0.000  0.000  0.000  0.000  0.000  0.410
 
band     6 # energy    9.17198617 # occ.  0.00000000
 
ion      s     py     pz     px    dxy    dyz    dz2    dxz  x2-y2    tot
    1  0.000  0.036  0.042  0.016  0.000  0.000  0.000  0.000  0.000  0.094
    2  0.000  0.036  0.042  0.016  0.000  0.000  0.000  0.000  0.000  0.094
tot    0.000  0.071  0.085  0.032  0.000  0.000  0.000  0.000  0.000  0.188
 
band     7 # energy    9.17198646 # occ.  0.00000000
 
ion      s     py     pz     px    dxy    dyz    dz2    dxz  x2-y2    tot
    1  0.000  0.027  0.020  0.047  0.000  0.000  0.000  0.000  0.000  0.094
    2  0.000  0.027  0.020  0.047  0.000  0.000  0.000  0.000  0.000  0.094
tot    0.000  0.054  0.041  0.093  0.000  0.000  0.000  0.000  0.000  0.188
 
band     8 # energy   13.56176059 # occ.  0.00000000
 
ion      s     py     pz     px    dxy    dyz    dz2    dxz  x2-y2    tot
    1  0.006  0.018  0.018  0.018  0.000  0.000  0.000  0.000  0.000  0.059
    2  0.006  0.018  0.018  0.018  0.000  0.000  0.000  0.000  0.000  0.059
tot    0.012  0.035  0.035  0.035  0.000  0.000  0.000  0.000  0.000  0.117
 
band     9 # energy   16.38445869 # occ.  0.00000000
 
ion      s     py     pz     px    dxy    dyz    dz2    dxz  x2-y2    tot
    1  0.000  0.000  0.000  0.000  0.000  0.000  0.000  0.000  0.000  0.000
    2  0.000  0.000  0.000  0.000  0.000  0.000  0.000  0.000  0.000  0.000
tot    0.000  0.000  0.000  0.000  0.000  0.000  0.000  0.000  0.000  0.001
 
band    10 # energy   16.38556907 # occ.  0.00000000
 
ion      s     py     pz     px    dxy    dyz    dz2    dxz  x2-y2    tot
    1  0.000  0.000  0.000  0.000  0.000  0.000  0.000  0.000  0.000  0.001
    2  0.000  0.000  0.000  0.000  0.000  0.000  0.000  0.000  0.000  0.000
tot    0.000  0.001  0.000  0.000  0.000  0.000  0.000  0.000  0.000  0.001
 
band    11 # energy   17.19122756 # occ.  0.00000000
 
ion      s     py     pz     px    dxy    dyz    dz2    dxz  x2-y2    tot
    1  0.033  0.038  0.080  0.030  0.000  0.000  0.000  0.000  0.000  0.181
    2  0.034  0.039  0.078  0.029  0.000  0.000  0.000  0.000  0.000  0.180
tot    0.067  0.077  0.158  0.059  0.000  0.000  0.000  0.000  0.000  0.361
 
band    12 # energy   34.14048085 # occ.  0.00000000
 
ion      s     py     pz     px    dxy    dyz    dz2    dxz  x2-y2    tot
    1  0.012  0.005  0.003  0.013  0.000  0.000  0.000  0.000  0.000  0.033
    2  0.003  0.019  0.004  0.005  0.000  0.000  0.000  0.000  0.000  0.030
tot    0.014  0.024  0.007  0.018  0.000  0.000  0.000  0.000  0.000  0.064
 

 k-point     2 :    0.48571429 0.48571429 0.48571429     weight = 0.00555556

band     1 # energy   -3.80834886 # occ.  2.00000000
 
ion      s     py     pz     px    dxy    dyz    dz2    dxz  x2-y2    tot
    1  0.225  0.005  0.005  0.005  0.000  0.000  0.000  0.000  0.000  0.238
    2  0.225  0.005  0.005  0.005  0.000  0.000  0.000  0.000  0.000  0.238
tot    0.449  0.009  0.009  0.009  0.000  0.000  0.000  0.000  0.000  0.477
 
band     2 # energy   -1.11961456 # occ.  2.00000000
 
ion      s     py     pz     px    dxy    dyz    dz2    dxz  x2-y2    tot
    1  0.098  0.031  0.031  0.031  0.000  0.000  0.000  0.000  0.000  0.193
    2  0.098  0.031  0.031  0.031  0.000  0.000  0.000  0.000  0.000  0.193
tot    0.197  0.063  0.063  0.063  0.000  0.000  0.000  0.000  0.000  0.385
 
band     3 # energy    4.63562257 # occ.  2.00000000
 
ion      s     py     pz     px    dxy    dyz    dz2    dxz  x2-y2    tot
    1  0.000  0.117  0.100  0.001  0.000  0.000  0.000  0.000  0.000  0.218
    2  0.000  0.117  0.100  0.001  0.000  0.000  0.000  0.000  0.000  0.218
tot    0.000  0.234  0.200  0.002  0.000  0.000  0.000  0.000  0.000  0.437
 
band     4 # energy    4.63562258 # occ.  2.00000000
 
ion      s     py     pz     px    dxy    dyz    dz2    dxz  x2-y2    tot
    1  0.000  0.029  0.045  0.144  0.000  0.000  0.000  0.000  0.000  0.218
    2  0.000  0.029  0.045  0.144  0.000  0.000  0.000  0.000  0.000  0.218
tot    0.000  0.057  0.091  0.289  0.000  0.000  0.000  0.000  0.000  0.437
 
band     5 # energy    7.37517587 # occ.  0.00000000
 
ion      s     py     pz     px    dxy    dyz    dz2    dxz  x2-y2    tot
    1  0.186  0.006  0.006  0.006  0.000  0.000  0.000  0.000  0.000  0.205
    2  0.186  0.006  0.006  0.006  0.000  0.000  0.000  0.000  0.000  0.205
tot    0.372  0.013  0.013  0.013  0.000  0.000  0.000  0.000  0.000  0.410
 
band     6 # energy    9.17370126 # occ.  0.00000000
 
ion      s     py     pz     px    dxy    dyz    dz2    dxz  x2-y2    tot
    1  0.000  0.021  0.027  0.046  0.000  0.000  0.000  0.000  0.000  0.094
    2  0.000  0.021  0.027  0.046  0.000  0.000  0.000  0.000  0.000  0.094
tot    0.000  0.043  0.054  0.092  0.000  0.000  0.000  0.000  0.000  0.189
 
band     7 # energy    9.17370126 # occ.  0.00000000
 
ion      s     py     pz     px    dxy    dyz    dz2    dxz  x2-y2    tot
    1  0.000  0.042  0.036  0.017  0.000  0.000  0.000  0.000  0.000  0.094
    2  0.000  0.042  0.036  0.017  0.000  0.000  0.000  0.000  0.000  0.094
tot    0.000  0.083  0.072  0.033  0.000  0.000  0.000  0.000  0.000  0.189
 
band     8 # energy   13.56440337 # occ.  0.00000000
 
ion      s     py     pz     px    dxy    dyz    dz2    dxz  x2-y2    tot
    1  0.006  0.018  0.018  0.018  0.000  0.000  0.000  0.000  0.000  0.059
    2  0.006  0.018  0.018  0.018  0.000  0.000  0.000  0.000  0.000  0.059
tot    0.012  0.035  0.035  0.035  0.000  0.000  0.000  0.000  0.000  0.118
 
band     9 # energy   16.28634742 # occ.  0.00000000
 
ion      s     py     pz     px    dxy    dyz    dz2    dxz  x2-y2    tot
    1  0.000  0.008  0.002  0.002  0.000  0.000  0.000  0.000  0.000  0.012
    2  0.000  0.008  0.002  0.002  0.000  0.000  0.000  0.000  0.000  0.012
tot    0.000  0.016  0.003  0.005  0.000  0.000  0.000  0.000  0.000  0.024
 
band    10 # energy   17.16125235 # occ.  0.00000000
 
ion      s     py     pz     px    dxy    dyz    dz2    dxz  x2-y2    tot
    1  0.040  0.017  0.047  0.074  0.000  0.000  0.000  0.000  0.000  0.177
    2  0.034  0.025  0.047  0.083  0.000  0.000  0.000  0.000  0.000  0.189
tot    0.074  0.042  0.094  0.157  0.000  0.000  0.000  0.000  0.000  0.366
 
band    11 # energy   26.72548893 # occ.  0.00000000
 
ion      s     py     pz     px    dxy    dyz    dz2    dxz  x2-y2    tot
    1  0.023  0.004  0.002  0.001  0.000  0.000  0.000  0.000  0.000  0.030
    2  0.003  0.010  0.014  0.002  0.000  0.000  0.000  0.000  0.000  0.030
tot    0.026  0.014  0.016  0.004  0.000  0.000  0.000  0.000  0.000  0.060
 
band    12 # energy   27.44402265 # occ.  0.00000000
 
ion      s     py     pz     px    dxy    dyz    dz2    dxz  x2-y2    tot
    1  0.003  0.001  0.011  0.005  0.000  0.000  0.000  0.000  0.000  0.020
    2  0.005  0.002  0.006  0.000  0.000  0.000  0.000  0.000  0.000  0.013
tot    0.008  0.003  0.017  0.005  0.000  0.000  0.000  0.000  0.000  0.033
 

 k-point     3 :    0.47142857 0.47142857 0.47142857     weight = 0.00555556

band     1 # energy   -3.84266079 # occ.  2.00000000
 
ion      s     py     pz     px    dxy    dyz    dz2    dxz  x2-y2    tot
    1  0.224  0.005  0.005  0.005  0.000  0.000  0.000  0.000  0.000  0.238
    2  0.224  0.005  0.005  0.005  0.000  0.000  0.000  0.000  0.000  0.238
tot    0.447  0.009  0.009  0.009  0.000  0.000  0.000  0.000  0.000  0.475
 
band     2 # energy   -1.07018108 # occ.  2.00000000
 
ion      s     py     pz     px    dxy    dyz    dz2    dxz  x2-y2    tot
    1  0.099  0.031  0.031  0.031  0.000  0.000  0.000  0.000  0.000  0.194
    2  0.099  0.031  0.031  0.031  0.000  0.000  0.000  0.000  0.000  0.194
tot    0.199  0.063  0.063  0.063  0.000  0.000  0.000  0.000  0.000  0.387
 
band     3 # energy    4.64001305 # occ.  2.00000000
 
ion      s     py     pz     px    dxy    dyz    dz2    dxz  x2-y2    tot
    1  0.000  0.120  0.092  0.006  0.000  0.000  0.000  0.000  0.000  0.218
    2  0.000  0.120  0.092  0.006  0.000  0.000  0.000  0.000  0.000  0.218
tot    0.000  0.241  0.185  0.011  0.000  0.000  0.000  0.000  0.000  0.437
 
band     4 # energy    4.64001305 # occ.  2.00000000
 
ion      s     py     pz     px    dxy    dyz    dz2    dxz  x2-y2    tot
    1  0.000  0.025  0.053  0.140  0.000  0.000  0.000  0.000  0.000  0.218
    2  0.000  0.025  0.053  0.140  0.000  0.000  0.000  0.000  0.000  0.218
tot    0.000  0.050  0.106  0.280  0.000  0.000  0.000  0.000  0.000  0.437
 
band     5 # energy    7.38020403 # occ.  0.00000000
 
ion      s     py     pz     px    dxy    dyz    dz2    dxz  x2-y2    tot
    1  0.186  0.006  0.006  0.006  0.000  0.000  0.000  0.000  0.000  0.205
    2  0.186  0.006  0.006  0.006  0.000  0.000  0.000  0.000  0.000  0.205
tot    0.371  0.013  0.013  0.013  0.000  0.000  0.000  0.000  0.000  0.410
 
band     6 # energy    9.17874250 # occ.  0.00000000
 
ion      s     py     pz     px    dxy    dyz    dz2    dxz  x2-y2    tot
    1  0.000  0.033  0.012  0.050  0.000  0.000  0.000  0.000  0.000  0.095
    2  0.000  0.033  0.012  0.050  0.000  0.000  0.000  0.000  0.000  0.095
tot    0.000  0.065  0.024  0.101  0.000  0.000  0.000  0.000  0.000  0.190
 
band     7 # energy    9.17874250 # occ.  0.00000000
 
ion      s     py     pz     px    dxy    dyz    dz2    dxz  x2-y2    tot
    1  0.000  0.031  0.051  0.013  0.000  0.000  0.000  0.000  0.000  0.095
    2  0.000  0.031  0.051  0.013  0.000  0.000  0.000  0.000  0.000  0.095
tot    0.000  0.061  0.103  0.026  0.000  0.000  0.000  0.000  0.000  0.190
 
band     8 # energy   13.57224123 # occ.  0.00000000
 
ion      s     py     pz     px    dxy    dyz    dz2    dxz  x2-y2    tot
    1  0.006  0.018  0.018  0.018  0.000  0.000  0.000  0.000  0.000  0.059
    2  0.006  0.018  0.018  0.018  0.000  0.000  0.000  0.000  0.000  0.059
tot    0.011  0.036  0.036  0.036  0.000  0.000  0.000  0.000  0.000  0.119
 
band     9 # energy   16.07361957 # occ.  0.00000000
 
ion      s     py     pz     px    dxy    dyz    dz2    dxz  x2-y2    tot
    1  0.000  0.011  0.010  0.004  0.000  0.000  0.000  0.000  0.000  0.026
    2  0.000  0.011  0.010  0.004  0.000  0.000  0.000  0.000  0.000  0.026
tot    0.000  0.023  0.021  0.008  0.000  0.000  0.000  0.000  0.000  0.051
 
band    10 # energy   17.03955536 # occ.  0.00000000
 
ion      s     py     pz     px    dxy    dyz    dz2    dxz  x2-y2    tot
    1  0.023  0.109  0.029  0.010  0.000  0.000  0.000  0.000  0.000  0.172
    2  0.036  0.092  0.012  0.005  0.000  0.000  0.000  0.000  0.000  0.145
tot    0.060  0.200  0.041  0.016  0.000  0.000  0.000  0.000  0.000  0.316
 
band    11 # energy   17.38093400 # occ.  0.00000000
 
ion      s     py     pz     px    dxy    dyz    dz2    dxz  x2-y2    tot
    1  0.005  0.001  0.002  0.107  0.000  0.000  0.000  0.000  0.000  0.114
    2  0.012  0.003  0.004  0.084  0.000  0.000  0.000  0.000  0.000  0.102
tot    0.017  0.004  0.005  0.191  0.000  0.000  0.000  0.000  0.000  0.216
 
band    12 # energy   25.40929435 # occ.  0.00000000
 
ion      s     py     pz     px    dxy    dyz    dz2    dxz  x2-y2    tot
    1  0.024  0.000  0.002  0.019  0.000  0.000  0.000  0.000  0.000  0.046
    2  0.043  0.000  0.005  0.012  0.000  0.000  0.000  0.000  0.000  0.061
tot    0.067  0.001  0.007  0.032  0.000  0.000  0.000  0.000  0.000  0.107
 

 k-point     4 :    0.45714286 0.45714286 0.45714286     weight = 0.00555556

band     1 # energy   -3.89712206 # occ.  2.00000000
 
ion      s     py     pz     px    dxy    dyz    dz2    dxz  x2-y2    tot
    1  0.222  0.005  0.005  0.005  0.000  0.000  0.000  0.000  0.000  0.236
    2  0.222  0.005  0.005  0.005  0.000  0.000  0.000  0.000  0.000  0.236
tot    0.444  0.010  0.010  0.010  0.000  0.000  0.000  0.000  0.000  0.473
 
band     2 # energy   -0.99051088 # occ.  2.00000000
 
ion      s     py     pz     px    dxy    dyz    dz2    dxz  x2-y2    tot
    1  0.101  0.031  0.031  0.031  0.000  0.000  0.000  0.000  0.000  0.195
    2  0.101  0.031  0.031  0.031  0.000  0.000  0.000  0.000  0.000  0.195
tot    0.201  0.063  0.063  0.063  0.000  0.000  0.000  0.000  0.000  0.390
 
band     3 # energy    4.64731889 # occ.  2.00000000
 
ion      s     py     pz     px    dxy    dyz    dz2    dxz  x2-y2    tot
    1  0.000  0.043  0.123  0.053  0.000  0.000  0.000  0.000  0.000  0.218
    2  0.000  0.043  0.123  0.053  0.000  0.000  0.000  0.000  0.000  0.218
tot    0.000  0.086  0.245  0.105  0.000  0.000  0.000  0.000  0.000  0.436
 
band     4 # energy    4.64731889 # occ.  2.00000000
 
ion      s     py     pz     px    dxy    dyz    dz2    dxz  x2-y2    tot
    1  0.000  0.103  0.023  0.093  0.000  0.000  0.000  0.000  0.000  0.218
    2  0.000  0.103  0.023  0.093  0.000  0.000  0.000  0.000  0.000  0.218
tot    0.000  0.205  0.045  0.186  0.000  0.000  0.000  0.000  0.000  0.436
 
band     5 # energy    7.38860473 # occ.  0.00000000
 
ion      s     py     pz     px    dxy    dyz    dz2    dxz  x2-y2    tot
    1  0.185  0.007  0.007  0.007  0.000  0.000  0.000  0.000  0.000  0.205
    2  0.185  0.007  0.007  0.007  0.000  0.000  0.000  0.000  0.000  0.205
tot    0.370  0.013  0.013  0.013  0.000  0.000  0.000  0.000  0.000  0.410
 
band     6 # energy    9.18701339 # occ.  0.00000000
 
ion      s     py     pz     px    dxy    dyz    dz2    dxz  x2-y2    tot
    1  0.000  0.031  0.019  0.046  0.000  0.000  0.000  0.000  0.000  0.095
    2  0.000  0.031  0.019  0.046  0.000  0.000  0.000  0.000  0.000  0.095
tot    0.000  0.062  0.038  0.091  0.000  0.000  0.000  0.000  0.000  0.191
 
band     7 # energy    9.18701441 # occ.  0.00000000
 
ion      s     py     pz     px    dxy    dyz    dz2    dxz  x2-y2    tot
    1  0.000  0.033  0.045  0.018  0.000  0.000  0.000  0.000  0.000  0.095
    2  0.000  0.033  0.045  0.018  0.000  0.000  0.000  0.000  0.000  0.095
tot    0.000  0.066  0.089  0.036  0.000  0.000  0.000  0.000  0.000  0.191
 
band     8 # energy   13.58509705 # occ.  0.00000000
 
ion      s     py     pz     px    dxy    dyz    dz2    dxz  x2-y2    tot
    1  0.005  0.018  0.018  0.018  0.000  0.000  0.000  0.000  0.000  0.060
    2  0.005  0.018  0.018  0.018  0.000  0.000  0.000  0.000  0.000  0.060
tot    0.011  0.037  0.037  0.037  0.000  0.000  0.000  0.000  0.000  0.121
 
band     9 # energy   15.82583051 # occ.  0.00000000
 
ion      s     py     pz     px    dxy    dyz    dz2    dxz  x2-y2    tot
    1  0.000  0.008  0.008  0.018  0.000  0.000  0.000  0.000  0.000  0.034
    2  0.000  0.008  0.008  0.018  0.000  0.000  0.000  0.000  0.000  0.034
tot    0.000  0.016  0.015  0.036  0.000  0.000  0.000  0.000  0.000  0.067
 
band    10 # energy   15.82583157 # occ.  0.00000000
 
ion      s     py     pz     px    dxy    dyz    dz2    dxz  x2-y2    tot
    1  0.000  0.014  0.015  0.005  0.000  0.000  0.000  0.000  0.000  0.034
    2  0.000  0.014  0.015  0.005  0.000  0.000  0.000  0.000  0.000  0.034
tot    0.000  0.029  0.030  0.009  0.000  0.000  0.000  0.000  0.000  0.067
 
band    11 # energy   16.84923632 # occ.  0.00000000
 
ion      s     py     pz     px    dxy    dyz    dz2    dxz  x2-y2    tot
    1  0.057  0.051  0.052  0.047  0.000  0.000  0.000  0.000  0.000  0.207
    2  0.059  0.051  0.046  0.048  0.000  0.000  0.000  0.000  0.000  0.204
tot    0.116  0.102  0.098  0.095  0.000  0.000  0.000  0.000  0.000  0.411
 
band    12 # energy   18.69811147 # occ.  0.00000000
 
ion      s     py     pz     px    dxy    dyz    dz2    dxz  x2-y2    tot
    1  0.042  0.051  0.070  0.054  0.000  0.000  0.000  0.000  0.000  0.218
    2  0.041  0.115  0.018  0.032  0.000  0.000  0.000  0.000  0.000  0.206
tot    0.083  0.165  0.088  0.087  0.000  0.000  0.000  0.000  0.000  0.423
 

 k-point     5 :    0.44285714 0.44285714 0.44285714     weight = 0.00555556

band     1 # energy   -3.96838921 # occ.  2.00000000
 
ion      s     py     pz     px    dxy    dyz    dz2    dxz  x2-y2    tot
    1  0.220  0.005  0.005  0.005  0.000  0.000  0.000  0.000  0.000  0.235
    2  0.220  0.005  0.005  0.005  0.000  0.000  0.000  0.000  0.000  0.235
tot    0.440  0.010  0.010  0.010  0.000  0.000  0.000  0.000  0.000  0.470
 
band     2 # energy   -0.88396991 # occ.  2.00000000
 
ion      s     py     pz     px    dxy    dyz    dz2    dxz  x2-y2    tot
    1  0.102  0.031  0.031  0.031  0.000  0.000  0.000  0.000  0.000  0.197
    2  0.102  0.031  0.031  0.031  0.000  0.000  0.000  0.000  0.000  0.197
tot    0.204  0.063  0.063  0.063  0.000  0.000  0.000  0.000  0.000  0.393
 
band     3 # energy    4.65755434 # occ.  2.00000000
 
ion      s     py     pz     px    dxy    dyz    dz2    dxz  x2-y2    tot
    1  0.000  0.081  0.123  0.014  0.000  0.000  0.000  0.000  0.000  0.218
    2  0.000  0.081  0.123  0.014  0.000  0.000  0.000  0.000  0.000  0.218
tot    0.000  0.162  0.247  0.027  0.000  0.000  0.000  0.000  0.000  0.436
 
band     4 # energy    4.65755435 # occ.  2.00000000
 
ion      s     py     pz     px    dxy    dyz    dz2    dxz  x2-y2    tot
    1  0.000  0.064  0.022  0.132  0.000  0.000  0.000  0.000  0.000  0.218
    2  0.000  0.064  0.022  0.132  0.000  0.000  0.000  0.000  0.000  0.218
tot    0.000  0.129  0.044  0.264  0.000  0.000  0.000  0.000  0.000  0.436
 
band     5 # energy    7.40034622 # occ.  0.00000000
 
ion      s     py     pz     px    dxy    dyz    dz2    dxz  x2-y2    tot
    1  0.184  0.007  0.007  0.007  0.000  0.000  0.000  0.000  0.000  0.205
    2  0.184  0.007  0.007  0.007  0.000  0.000  0.000  0.000  0.000  0.205
tot    0.369  0.014  0.014  0.014  0.000  0.000  0.000  0.000  0.000  0.410
 
band     6 # energy    9.19834602 # occ.  0.00000000
 
ion      s     py     pz     px    dxy    dyz    dz2    dxz  x2-y2    tot
    1  0.000  0.058  0.035  0.003  0.000  0.000  0.000  0.000  0.000  0.096
    2  0.000  0.058  0.035  0.003  0.000  0.000  0.000  0.000  0.000  0.096
tot    0.000  0.117  0.070  0.006  0.000  0.000  0.000  0.000  0.000  0.193
 
band     7 # energy    9.19834620 # occ.  0.00000000
 
ion      s     py     pz     px    dxy    dyz    dz2    dxz  x2-y2    tot
    1  0.000  0.006  0.029  0.061  0.000  0.000  0.000  0.000  0.000  0.096
    2  0.000  0.006  0.029  0.061  0.000  0.000  0.000  0.000  0.000  0.096
tot    0.000  0.012  0.059  0.122  0.000  0.000  0.000  0.000  0.000  0.193
 
band     8 # energy   13.60256448 # occ.  0.00000000
 
ion      s     py     pz     px    dxy    dyz    dz2    dxz  x2-y2    tot
    1  0.005  0.019  0.019  0.019  0.000  0.000  0.000  0.000  0.000  0.062
    2  0.005  0.019  0.019  0.019  0.000  0.000  0.000  0.000  0.000  0.062
tot    0.010  0.038  0.038  0.038  0.000  0.000  0.000  0.000  0.000  0.124
 
band     9 # energy   15.56960714 # occ.  0.00000000
 
ion      s     py     pz     px    dxy    dyz    dz2    dxz  x2-y2    tot
    1  0.000  0.016  0.022  0.001  0.000  0.000  0.000  0.000  0.000  0.038
    2  0.000  0.016  0.022  0.001  0.000  0.000  0.000  0.000  0.000  0.038
tot    0.000  0.032  0.043  0.001  0.000  0.000  0.000  0.000  0.000  0.076
 
band    10 # energy   15.57376343 # occ.  0.00000000
 
ion      s     py     pz     px    dxy    dyz    dz2    dxz  x2-y2    tot
    1  0.000  0.008  0.002  0.029  0.000  0.000  0.000  0.000  0.000  0.039
    2  0.000  0.007  0.002  0.029  0.000  0.000  0.000  0.000  0.000  0.039
tot    0.001  0.015  0.005  0.057  0.000  0.000  0.000  0.000  0.000  0.077
 
band    11 # energy   18.14015288 # occ.  0.00000000
 
ion      s     py     pz     px    dxy    dyz    dz2    dxz  x2-y2    tot
    1  0.021  0.087  0.005  0.001  0.000  0.000  0.000  0.000  0.000  0.114
    2  0.017  0.010  0.058  0.042  0.000  0.000  0.000  0.000  0.000  0.127
tot    0.038  0.097  0.063  0.043  0.000  0.000  0.000  0.000  0.000  0.241
 
band    12 # energy   24.23493447 # occ.  0.00000000
 
ion      s     py     pz     px    dxy    dyz    dz2    dxz  x2-y2    tot
    1  0.044  0.004  0.013  0.005  0.000  0.000  0.000  0.000  0.000  0.065
    2  0.033  0.005  0.011  0.003  0.000  0.000  0.000  0.000  0.000  0.053
tot    0.077  0.009  0.024  0.008  0.000  0.000  0.000  0.000  0.000  0.118
 

 k-point     6 :    0.42857143 0.42857143 0.42857143     weight = 0.00555556

band     1 # energy   -4.05286072 # occ.  2.00000000
 
ion      s     py     pz     px    dxy    dyz    dz2    dxz  x2-y2    tot
    1  0.218  0.005  0.005  0.005  0.000  0.000  0.000  0.000  0.000  0.233
    2  0.218  0.005  0.005  0.005  0.000  0.000  0.000  0.000  0.000  0.233
tot    0.437  0.010  0.010  0.010  0.000  0.000  0.000  0.000  0.000  0.466
 
band     2 # energy   -0.75418555 # occ.  2.00000000
 
ion      s     py     pz     px    dxy    dyz    dz2    dxz  x2-y2    tot
    1  0.104  0.032  0.032  0.032  0.000  0.000  0.000  0.000  0.000  0.198
    2  0.104  0.032  0.032  0.032  0.000  0.000  0.000  0.000  0.000  0.198
tot    0.207  0.063  0.063  0.063  0.000  0.000  0.000  0.000  0.000  0.396
 
band     3 # energy    4.67071232 # occ.  2.00000000
 
ion      s     py     pz     px    dxy    dyz    dz2    dxz  x2-y2    tot
    1  0.000  0.036  0.133  0.048  0.000  0.000  0.000  0.000  0.000  0.218
    2  0.000  0.036  0.133  0.048  0.000  0.000  0.000  0.000  0.000  0.218
tot    0.000  0.073  0.267  0.096  0.000  0.000  0.000  0.000  0.000  0.436
 
band     4 # energy    4.67071233 # occ.  2.00000000
 
ion      s     py     pz     px    dxy    dyz    dz2    dxz  x2-y2    tot
    1  0.000  0.109  0.012  0.097  0.000  0.000  0.000  0.000  0.000  0.218
    2  0.000  0.109  0.012  0.097  0.000  0.000  0.000  0.000  0.000  0.218
tot    0.000  0.217  0.024  0.194  0.000  0.000  0.000  0.000  0.000  0.436
 
band     5 # energy    7.41545996 # occ.  0.00000000
 
ion      s     py     pz     px    dxy    dyz    dz2    dxz  x2-y2    tot
    1  0.184  0.007  0.007  0.007  0.000  0.000  0.000  0.000  0.000  0.205
    2  0.184  0.007  0.007  0.007  0.000  0.000  0.000  0.000  0.000  0.205
tot    0.367  0.014  0.014  0.014  0.000  0.000  0.000  0.000  0.000  0.410
 
band     6 # energy    9.21258672 # occ.  0.00000000
 
ion      s     py     pz     px    dxy    dyz    dz2    dxz  x2-y2    tot
    1  0.000  0.026  0.017  0.055  0.000  0.000  0.000  0.000  0.000  0.098
    2  0.000  0.026  0.017  0.055  0.000  0.000  0.000  0.000  0.000  0.098
tot    0.000  0.051  0.035  0.110  0.000  0.000  0.000  0.000  0.000  0.195
 
band     7 # energy    9.21258719 # occ.  0.00000000
 
ion      s     py     pz     px    dxy    dyz    dz2    dxz  x2-y2    tot
    1  0.000  0.040  0.048  0.010  0.000  0.000  0.000  0.000  0.000  0.098
    2  0.000  0.040  0.048  0.010  0.000  0.000  0.000  0.000  0.000  0.098
tot    0.000  0.079  0.096  0.020  0.000  0.000  0.000  0.000  0.000  0.195
 
band     8 # energy   13.62407210 # occ.  0.00000000
 
ion      s     py     pz     px    dxy    dyz    dz2    dxz  x2-y2    tot
    1  0.005  0.020  0.020  0.020  0.000  0.000  0.000  0.000  0.000  0.065
    2  0.005  0.020  0.020  0.020  0.000  0.000  0.000  0.000  0.000  0.065
tot    0.009  0.040  0.040  0.040  0.000  0.000  0.000  0.000  0.000  0.129
 
band     9 # energy   15.31419558 # occ.  0.00000000
 
ion      s     py     pz     px    dxy    dyz    dz2    dxz  x2-y2    tot
    1  0.000  0.018  0.006  0.016  0.000  0.000  0.000  0.000  0.000  0.040
    2  0.000  0.018  0.006  0.016  0.000  0.000  0.000  0.000  0.000  0.040
tot    0.000  0.037  0.013  0.031  0.000  0.000  0.000  0.000  0.000  0.081
 
band    10 # energy   15.31439817 # occ.  0.00000000
 
ion      s     py     pz     px    dxy    dyz    dz2    dxz  x2-y2    tot
    1  0.000  0.008  0.021  0.011  0.000  0.000  0.000  0.000  0.000  0.040
    2  0.000  0.009  0.021  0.011  0.000  0.000  0.000  0.000  0.000  0.040
tot    0.000  0.017  0.041  0.023  0.000  0.000  0.000  0.000  0.000  0.081
 
band    11 # energy   16.43335811 # occ.  0.00000000
 
ion      s     py     pz     px    dxy    dyz    dz2    dxz  x2-y2    tot
    1  0.073  0.037  0.049  0.050  0.000  0.000  0.000  0.000  0.000  0.209
    2  0.072  0.040  0.046  0.052  0.000  0.000  0.000  0.000  0.000  0.211
tot    0.145  0.078  0.094  0.103  0.000  0.000  0.000  0.000  0.000  0.420
 
band    12 # energy   29.40690516 # occ.  0.00000000
 
ion      s     py     pz     px    dxy    dyz    dz2    dxz  x2-y2    tot
    1  0.015  0.013  0.012  0.006  0.000  0.000  0.000  0.000  0.000  0.047
    2  0.002  0.002  0.039  0.004  0.000  0.000  0.000  0.000  0.000  0.048
tot    0.016  0.016  0.052  0.011  0.000  0.000  0.000  0.000  0.000  0.094
 

 k-point     7 :    0.41428571 0.41428571 0.41428571     weight = 0.00555556

band     1 # energy   -4.14714487 # occ.  2.00000000
 
ion      s     py     pz     px    dxy    dyz    dz2    dxz  x2-y2    tot
    1  0.217  0.005  0.005  0.005  0.000  0.000  0.000  0.000  0.000  0.231
    2  0.217  0.005  0.005  0.005  0.000  0.000  0.000  0.000  0.000  0.231
tot    0.433  0.010  0.010  0.010  0.000  0.000  0.000  0.000  0.000  0.463
 
band     2 # energy   -0.60458805 # occ.  2.00000000
 
ion      s     py     pz     px    dxy    dyz    dz2    dxz  x2-y2    tot
    1  0.105  0.032  0.032  0.032  0.000  0.000  0.000  0.000  0.000  0.200
    2  0.105  0.032  0.032  0.032  0.000  0.000  0.000  0.000  0.000  0.200
tot    0.209  0.064  0.064  0.064  0.000  0.000  0.000  0.000  0.000  0.400
 
band     3 # energy    4.68678282 # occ.  2.00000000
 
ion      s     py     pz     px    dxy    dyz    dz2    dxz  x2-y2    tot
    1  0.000  0.096  0.108  0.014  0.000  0.000  0.000  0.000  0.000  0.218
    2  0.000  0.096  0.108  0.014  0.000  0.000  0.000  0.000  0.000  0.218
tot    0.000  0.191  0.217  0.027  0.000  0.000  0.000  0.000  0.000  0.435
 
band     4 # energy    4.68678289 # occ.  2.00000000
 
ion      s     py     pz     px    dxy    dyz    dz2    dxz  x2-y2    tot
    1  0.000  0.049  0.037  0.131  0.000  0.000  0.000  0.000  0.000  0.218
    2  0.000  0.049  0.037  0.131  0.000  0.000  0.000  0.000  0.000  0.218
tot    0.000  0.099  0.073  0.263  0.000  0.000  0.000  0.000  0.000  0.435
 
band     5 # energy    7.43387941 # occ.  0.00000000
 
ion      s     py     pz     px    dxy    dyz    dz2    dxz  x2-y2    tot
    1  0.182  0.007  0.007  0.007  0.000  0.000  0.000  0.000  0.000  0.205
    2  0.182  0.007  0.007  0.007  0.000  0.000  0.000  0.000  0.000  0.205
tot    0.365  0.015  0.015  0.015  0.000  0.000  0.000  0.000  0.000  0.410
 
band     6 # energy    9.22923686 # occ.  0.00000000
 
ion      s     py     pz     px    dxy    dyz    dz2    dxz  x2-y2    tot
    1  0.000  0.003  0.050  0.046  0.000  0.000  0.000  0.000  0.000  0.099
    2  0.000  0.003  0.050  0.046  0.000  0.000  0.000  0.000  0.000  0.099
tot    0.000  0.007  0.100  0.092  0.000  0.000  0.000  0.000  0.000  0.199
 
band     7 # energy    9.22923687 # occ.  0.00000000
 
ion      s     py     pz     px    dxy    dyz    dz2    dxz  x2-y2    tot
    1  0.000  0.063  0.016  0.020  0.000  0.000  0.000  0.000  0.000  0.099
    2  0.000  0.063  0.016  0.020  0.000  0.000  0.000  0.000  0.000  0.099
tot    0.000  0.126  0.032  0.040  0.000  0.000  0.000  0.000  0.000  0.199
 
band     8 # energy   13.64871289 # occ.  0.00000000
 
ion      s     py     pz     px    dxy    dyz    dz2    dxz  x2-y2    tot
    1  0.004  0.021  0.021  0.021  0.000  0.000  0.000  0.000  0.000  0.068
    2  0.004  0.021  0.021  0.021  0.000  0.000  0.000  0.000  0.000  0.068
tot    0.009  0.042  0.042  0.042  0.000  0.000  0.000  0.000  0.000  0.136
 
band     9 # energy   15.06348815 # occ.  0.00000000
 
ion      s     py     pz     px    dxy    dyz    dz2    dxz  x2-y2    tot
    1  0.000  0.018  0.020  0.004  0.000  0.000  0.000  0.000  0.000  0.042
    2  0.000  0.018  0.020  0.004  0.000  0.000  0.000  0.000  0.000  0.042
tot    0.000  0.035  0.040  0.008  0.000  0.000  0.000  0.000  0.000  0.083
 
band    10 # energy   16.03952827 # occ.  0.00000000
 
ion      s     py     pz     px    dxy    dyz    dz2    dxz  x2-y2    tot
    1  0.072  0.033  0.026  0.064  0.000  0.000  0.000  0.000  0.000  0.195
    2  0.073  0.023  0.042  0.053  0.000  0.000  0.000  0.000  0.000  0.191
tot    0.145  0.056  0.068  0.118  0.000  0.000  0.000  0.000  0.000  0.386
 
band    11 # energy   19.08286853 # occ.  0.00000000
 
ion      s     py     pz     px    dxy    dyz    dz2    dxz  x2-y2    tot
    1  0.013  0.019  0.024  0.089  0.000  0.000  0.000  0.000  0.000  0.145
    2  0.012  0.089  0.040  0.002  0.000  0.000  0.000  0.000  0.000  0.143
tot    0.025  0.108  0.064  0.091  0.000  0.000  0.000  0.000  0.000  0.288
 
band    12 # energy   23.31441594 # occ.  0.00000000
 
ion      s     py     pz     px    dxy    dyz    dz2    dxz  x2-y2    tot
    1  0.038  0.005  0.015  0.007  0.000  0.000  0.000  0.000  0.000  0.065
    2  0.040  0.000  0.012  0.010  0.000  0.000  0.000  0.000  0.000  0.063
tot    0.078  0.005  0.027  0.018  0.000  0.000  0.000  0.000  0.000  0.128
 

 k-point     8 :    0.40000000 0.40000000 0.40000000     weight = 0.00555556

band     1 # energy   -4.24829980 # occ.  2.00000000
 
ion      s     py     pz     px    dxy    dyz    dz2    dxz  x2-y2    tot
    1  0.215  0.005  0.005  0.005  0.000  0.000  0.000  0.000  0.000  0.230
    2  0.215  0.005  0.005  0.005  0.000  0.000  0.000  0.000  0.000  0.230
tot    0.430  0.010  0.010  0.010  0.000  0.000  0.000  0.000  0.000  0.460
 
band     2 # energy   -0.43817271 # occ.  2.00000000
 
ion      s     py     pz     px    dxy    dyz    dz2    dxz  x2-y2    tot
    1  0.106  0.032  0.032  0.032  0.000  0.000  0.000  0.000  0.000  0.202
    2  0.106  0.032  0.032  0.032  0.000  0.000  0.000  0.000  0.000  0.202
tot    0.211  0.064  0.064  0.064  0.000  0.000  0.000  0.000  0.000  0.404
 
band     3 # energy    4.70575708 # occ.  2.00000000
 
ion      s     py     pz     px    dxy    dyz    dz2    dxz  x2-y2    tot
    1  0.000  0.144  0.039  0.034  0.000  0.000  0.000  0.000  0.000  0.217
    2  0.000  0.144  0.039  0.034  0.000  0.000  0.000  0.000  0.000  0.217
tot    0.000  0.289  0.078  0.068  0.000  0.000  0.000  0.000  0.000  0.435
 
band     4 # energy    4.70575718 # occ.  2.00000000
 
ion      s     py     pz     px    dxy    dyz    dz2    dxz  x2-y2    tot
    1  0.000  0.000  0.106  0.111  0.000  0.000  0.000  0.000  0.000  0.217
    2  0.000  0.000  0.106  0.111  0.000  0.000  0.000  0.000  0.000  0.217
tot    0.000  0.001  0.212  0.222  0.000  0.000  0.000  0.000  0.000  0.435
 
band     5 # energy    7.45559190 # occ.  0.00000000
 
ion      s     py     pz     px    dxy    dyz    dz2    dxz  x2-y2    tot
    1  0.181  0.008  0.008  0.008  0.000  0.000  0.000  0.000  0.000  0.205
    2  0.181  0.008  0.008  0.008  0.000  0.000  0.000  0.000  0.000  0.205
tot    0.362  0.016  0.016  0.016  0.000  0.000  0.000  0.000  0.000  0.410
 
band     6 # energy    9.24781838 # occ.  0.00000000
 
ion      s     py     pz     px    dxy    dyz    dz2    dxz  x2-y2    tot
    1  0.000  0.006  0.059  0.036  0.000  0.000  0.000  0.000  0.000  0.101
    2  0.000  0.006  0.059  0.036  0.000  0.000  0.000  0.000  0.000  0.101
tot    0.000  0.012  0.119  0.071  0.000  0.000  0.000  0.000  0.000  0.202
 
band     7 # energy    9.24781839 # occ.  0.00000000
 
ion      s     py     pz     px    dxy    dyz    dz2    dxz  x2-y2    tot
    1  0.000  0.061  0.008  0.032  0.000  0.000  0.000  0.000  0.000  0.101
    2  0.000  0.061  0.008  0.032  0.000  0.000  0.000  0.000  0.000  0.101
tot    0.000  0.123  0.016  0.064  0.000  0.000  0.000  0.000  0.000  0.202
 
band     8 # energy   13.67494622 # occ.  0.00000000
 
ion      s     py     pz     px    dxy    dyz    dz2    dxz  x2-y2    tot
    1  0.004  0.023  0.023  0.023  0.000  0.000  0.000  0.000  0.000  0.073
    2  0.004  0.023  0.023  0.023  0.000  0.000  0.000  0.000  0.000  0.073
tot    0.008  0.046  0.046  0.046  0.000  0.000  0.000  0.000  0.000  0.145
 
band     9 # energy   14.81996104 # occ.  0.00000000
 
ion      s     py     pz     px    dxy    dyz    dz2    dxz  x2-y2    tot
    1  0.000  0.020  0.006  0.016  0.000  0.000  0.000  0.000  0.000  0.042
    2  0.000  0.020  0.006  0.016  0.000  0.000  0.000  0.000  0.000  0.042
tot    0.000  0.040  0.012  0.032  0.000  0.000  0.000  0.000  0.000  0.084
 
band    10 # energy   15.61259797 # occ.  0.00000000
 
ion      s     py     pz     px    dxy    dyz    dz2    dxz  x2-y2    tot
    1  0.063  0.017  0.062  0.019  0.000  0.000  0.000  0.000  0.000  0.161
    2  0.062  0.033  0.059  0.011  0.000  0.000  0.000  0.000  0.000  0.165
tot    0.124  0.050  0.122  0.030  0.000  0.000  0.000  0.000  0.000  0.326
 
band    11 # energy   22.83897895 # occ.  0.00000000
 
ion      s     py     pz     px    dxy    dyz    dz2    dxz  x2-y2    tot
    1  0.052  0.007  0.001  0.004  0.000  0.000  0.000  0.000  0.000  0.064
    2  0.047  0.004  0.003  0.006  0.000  0.000  0.000  0.000  0.000  0.059
tot    0.099  0.010  0.004  0.010  0.000  0.000  0.000  0.000  0.000  0.123
 
band    12 # energy   29.43631332 # occ.  0.00000000
 
ion      s     py     pz     px    dxy    dyz    dz2    dxz  x2-y2    tot
    1  0.008  0.011  0.025  0.009  0.000  0.000  0.000  0.000  0.000  0.053
    2  0.001  0.014  0.017  0.003  0.000  0.000  0.000  0.000  0.000  0.034
tot    0.009  0.025  0.042  0.012  0.000  0.000  0.000  0.000  0.000  0.087
 

 k-point     9 :    0.38571429 0.38571429 0.38571429     weight = 0.00555556

band     1 # energy   -4.35390627 # occ.  2.00000000
 
ion      s     py     pz     px    dxy    dyz    dz2    dxz  x2-y2    tot
    1  0.214  0.005  0.005  0.005  0.000  0.000  0.000  0.000  0.000  0.228
    2  0.214  0.005  0.005  0.005  0.000  0.000  0.000  0.000  0.000  0.228
tot    0.427  0.010  0.010  0.010  0.000  0.000  0.000  0.000  0.000  0.457
 
band     2 # energy   -0.25743004 # occ.  2.00000000
 
ion      s     py     pz     px    dxy    dyz    dz2    dxz  x2-y2    tot
    1  0.106  0.032  0.032  0.032  0.000  0.000  0.000  0.000  0.000  0.203
    2  0.106  0.032  0.032  0.032  0.000  0.000  0.000  0.000  0.000  0.203
tot    0.212  0.065  0.065  0.065  0.000  0.000  0.000  0.000  0.000  0.407
 
band     3 # energy    4.72762164 # occ.  2.00000000
 
ion      s     py     pz     px    dxy    dyz    dz2    dxz  x2-y2    tot
    1  0.000  0.123  0.020  0.073  0.000  0.000  0.000  0.000  0.000  0.217
    2  0.000  0.123  0.020  0.073  0.000  0.000  0.000  0.000  0.000  0.217
tot    0.000  0.247  0.040  0.147  0.000  0.000  0.000  0.000  0.000  0.434
 
band     4 # energy    4.72762167 # occ.  2.00000000
 
ion      s     py     pz     px    dxy    dyz    dz2    dxz  x2-y2    tot
    1  0.000  0.021  0.125  0.071  0.000  0.000  0.000  0.000  0.000  0.217
    2  0.000  0.021  0.125  0.071  0.000  0.000  0.000  0.000  0.000  0.217
tot    0.000  0.043  0.249  0.142  0.000  0.000  0.000  0.000  0.000  0.434
 
band     5 # energy    7.48055286 # occ.  0.00000000
 
ion      s     py     pz     px    dxy    dyz    dz2    dxz  x2-y2    tot
    1  0.180  0.008  0.008  0.008  0.000  0.000  0.000  0.000  0.000  0.205
    2  0.180  0.008  0.008  0.008  0.000  0.000  0.000  0.000  0.000  0.205
tot    0.359  0.017  0.017  0.017  0.000  0.000  0.000  0.000  0.000  0.409
 
band     6 # energy    9.26773792 # occ.  0.00000000
 
ion      s     py     pz     px    dxy    dyz    dz2    dxz  x2-y2    tot
    1  0.000  0.023  0.013  0.068  0.000  0.000  0.000  0.000  0.000  0.103
    2  0.000  0.023  0.013  0.068  0.000  0.000  0.000  0.000  0.000  0.103
tot    0.000  0.045  0.025  0.136  0.000  0.000  0.000  0.000  0.000  0.207
 
band     7 # energy    9.26773792 # occ.  0.00000000
 
ion      s     py     pz     px    dxy    dyz    dz2    dxz  x2-y2    tot
    1  0.000  0.046  0.056  0.001  0.000  0.000  0.000  0.000  0.000  0.103
    2  0.000  0.046  0.056  0.001  0.000  0.000  0.000  0.000  0.000  0.103
tot    0.000  0.093  0.113  0.002  0.000  0.000  0.000  0.000  0.000  0.207
 
band     8 # energy   13.70068542 # occ.  0.00000000
 
ion      s     py     pz     px    dxy    dyz    dz2    dxz  x2-y2    tot
    1  0.004  0.025  0.025  0.025  0.000  0.000  0.000  0.000  0.000  0.079
    2  0.004  0.026  0.025  0.024  0.000  0.000  0.000  0.000  0.000  0.079
tot    0.007  0.050  0.050  0.050  0.000  0.000  0.000  0.000  0.000  0.158
 
band     9 # energy   14.58506776 # occ.  0.00000000
 
ion      s     py     pz     px    dxy    dyz    dz2    dxz  x2-y2    tot
    1  0.000  0.009  0.027  0.006  0.000  0.000  0.000  0.000  0.000  0.041
    2  0.000  0.009  0.027  0.006  0.000  0.000  0.000  0.000  0.000  0.041
tot    0.000  0.017  0.055  0.011  0.000  0.000  0.000  0.000  0.000  0.083
 
band    10 # energy   15.62889727 # occ.  0.00000000
 
ion      s     py     pz     px    dxy    dyz    dz2    dxz  x2-y2    tot
    1  0.091  0.049  0.035  0.021  0.000  0.000  0.000  0.000  0.000  0.196
    2  0.090  0.047  0.038  0.030  0.000  0.000  0.000  0.000  0.000  0.204
tot    0.181  0.096  0.073  0.051  0.000  0.000  0.000  0.000  0.000  0.400
 
band    11 # energy   22.20585022 # occ.  0.00000000
 
ion      s     py     pz     px    dxy    dyz    dz2    dxz  x2-y2    tot
    1  0.079  0.012  0.018  0.011  0.000  0.000  0.000  0.000  0.000  0.120
    2  0.044  0.017  0.010  0.016  0.000  0.000  0.000  0.000  0.000  0.087
tot    0.123  0.029  0.028  0.027  0.000  0.000  0.000  0.000  0.000  0.207
 
band    12 # energy   24.67758299 # occ.  0.00000000
 
ion      s     py     pz     px    dxy    dyz    dz2    dxz  x2-y2    tot
    1  0.000  0.011  0.009  0.008  0.000  0.000  0.000  0.000  0.000  0.027
    2  0.001  0.012  0.008  0.005  0.000  0.000  0.000  0.000  0.000  0.027
tot    0.001  0.023  0.017  0.013  0.000  0.000  0.000  0.000  0.000  0.054
 

 k-point    10 :    0.37142857 0.37142857 0.37142857     weight = 0.00555556

band     1 # energy   -4.46200535 # occ.  2.00000000
 
ion      s     py     pz     px    dxy    dyz    dz2    dxz  x2-y2    tot
    1  0.213  0.005  0.005  0.005  0.000  0.000  0.000  0.000  0.000  0.227
    2  0.213  0.005  0.005  0.005  0.000  0.000  0.000  0.000  0.000  0.227
tot    0.425  0.009  0.009  0.009  0.000  0.000  0.000  0.000  0.000  0.454
 
band     2 # energy   -0.06437121 # occ.  2.00000000
 
ion      s     py     pz     px    dxy    dyz    dz2    dxz  x2-y2    tot
    1  0.106  0.033  0.033  0.033  0.000  0.000  0.000  0.000  0.000  0.205
    2  0.106  0.033  0.033  0.033  0.000  0.000  0.000  0.000  0.000  0.205
tot    0.212  0.066  0.066  0.066  0.000  0.000  0.000  0.000  0.000  0.410
 
band     3 # energy    4.75234586 # occ.  2.00000000
 
ion      s     py     pz     px    dxy    dyz    dz2    dxz  x2-y2    tot
    1  0.000  0.081  0.122  0.014  0.000  0.000  0.000  0.000  0.000  0.217
    2  0.000  0.081  0.122  0.014  0.000  0.000  0.000  0.000  0.000  0.217
tot    0.000  0.162  0.244  0.027  0.000  0.000  0.000  0.000  0.000  0.434
 
band     4 # energy    4.75234588 # occ.  2.00000000
 
ion      s     py     pz     px    dxy    dyz    dz2    dxz  x2-y2    tot
    1  0.000  0.064  0.022  0.131  0.000  0.000  0.000  0.000  0.000  0.217
    2  0.000  0.064  0.022  0.131  0.000  0.000  0.000  0.000  0.000  0.217
tot    0.000  0.127  0.045  0.262  0.000  0.000  0.000  0.000  0.000  0.434
 
band     5 # energy    7.50871458 # occ.  0.00000000
 
ion      s     py     pz     px    dxy    dyz    dz2    dxz  x2-y2    tot
    1  0.178  0.009  0.009  0.009  0.000  0.000  0.000  0.000  0.000  0.205
    2  0.178  0.009  0.009  0.009  0.000  0.000  0.000  0.000  0.000  0.205
tot    0.356  0.018  0.018  0.018  0.000  0.000  0.000  0.000  0.000  0.409
 
band     6 # energy    9.28827311 # occ.  0.00000000
 
ion      s     py     pz     px    dxy    dyz    dz2    dxz  x2-y2    tot
    1  0.000  0.003  0.057  0.046  0.000  0.000  0.000  0.000  0.000  0.106
    2  0.000  0.003  0.057  0.046  0.000  0.000  0.000  0.000  0.000  0.106
tot    0.000  0.007  0.114  0.092  0.000  0.000  0.000  0.000  0.000  0.212
 
band     7 # energy    9.28827339 # occ.  0.00000000
 
ion      s     py     pz     px    dxy    dyz    dz2    dxz  x2-y2    tot
    1  0.000  0.067  0.014  0.025  0.000  0.000  0.000  0.000  0.000  0.106
    2  0.000  0.067  0.014  0.025  0.000  0.000  0.000  0.000  0.000  0.106
tot    0.000  0.135  0.028  0.050  0.000  0.000  0.000  0.000  0.000  0.212
 
band     8 # energy   13.72186728 # occ.  0.00000000
 
ion      s     py     pz     px    dxy    dyz    dz2    dxz  x2-y2    tot
    1  0.004  0.028  0.028  0.028  0.000  0.000  0.000  0.000  0.000  0.089
    2  0.004  0.028  0.028  0.028  0.000  0.000  0.000  0.000  0.000  0.089
tot    0.008  0.056  0.056  0.056  0.000  0.000  0.000  0.000  0.000  0.177
 
band     9 # energy   14.35998012 # occ.  0.00000000
 
ion      s     py     pz     px    dxy    dyz    dz2    dxz  x2-y2    tot
    1  0.000  0.014  0.025  0.001  0.000  0.000  0.000  0.000  0.000  0.040
    2  0.000  0.014  0.025  0.001  0.000  0.000  0.000  0.000  0.000  0.040
tot    0.000  0.029  0.049  0.003  0.000  0.000  0.000  0.000  0.000  0.081
 
band    10 # energy   14.35998012 # occ.  0.00000000
 
ion      s     py     pz     px    dxy    dyz    dz2    dxz  x2-y2    tot
    1  0.000  0.012  0.002  0.026  0.000  0.000  0.000  0.000  0.000  0.040
    2  0.000  0.012  0.002  0.026  0.000  0.000  0.000  0.000  0.000  0.040
tot    0.000  0.025  0.005  0.051  0.000  0.000  0.000  0.000  0.000  0.081
 
band    11 # energy   15.47206197 # occ.  0.00000000
 
ion      s     py     pz     px    dxy    dyz    dz2    dxz  x2-y2    tot
    1  0.104  0.034  0.034  0.034  0.000  0.000  0.000  0.000  0.000  0.207
    2  0.104  0.034  0.034  0.034  0.000  0.000  0.000  0.000  0.000  0.207
tot    0.208  0.069  0.069  0.069  0.000  0.000  0.000  0.000  0.000  0.415
 
band    12 # energy   23.95927172 # occ.  0.00000000
 
ion      s     py     pz     px    dxy    dyz    dz2    dxz  x2-y2    tot
    1  0.015  0.004  0.006  0.005  0.000  0.000  0.000  0.000  0.000  0.030
    2  0.008  0.006  0.004  0.029  0.000  0.000  0.000  0.000  0.000  0.048
tot    0.023  0.010  0.010  0.035  0.000  0.000  0.000  0.000  0.000  0.078
 

 k-point    11 :    0.35714286 0.35714286 0.35714286     weight = 0.00555556

band     1 # energy   -4.57103590 # occ.  2.00000000
 
ion      s     py     pz     px    dxy    dyz    dz2    dxz  x2-y2    tot
    1  0.212  0.005  0.005  0.005  0.000  0.000  0.000  0.000  0.000  0.226
    2  0.212  0.005  0.005  0.005  0.000  0.000  0.000  0.000  0.000  0.226
tot    0.424  0.009  0.009  0.009  0.000  0.000  0.000  0.000  0.000  0.451
 
band     2 # energy    0.13937889 # occ.  2.00000000
 
ion      s     py     pz     px    dxy    dyz    dz2    dxz  x2-y2    tot
    1  0.106  0.034  0.034  0.034  0.000  0.000  0.000  0.000  0.000  0.206
    2  0.106  0.034  0.034  0.034  0.000  0.000  0.000  0.000  0.000  0.206
tot    0.212  0.067  0.067  0.067  0.000  0.000  0.000  0.000  0.000  0.413
 
band     3 # energy    4.77993084 # occ.  2.00000000
 
ion      s     py     pz     px    dxy    dyz    dz2    dxz  x2-y2    tot
    1  0.000  0.015  0.138  0.064  0.000  0.000  0.000  0.000  0.000  0.216
    2  0.000  0.015  0.138  0.064  0.000  0.000  0.000  0.000  0.000  0.216
tot    0.000  0.030  0.275  0.127  0.000  0.000  0.000  0.000  0.000  0.433
 
band     4 # energy    4.77993096 # occ.  2.00000000
 
ion      s     py     pz     px    dxy    dyz    dz2    dxz  x2-y2    tot
    1  0.000  0.129  0.007  0.081  0.000  0.000  0.000  0.000  0.000  0.216
    2  0.000  0.129  0.007  0.081  0.000  0.000  0.000  0.000  0.000  0.216
tot    0.000  0.258  0.013  0.161  0.000  0.000  0.000  0.000  0.000  0.433
 
band     5 # energy    7.53992657 # occ.  0.00000000
 
ion      s     py     pz     px    dxy    dyz    dz2    dxz  x2-y2    tot
    1  0.176  0.009  0.009  0.009  0.000  0.000  0.000  0.000  0.000  0.204
    2  0.176  0.009  0.009  0.009  0.000  0.000  0.000  0.000  0.000  0.204
tot    0.352  0.019  0.019  0.019  0.000  0.000  0.000  0.000  0.000  0.409
 
band     6 # energy    9.30859911 # occ.  0.00000000
 
ion      s     py     pz     px    dxy    dyz    dz2    dxz  x2-y2    tot
    1  0.000  0.042  0.028  0.039  0.000  0.000  0.000  0.000  0.000  0.109
    2  0.000  0.042  0.028  0.039  0.000  0.000  0.000  0.000  0.000  0.109
tot    0.000  0.084  0.055  0.078  0.000  0.000  0.000  0.000  0.000  0.218
 
band     7 # energy    9.30859912 # occ.  0.00000000
 
ion      s     py     pz     px    dxy    dyz    dz2    dxz  x2-y2    tot
    1  0.000  0.030  0.045  0.034  0.000  0.000  0.000  0.000  0.000  0.109
    2  0.000  0.030  0.045  0.034  0.000  0.000  0.000  0.000  0.000  0.109
tot    0.000  0.061  0.090  0.067  0.000  0.000  0.000  0.000  0.000  0.218
 
band     8 # energy   13.73793866 # occ.  0.00000000
 
ion      s     py     pz     px    dxy    dyz    dz2    dxz  x2-y2    tot
    1  0.006  0.036  0.028  0.033  0.000  0.000  0.000  0.000  0.000  0.103
    2  0.006  0.028  0.038  0.030  0.000  0.000  0.000  0.000  0.000  0.102
tot    0.012  0.064  0.066  0.063  0.000  0.000  0.000  0.000  0.000  0.204
 
band     9 # energy   14.14614064 # occ.  0.00000000
 
ion      s     py     pz     px    dxy    dyz    dz2    dxz  x2-y2    tot
    1  0.000  0.015  0.002  0.021  0.000  0.000  0.000  0.000  0.000  0.039
    2  0.000  0.015  0.002  0.021  0.000  0.000  0.000  0.000  0.000  0.039
tot    0.000  0.031  0.004  0.043  0.000  0.000  0.000  0.000  0.000  0.078
 
band    10 # energy   15.21412041 # occ.  0.00000000
 
ion      s     py     pz     px    dxy    dyz    dz2    dxz  x2-y2    tot
    1  0.103  0.023  0.039  0.028  0.000  0.000  0.000  0.000  0.000  0.193
    2  0.102  0.027  0.028  0.032  0.000  0.000  0.000  0.000  0.000  0.189
tot    0.205  0.050  0.067  0.060  0.000  0.000  0.000  0.000  0.000  0.381
 
band    11 # energy   19.97931649 # occ.  0.00000000
 
ion      s     py     pz     px    dxy    dyz    dz2    dxz  x2-y2    tot
    1  0.002  0.012  0.052  0.024  0.000  0.000  0.000  0.000  0.000  0.091
    2  0.003  0.049  0.020  0.015  0.000  0.000  0.000  0.000  0.000  0.087
tot    0.006  0.062  0.072  0.038  0.000  0.000  0.000  0.000  0.000  0.177
 
band    12 # energy   20.04308446 # occ.  0.00000000
 
ion      s     py     pz     px    dxy    dyz    dz2    dxz  x2-y2    tot
    1  0.001  0.059  0.015  0.005  0.000  0.000  0.000  0.000  0.000  0.081
    2  0.003  0.016  0.052  0.006  0.000  0.000  0.000  0.000  0.000  0.077
tot    0.004  0.075  0.068  0.011  0.000  0.000  0.000  0.000  0.000  0.158
 

 k-point    12 :    0.34285714 0.34285714 0.34285714     weight = 0.00555556

band     1 # energy   -4.67977807 # occ.  2.00000000
 
ion      s     py     pz     px    dxy    dyz    dz2    dxz  x2-y2    tot
    1  0.211  0.004  0.004  0.004  0.000  0.000  0.000  0.000  0.000  0.224
    2  0.211  0.004  0.004  0.004  0.000  0.000  0.000  0.000  0.000  0.224
tot    0.422  0.009  0.009  0.009  0.000  0.000  0.000  0.000  0.000  0.449
 
band     2 # energy    0.35251107 # occ.  2.00000000
 
ion      s     py     pz     px    dxy    dyz    dz2    dxz  x2-y2    tot
    1  0.105  0.034  0.034  0.034  0.000  0.000  0.000  0.000  0.000  0.208
    2  0.105  0.034  0.034  0.034  0.000  0.000  0.000  0.000  0.000  0.208
tot    0.211  0.068  0.068  0.068  0.000  0.000  0.000  0.000  0.000  0.416
 
band     3 # energy    4.81034180 # occ.  2.00000000
 
ion      s     py     pz     px    dxy    dyz    dz2    dxz  x2-y2    tot
    1  0.000  0.018  0.126  0.071  0.000  0.000  0.000  0.000  0.000  0.216
    2  0.000  0.018  0.126  0.071  0.000  0.000  0.000  0.000  0.000  0.216
tot    0.000  0.037  0.253  0.143  0.000  0.000  0.000  0.000  0.000  0.432
 
band     4 # energy    4.81034180 # occ.  2.00000000
 
ion      s     py     pz     px    dxy    dyz    dz2    dxz  x2-y2    tot
    1  0.000  0.126  0.018  0.073  0.000  0.000  0.000  0.000  0.000  0.216
    2  0.000  0.126  0.018  0.073  0.000  0.000  0.000  0.000  0.000  0.216
tot    0.000  0.251  0.035  0.145  0.000  0.000  0.000  0.000  0.000  0.432
 
band     5 # energy    7.57430834 # occ.  0.00000000
 
ion      s     py     pz     px    dxy    dyz    dz2    dxz  x2-y2    tot
    1  0.174  0.010  0.010  0.010  0.000  0.000  0.000  0.000  0.000  0.204
    2  0.174  0.010  0.010  0.010  0.000  0.000  0.000  0.000  0.000  0.204
tot    0.348  0.020  0.020  0.020  0.000  0.000  0.000  0.000  0.000  0.409
 
band     6 # energy    9.32774920 # occ.  0.00000000
 
ion      s     py     pz     px    dxy    dyz    dz2    dxz  x2-y2    tot
    1  0.000  0.022  0.058  0.032  0.000  0.000  0.000  0.000  0.000  0.112
    2  0.000  0.022  0.058  0.032  0.000  0.000  0.000  0.000  0.000  0.112
tot    0.000  0.045  0.117  0.063  0.000  0.000  0.000  0.000  0.000  0.224
 
band     7 # energy    9.32774942 # occ.  0.00000000
 
ion      s     py     pz     px    dxy    dyz    dz2    dxz  x2-y2    tot
    1  0.000  0.053  0.016  0.043  0.000  0.000  0.000  0.000  0.000  0.112
    2  0.000  0.053  0.016  0.043  0.000  0.000  0.000  0.000  0.000  0.112
tot    0.000  0.105  0.033  0.087  0.000  0.000  0.000  0.000  0.000  0.224
 
band     8 # energy   13.72588656 # occ.  0.00000000
 
ion      s     py     pz     px    dxy    dyz    dz2    dxz  x2-y2    tot
    1  0.011  0.037  0.037  0.037  0.000  0.000  0.000  0.000  0.000  0.123
    2  0.011  0.037  0.037  0.037  0.000  0.000  0.000  0.000  0.000  0.123
tot    0.021  0.075  0.075  0.075  0.000  0.000  0.000  0.000  0.000  0.246
 
band     9 # energy   13.94476662 # occ.  0.00000000
 
ion      s     py     pz     px    dxy    dyz    dz2    dxz  x2-y2    tot
    1  0.000  0.010  0.005  0.022  0.000  0.000  0.000  0.000  0.000  0.037
    2  0.000  0.010  0.005  0.022  0.000  0.000  0.000  0.000  0.000  0.037
tot    0.000  0.020  0.009  0.044  0.000  0.000  0.000  0.000  0.000  0.074
 
band    10 # energy   13.94476663 # occ.  0.00000000
 
ion      s     py     pz     px    dxy    dyz    dz2    dxz  x2-y2    tot
    1  0.000  0.014  0.020  0.003  0.000  0.000  0.000  0.000  0.000  0.037
    2  0.000  0.014  0.020  0.003  0.000  0.000  0.000  0.000  0.000  0.037
tot    0.000  0.029  0.040  0.005  0.000  0.000  0.000  0.000  0.000  0.074
 
band    11 # energy   15.06642069 # occ.  0.00000000
 
ion      s     py     pz     px    dxy    dyz    dz2    dxz  x2-y2    tot
    1  0.110  0.023  0.023  0.023  0.000  0.000  0.000  0.000  0.000  0.181
    2  0.110  0.023  0.023  0.023  0.000  0.000  0.000  0.000  0.000  0.181
tot    0.220  0.047  0.047  0.047  0.000  0.000  0.000  0.000  0.000  0.361
 
band    12 # energy   20.19999124 # occ.  0.00000000
 
ion      s     py     pz     px    dxy    dyz    dz2    dxz  x2-y2    tot
    1  0.001  0.029  0.043  0.001  0.000  0.000  0.000  0.000  0.000  0.075
    2  0.002  0.010  0.049  0.015  0.000  0.000  0.000  0.000  0.000  0.076
tot    0.003  0.039  0.091  0.017  0.000  0.000  0.000  0.000  0.000  0.151
 

 k-point    13 :    0.32857143 0.32857143 0.32857143     weight = 0.00555556

band     1 # energy   -4.78727683 # occ.  2.00000000
 
ion      s     py     pz     px    dxy    dyz    dz2    dxz  x2-y2    tot
    1  0.211  0.004  0.004  0.004  0.000  0.000  0.000  0.000  0.000  0.223
    2  0.211  0.004  0.004  0.004  0.000  0.000  0.000  0.000  0.000  0.223
tot    0.422  0.008  0.008  0.008  0.000  0.000  0.000  0.000  0.000  0.446
 
band     2 # energy    0.57395678 # occ.  2.00000000
 
ion      s     py     pz     px    dxy    dyz    dz2    dxz  x2-y2    tot
    1  0.104  0.035  0.035  0.035  0.000  0.000  0.000  0.000  0.000  0.209
    2  0.104  0.035  0.035  0.035  0.000  0.000  0.000  0.000  0.000  0.209
tot    0.209  0.070  0.070  0.070  0.000  0.000  0.000  0.000  0.000  0.418
 
band     3 # energy    4.84352168 # occ.  2.00000000
 
ion      s     py     pz     px    dxy    dyz    dz2    dxz  x2-y2    tot
    1  0.000  0.063  0.137  0.016  0.000  0.000  0.000  0.000  0.000  0.216
    2  0.000  0.063  0.137  0.016  0.000  0.000  0.000  0.000  0.000  0.216
tot    0.000  0.125  0.274  0.033  0.000  0.000  0.000  0.000  0.000  0.431
 
band     4 # energy    4.84352181 # occ.  2.00000000
 
ion      s     py     pz     px    dxy    dyz    dz2    dxz  x2-y2    tot
    1  0.000  0.081  0.007  0.128  0.000  0.000  0.000  0.000  0.000  0.216
    2  0.000  0.081  0.007  0.128  0.000  0.000  0.000  0.000  0.000  0.216
tot    0.000  0.163  0.014  0.255  0.000  0.000  0.000  0.000  0.000  0.431
 
band     5 # energy    7.61167135 # occ.  0.00000000
 
ion      s     py     pz     px    dxy    dyz    dz2    dxz  x2-y2    tot
    1  0.172  0.011  0.011  0.011  0.000  0.000  0.000  0.000  0.000  0.204
    2  0.172  0.011  0.011  0.011  0.000  0.000  0.000  0.000  0.000  0.204
tot    0.343  0.022  0.022  0.022  0.000  0.000  0.000  0.000  0.000  0.408
 
band     6 # energy    9.34457462 # occ.  0.00000000
 
ion      s     py     pz     px    dxy    dyz    dz2    dxz  x2-y2    tot
    1  0.000  0.027  0.066  0.023  0.000  0.000  0.000  0.000  0.000  0.116
    2  0.000  0.027  0.066  0.023  0.000  0.000  0.000  0.000  0.000  0.116
tot    0.000  0.053  0.132  0.046  0.000  0.000  0.000  0.000  0.000  0.232
 
band     7 # energy    9.34457463 # occ.  0.00000000
 
ion      s     py     pz     px    dxy    dyz    dz2    dxz  x2-y2    tot
    1  0.000  0.050  0.011  0.054  0.000  0.000  0.000  0.000  0.000  0.116
    2  0.000  0.050  0.011  0.054  0.000  0.000  0.000  0.000  0.000  0.116
tot    0.000  0.101  0.022  0.109  0.000  0.000  0.000  0.000  0.000  0.232
 
band     8 # energy   13.73127508 # occ.  0.00000000
 
ion      s     py     pz     px    dxy    dyz    dz2    dxz  x2-y2    tot
    1  0.008  0.027  0.018  0.025  0.000  0.000  0.000  0.000  0.000  0.077
    2  0.008  0.025  0.023  0.022  0.000  0.000  0.000  0.000  0.000  0.077
tot    0.015  0.052  0.041  0.047  0.000  0.000  0.000  0.000  0.000  0.155
 
band     9 # energy   14.90481787 # occ.  0.00000000
 
ion      s     py     pz     px    dxy    dyz    dz2    dxz  x2-y2    tot
    1  0.107  0.015  0.018  0.018  0.000  0.000  0.000  0.000  0.000  0.158
    2  0.108  0.015  0.019  0.021  0.000  0.000  0.000  0.000  0.000  0.163
tot    0.215  0.030  0.036  0.039  0.000  0.000  0.000  0.000  0.000  0.321
 
band    10 # energy   19.45293348 # occ.  0.00000000
 
ion      s     py     pz     px    dxy    dyz    dz2    dxz  x2-y2    tot
    1  0.024  0.033  0.039  0.056  0.000  0.000  0.000  0.000  0.000  0.152
    2  0.025  0.055  0.034  0.032  0.000  0.000  0.000  0.000  0.000  0.146
tot    0.050  0.088  0.073  0.087  0.000  0.000  0.000  0.000  0.000  0.298
 
band    11 # energy   20.67756186 # occ.  0.00000000
 
ion      s     py     pz     px    dxy    dyz    dz2    dxz  x2-y2    tot
    1  0.001  0.030  0.023  0.002  0.000  0.000  0.000  0.000  0.000  0.056
    2  0.002  0.032  0.026  0.006  0.000  0.000  0.000  0.000  0.000  0.066
tot    0.003  0.062  0.049  0.007  0.000  0.000  0.000  0.000  0.000  0.122
 
band    12 # energy   30.77501553 # occ.  0.00000000
 
ion      s     py     pz     px    dxy    dyz    dz2    dxz  x2-y2    tot
    1  0.004  0.000  0.005  0.024  0.000  0.000  0.000  0.000  0.000  0.032
    2  0.002  0.012  0.021  0.004  0.000  0.000  0.000  0.000  0.000  0.039
tot    0.005  0.012  0.026  0.028  0.000  0.000  0.000  0.000  0.000  0.071
 

 k-point    14 :    0.31428571 0.31428571 0.31428571     weight = 0.00555556

band     1 # energy   -4.89276724 # occ.  2.00000000
 
ion      s     py     pz     px    dxy    dyz    dz2    dxz  x2-y2    tot
    1  0.211  0.004  0.004  0.004  0.000  0.000  0.000  0.000  0.000  0.222
    2  0.211  0.004  0.004  0.004  0.000  0.000  0.000  0.000  0.000  0.222
tot    0.421  0.008  0.008  0.008  0.000  0.000  0.000  0.000  0.000  0.444
 
band     2 # energy    0.80283240 # occ.  2.00000000
 
ion      s     py     pz     px    dxy    dyz    dz2    dxz  x2-y2    tot
    1  0.103  0.036  0.036  0.036  0.000  0.000  0.000  0.000  0.000  0.210
    2  0.103  0.036  0.036  0.036  0.000  0.000  0.000  0.000  0.000  0.210
tot    0.207  0.071  0.071  0.071  0.000  0.000  0.000  0.000  0.000  0.421
 
band     3 # energy    4.87942910 # occ.  2.00000000
 
ion      s     py     pz     px    dxy    dyz    dz2    dxz  x2-y2    tot
    1  0.000  0.094  0.115  0.006  0.000  0.000  0.000  0.000  0.000  0.215
    2  0.000  0.094  0.115  0.006  0.000  0.000  0.000  0.000  0.000  0.215
tot    0.000  0.188  0.230  0.013  0.000  0.000  0.000  0.000  0.000  0.431
 
band     4 # energy    4.87942921 # occ.  2.00000000
 
ion      s     py     pz     px    dxy    dyz    dz2    dxz  x2-y2    tot
    1  0.000  0.050  0.028  0.137  0.000  0.000  0.000  0.000  0.000  0.215
    2  0.000  0.050  0.028  0.137  0.000  0.000  0.000  0.000  0.000  0.215
tot    0.000  0.099  0.057  0.275  0.000  0.000  0.000  0.000  0.000  0.431
 
band     5 # energy    7.65192028 # occ.  0.00000000
 
ion      s     py     pz     px    dxy    dyz    dz2    dxz  x2-y2    tot
    1  0.169  0.012  0.012  0.012  0.000  0.000  0.000  0.000  0.000  0.204
    2  0.169  0.012  0.012  0.012  0.000  0.000  0.000  0.000  0.000  0.204
tot    0.338  0.023  0.023  0.023  0.000  0.000  0.000  0.000  0.000  0.408
 
band     6 # energy    9.35786438 # occ.  0.00000000
 
ion      s     py     pz     px    dxy    dyz    dz2    dxz  x2-y2    tot
    1  0.000  0.076  0.034  0.010  0.000  0.000  0.000  0.000  0.000  0.120
    2  0.000  0.076  0.034  0.010  0.000  0.000  0.000  0.000  0.000  0.120
tot    0.000  0.152  0.068  0.019  0.000  0.000  0.000  0.000  0.000  0.239
 
band     7 # energy    9.35786438 # occ.  0.00000000
 
ion      s     py     pz     px    dxy    dyz    dz2    dxz  x2-y2    tot
    1  0.000  0.004  0.046  0.070  0.000  0.000  0.000  0.000  0.000  0.120
    2  0.000  0.004  0.046  0.070  0.000  0.000  0.000  0.000  0.000  0.120
tot    0.000  0.007  0.092  0.140  0.000  0.000  0.000  0.000  0.000  0.239
 
band     8 # energy   13.58918358 # occ.  0.00000000
 
ion      s     py     pz     px    dxy    dyz    dz2    dxz  x2-y2    tot
    1  0.008  0.020  0.018  0.018  0.000  0.000  0.000  0.000  0.000  0.065
    2  0.007  0.024  0.017  0.014  0.000  0.000  0.000  0.000  0.000  0.062
tot    0.015  0.044  0.035  0.033  0.000  0.000  0.000  0.000  0.000  0.127
 
band     9 # energy   13.61533673 # occ.  0.00000000
 
ion      s     py     pz     px    dxy    dyz    dz2    dxz  x2-y2    tot
    1  0.013  0.029  0.026  0.023  0.000  0.000  0.000  0.000  0.000  0.091
    2  0.023  0.017  0.033  0.046  0.000  0.000  0.000  0.000  0.000  0.119
tot    0.036  0.046  0.059  0.069  0.000  0.000  0.000  0.000  0.000  0.210
 
band    10 # energy   19.22076456 # occ.  0.00000000
 
ion      s     py     pz     px    dxy    dyz    dz2    dxz  x2-y2    tot
    1  0.012  0.043  0.055  0.024  0.000  0.000  0.000  0.000  0.000  0.134
    2  0.025  0.030  0.051  0.061  0.000  0.000  0.000  0.000  0.000  0.167
tot    0.037  0.073  0.105  0.086  0.000  0.000  0.000  0.000  0.000  0.301
 
band    11 # energy   21.66083914 # occ.  0.00000000
 
ion      s     py     pz     px    dxy    dyz    dz2    dxz  x2-y2    tot
    1  0.007  0.001  0.001  0.064  0.000  0.000  0.000  0.000  0.000  0.073
    2  0.007  0.001  0.044  0.015  0.000  0.000  0.000  0.000  0.000  0.066
tot    0.014  0.002  0.044  0.079  0.000  0.000  0.000  0.000  0.000  0.140
 
band    12 # energy   22.74036242 # occ.  0.00000000
 
ion      s     py     pz     px    dxy    dyz    dz2    dxz  x2-y2    tot
    1  0.020  0.016  0.015  0.017  0.000  0.000  0.000  0.000  0.000  0.069
    2  0.028  0.055  0.001  0.011  0.000  0.000  0.000  0.000  0.000  0.095
tot    0.049  0.072  0.016  0.028  0.000  0.000  0.000  0.000  0.000  0.164
 

 k-point    15 :    0.30000000 0.30000000 0.30000000     weight = 0.00555556

band     1 # energy   -4.99564385 # occ.  2.00000000
 
ion      s     py     pz     px    dxy    dyz    dz2    dxz  x2-y2    tot
    1  0.210  0.004  0.004  0.004  0.000  0.000  0.000  0.000  0.000  0.221
    2  0.210  0.004  0.004  0.004  0.000  0.000  0.000  0.000  0.000  0.221
tot    0.421  0.007  0.007  0.007  0.000  0.000  0.000  0.000  0.000  0.443
 
band     2 # energy    1.03839966 # occ.  2.00000000
 
ion      s     py     pz     px    dxy    dyz    dz2    dxz  x2-y2    tot
    1  0.102  0.037  0.037  0.037  0.000  0.000  0.000  0.000  0.000  0.211
    2  0.102  0.037  0.037  0.037  0.000  0.000  0.000  0.000  0.000  0.211
tot    0.204  0.073  0.073  0.073  0.000  0.000  0.000  0.000  0.000  0.423
 
band     3 # energy    4.91799362 # occ.  2.00000000
 
ion      s     py     pz     px    dxy    dyz    dz2    dxz  x2-y2    tot
    1  0.000  0.143  0.040  0.032  0.000  0.000  0.000  0.000  0.000  0.215
    2  0.000  0.143  0.040  0.032  0.000  0.000  0.000  0.000  0.000  0.215
tot    0.000  0.286  0.079  0.065  0.000  0.000  0.000  0.000  0.000  0.430
 
band     4 # energy    4.91799405 # occ.  2.00000000
 
ion      s     py     pz     px    dxy    dyz    dz2    dxz  x2-y2    tot
    1  0.000  0.000  0.104  0.111  0.000  0.000  0.000  0.000  0.000  0.215
    2  0.000  0.000  0.104  0.111  0.000  0.000  0.000  0.000  0.000  0.215
tot    0.000  0.001  0.207  0.222  0.000  0.000  0.000  0.000  0.000  0.430
 
band     5 # energy    7.69493777 # occ.  0.00000000
 
ion      s     py     pz     px    dxy    dyz    dz2    dxz  x2-y2    tot
    1  0.166  0.012  0.012  0.012  0.000  0.000  0.000  0.000  0.000  0.204
    2  0.166  0.012  0.012  0.012  0.000  0.000  0.000  0.000  0.000  0.204
tot    0.333  0.025  0.025  0.025  0.000  0.000  0.000  0.000  0.000  0.408
 
band     6 # energy    9.36626066 # occ.  0.00000000
 
ion      s     py     pz     px    dxy    dyz    dz2    dxz  x2-y2    tot
    1  0.000  0.021  0.082  0.021  0.000  0.000  0.000  0.000  0.000  0.124
    2  0.000  0.021  0.082  0.021  0.000  0.000  0.000  0.000  0.000  0.124
tot    0.000  0.042  0.164  0.042  0.000  0.000  0.000  0.000  0.000  0.248
 
band     7 # energy    9.36626068 # occ.  0.00000000
 
ion      s     py     pz     px    dxy    dyz    dz2    dxz  x2-y2    tot
    1  0.000  0.062  0.000  0.062  0.000  0.000  0.000  0.000  0.000  0.124
    2  0.000  0.062  0.000  0.062  0.000  0.000  0.000  0.000  0.000  0.124
tot    0.000  0.123  0.001  0.123  0.000  0.000  0.000  0.000  0.000  0.248
 
band     8 # energy   13.42754284 # occ.  0.00000000
 
ion      s     py     pz     px    dxy    dyz    dz2    dxz  x2-y2    tot
    1  0.000  0.001  0.009  0.018  0.000  0.000  0.000  0.000  0.000  0.029
    2  0.000  0.001  0.009  0.018  0.000  0.000  0.000  0.000  0.000  0.029
tot    0.000  0.003  0.019  0.036  0.000  0.000  0.000  0.000  0.000  0.057
 
band     9 # energy   13.44853661 # occ.  0.00000000
 
ion      s     py     pz     px    dxy    dyz    dz2    dxz  x2-y2    tot
    1  0.025  0.045  0.021  0.020  0.000  0.000  0.000  0.000  0.000  0.112
    2  0.026  0.043  0.021  0.023  0.000  0.000  0.000  0.000  0.000  0.112
tot    0.051  0.088  0.042  0.043  0.000  0.000  0.000  0.000  0.000  0.224
 
band    10 # energy   14.68215400 # occ.  0.00000000
 
ion      s     py     pz     px    dxy    dyz    dz2    dxz  x2-y2    tot
    1  0.061  0.010  0.006  0.007  0.000  0.000  0.000  0.000  0.000  0.085
    2  0.059  0.007  0.002  0.003  0.000  0.000  0.000  0.000  0.000  0.071
tot    0.119  0.018  0.008  0.011  0.000  0.000  0.000  0.000  0.000  0.156
 
band    11 # energy   21.08281112 # occ.  0.00000000
 
ion      s     py     pz     px    dxy    dyz    dz2    dxz  x2-y2    tot
    1  0.001  0.012  0.007  0.042  0.000  0.000  0.000  0.000  0.000  0.063
    2  0.003  0.021  0.045  0.013  0.000  0.000  0.000  0.000  0.000  0.081
tot    0.004  0.034  0.052  0.055  0.000  0.000  0.000  0.000  0.000  0.144
 
band    12 # energy   30.75327424 # occ.  0.00000000
 
ion      s     py     pz     px    dxy    dyz    dz2    dxz  x2-y2    tot
    1  0.003  0.001  0.012  0.006  0.000  0.000  0.000  0.000  0.000  0.023
    2  0.002  0.015  0.033  0.011  0.000  0.000  0.000  0.000  0.000  0.061
tot    0.006  0.016  0.045  0.017  0.000  0.000  0.000  0.000  0.000  0.084
 

 k-point    16 :    0.28571429 0.28571429 0.28571429     weight = 0.00555556

band     1 # energy   -5.09543277 # occ.  2.00000000
 
ion      s     py     pz     px    dxy    dyz    dz2    dxz  x2-y2    tot
    1  0.210  0.003  0.003  0.003  0.000  0.000  0.000  0.000  0.000  0.220
    2  0.210  0.003  0.003  0.003  0.000  0.000  0.000  0.000  0.000  0.220
tot    0.421  0.007  0.007  0.007  0.000  0.000  0.000  0.000  0.000  0.441
 
band     2 # energy    1.27997229 # occ.  2.00000000
 
ion      s     py     pz     px    dxy    dyz    dz2    dxz  x2-y2    tot
    1  0.100  0.037  0.037  0.037  0.000  0.000  0.000  0.000  0.000  0.213
    2  0.100  0.037  0.037  0.037  0.000  0.000  0.000  0.000  0.000  0.213
tot    0.200  0.075  0.075  0.075  0.000  0.000  0.000  0.000  0.000  0.425
 
band     3 # energy    4.95914955 # occ.  2.00000000
 
ion      s     py     pz     px    dxy    dyz    dz2    dxz  x2-y2    tot
    1  0.000  0.060  0.131  0.024  0.000  0.000  0.000  0.000  0.000  0.215
    2  0.000  0.060  0.131  0.024  0.000  0.000  0.000  0.000  0.000  0.215
tot    0.000  0.120  0.261  0.048  0.000  0.000  0.000  0.000  0.000  0.429
 
band     4 # energy    4.95914958 # occ.  2.00000000
 
ion      s     py     pz     px    dxy    dyz    dz2    dxz  x2-y2    tot
    1  0.000  0.083  0.012  0.119  0.000  0.000  0.000  0.000  0.000  0.215
    2  0.000  0.083  0.012  0.119  0.000  0.000  0.000  0.000  0.000  0.215
tot    0.000  0.166  0.025  0.238  0.000  0.000  0.000  0.000  0.000  0.429
 
band     5 # energy    7.74056051 # occ.  0.00000000
 
ion      s     py     pz     px    dxy    dyz    dz2    dxz  x2-y2    tot
    1  0.163  0.013  0.013  0.013  0.000  0.000  0.000  0.000  0.000  0.204
    2  0.163  0.013  0.013  0.013  0.000  0.000  0.000  0.000  0.000  0.204
tot    0.327  0.027  0.027  0.027  0.000  0.000  0.000  0.000  0.000  0.407
 
band     6 # energy    9.36855212 # occ.  0.00000000
 
ion      s     py     pz     px    dxy    dyz    dz2    dxz  x2-y2    tot
    1  0.000  0.053  0.010  0.065  0.000  0.000  0.000  0.000  0.000  0.128
    2  0.000  0.053  0.010  0.065  0.000  0.000  0.000  0.000  0.000  0.128
tot    0.000  0.107  0.019  0.130  0.000  0.000  0.000  0.000  0.000  0.256
 
band     7 # energy    9.36855227 # occ.  0.00000000
 
ion      s     py     pz     px    dxy    dyz    dz2    dxz  x2-y2    tot
    1  0.000  0.032  0.076  0.020  0.000  0.000  0.000  0.000  0.000  0.128
    2  0.000  0.032  0.076  0.020  0.000  0.000  0.000  0.000  0.000  0.128
tot    0.000  0.064  0.151  0.041  0.000  0.000  0.000  0.000  0.000  0.256
 
band     8 # energy   13.28902117 # occ.  0.00000000
 
ion      s     py     pz     px    dxy    dyz    dz2    dxz  x2-y2    tot
    1  0.000  0.003  0.007  0.016  0.000  0.000  0.000  0.000  0.000  0.025
    2  0.000  0.003  0.007  0.016  0.000  0.000  0.000  0.000  0.000  0.025
tot    0.000  0.006  0.013  0.031  0.000  0.000  0.000  0.000  0.000  0.050
 
band     9 # energy   13.28902118 # occ.  0.00000000
 
ion      s     py     pz     px    dxy    dyz    dz2    dxz  x2-y2    tot
    1  0.000  0.014  0.010  0.001  0.000  0.000  0.000  0.000  0.000  0.025
    2  0.000  0.014  0.010  0.001  0.000  0.000  0.000  0.000  0.000  0.025
tot    0.000  0.028  0.020  0.003  0.000  0.000  0.000  0.000  0.000  0.050
 
band    10 # energy   13.30103713 # occ.  0.00000000
 
ion      s     py     pz     px    dxy    dyz    dz2    dxz  x2-y2    tot
    1  0.075  0.053  0.053  0.053  0.000  0.000  0.000  0.000  0.000  0.234
    2  0.075  0.053  0.053  0.053  0.000  0.000  0.000  0.000  0.000  0.234
tot    0.149  0.106  0.106  0.106  0.000  0.000  0.000  0.000  0.000  0.468
 
band    11 # energy   14.74015321 # occ.  0.00000000
 
ion      s     py     pz     px    dxy    dyz    dz2    dxz  x2-y2    tot
    1  0.071  0.005  0.005  0.005  0.000  0.000  0.000  0.000  0.000  0.087
    2  0.071  0.005  0.005  0.005  0.000  0.000  0.000  0.000  0.000  0.087
tot    0.142  0.010  0.010  0.010  0.000  0.000  0.000  0.000  0.000  0.173
 
band    12 # energy   22.98953193 # occ.  0.00000000
 
ion      s     py     pz     px    dxy    dyz    dz2    dxz  x2-y2    tot
    1  0.001  0.025  0.003  0.008  0.000  0.000  0.000  0.000  0.000  0.036
    2  0.001  0.043  0.013  0.010  0.000  0.000  0.000  0.000  0.000  0.067
tot    0.001  0.067  0.016  0.018  0.000  0.000  0.000  0.000  0.000  0.103
 

 k-point    17 :    0.27142857 0.27142857 0.27142857     weight = 0.00555556

band     1 # energy   -5.19172976 # occ.  2.00000000
 
ion      s     py     pz     px    dxy    dyz    dz2    dxz  x2-y2    tot
    1  0.210  0.003  0.003  0.003  0.000  0.000  0.000  0.000  0.000  0.220
    2  0.210  0.003  0.003  0.003  0.000  0.000  0.000  0.000  0.000  0.220
tot    0.421  0.006  0.006  0.006  0.000  0.000  0.000  0.000  0.000  0.439
 
band     2 # energy    1.52698901 # occ.  2.00000000
 
ion      s     py     pz     px    dxy    dyz    dz2    dxz  x2-y2    tot
    1  0.098  0.038  0.038  0.038  0.000  0.000  0.000  0.000  0.000  0.213
    2  0.098  0.038  0.038  0.038  0.000  0.000  0.000  0.000  0.000  0.214
tot    0.196  0.077  0.077  0.077  0.000  0.000  0.000  0.000  0.000  0.427
 
band     3 # energy    5.00278290 # occ.  2.00000000
 
ion      s     py     pz     px    dxy    dyz    dz2    dxz  x2-y2    tot
    1  0.000  0.036  0.142  0.036  0.000  0.000  0.000  0.000  0.000  0.214
    2  0.000  0.036  0.142  0.036  0.000  0.000  0.000  0.000  0.000  0.214
tot    0.000  0.073  0.284  0.072  0.000  0.000  0.000  0.000  0.000  0.429
 
band     4 # energy    5.00278293 # occ.  2.00000000
 
ion      s     py     pz     px    dxy    dyz    dz2    dxz  x2-y2    tot
    1  0.000  0.106  0.001  0.107  0.000  0.000  0.000  0.000  0.000  0.214
    2  0.000  0.106  0.001  0.107  0.000  0.000  0.000  0.000  0.000  0.214
tot    0.000  0.213  0.002  0.214  0.000  0.000  0.000  0.000  0.000  0.429
 
band     5 # energy    7.78861437 # occ.  0.00000000
 
ion      s     py     pz     px    dxy    dyz    dz2    dxz  x2-y2    tot
    1  0.160  0.014  0.014  0.014  0.000  0.000  0.000  0.000  0.000  0.203
    2  0.160  0.014  0.014  0.014  0.000  0.000  0.000  0.000  0.000  0.203
tot    0.320  0.029  0.029  0.029  0.000  0.000  0.000  0.000  0.000  0.407
 
band     6 # energy    9.36328337 # occ.  0.00000000
 
ion      s     py     pz     px    dxy    dyz    dz2    dxz  x2-y2    tot
    1  0.000  0.020  0.027  0.086  0.000  0.000  0.000  0.000  0.000  0.132
    2  0.000  0.020  0.027  0.086  0.000  0.000  0.000  0.000  0.000  0.132
tot    0.000  0.039  0.055  0.171  0.000  0.000  0.000  0.000  0.000  0.265
 
band     7 # energy    9.36328345 # occ.  0.00000000
 
ion      s     py     pz     px    dxy    dyz    dz2    dxz  x2-y2    tot
    1  0.000  0.069  0.061  0.003  0.000  0.000  0.000  0.000  0.000  0.132
    2  0.000  0.069  0.061  0.003  0.000  0.000  0.000  0.000  0.000  0.132
tot    0.000  0.137  0.122  0.005  0.000  0.000  0.000  0.000  0.000  0.265
 
band     8 # energy   13.09806690 # occ.  0.00000000
 
ion      s     py     pz     px    dxy    dyz    dz2    dxz  x2-y2    tot
    1  0.091  0.052  0.052  0.052  0.000  0.000  0.000  0.000  0.000  0.249
    2  0.091  0.052  0.052  0.052  0.000  0.000  0.000  0.000  0.000  0.249
tot    0.183  0.105  0.105  0.105  0.000  0.000  0.000  0.000  0.000  0.498
 
band     9 # energy   13.16934487 # occ.  0.00000000
 
ion      s     py     pz     px    dxy    dyz    dz2    dxz  x2-y2    tot
    1  0.000  0.010  0.000  0.011  0.000  0.000  0.000  0.000  0.000  0.022
    2  0.000  0.010  0.000  0.011  0.000  0.000  0.000  0.000  0.000  0.022
tot    0.000  0.021  0.000  0.022  0.000  0.000  0.000  0.000  0.000  0.043
 
band    10 # energy   13.16934488 # occ.  0.00000000
 
ion      s     py     pz     px    dxy    dyz    dz2    dxz  x2-y2    tot
    1  0.000  0.004  0.014  0.003  0.000  0.000  0.000  0.000  0.000  0.022
    2  0.000  0.004  0.014  0.003  0.000  0.000  0.000  0.000  0.000  0.022
tot    0.000  0.008  0.029  0.007  0.000  0.000  0.000  0.000  0.000  0.043
 
band    11 # energy   14.76243217 # occ.  0.00000000
 
ion      s     py     pz     px    dxy    dyz    dz2    dxz  x2-y2    tot
    1  0.061  0.005  0.005  0.005  0.000  0.000  0.000  0.000  0.000  0.077
    2  0.061  0.005  0.005  0.005  0.000  0.000  0.000  0.000  0.000  0.077
tot    0.122  0.010  0.010  0.010  0.000  0.000  0.000  0.000  0.000  0.153
 
band    12 # energy   18.15037443 # occ.  0.00000000
 
ion      s     py     pz     px    dxy    dyz    dz2    dxz  x2-y2    tot
    1  0.034  0.032  0.031  0.027  0.000  0.000  0.000  0.000  0.000  0.124
    2  0.034  0.028  0.029  0.033  0.000  0.000  0.000  0.000  0.000  0.125
tot    0.068  0.061  0.060  0.060  0.000  0.000  0.000  0.000  0.000  0.249
 

 k-point    18 :    0.25714286 0.25714286 0.25714286     weight = 0.00555556

band     1 # energy   -5.28420580 # occ.  2.00000000
 
ion      s     py     pz     px    dxy    dyz    dz2    dxz  x2-y2    tot
    1  0.210  0.003  0.003  0.003  0.000  0.000  0.000  0.000  0.000  0.219
    2  0.210  0.003  0.003  0.003  0.000  0.000  0.000  0.000  0.000  0.219
tot    0.421  0.006  0.006  0.006  0.000  0.000  0.000  0.000  0.000  0.438
 
band     2 # energy    1.77890136 # occ.  2.00000000
 
ion      s     py     pz     px    dxy    dyz    dz2    dxz  x2-y2    tot
    1  0.096  0.039  0.039  0.039  0.000  0.000  0.000  0.000  0.000  0.214
    2  0.096  0.039  0.039  0.039  0.000  0.000  0.000  0.000  0.000  0.214
tot    0.192  0.079  0.079  0.079  0.000  0.000  0.000  0.000  0.000  0.429
 
band     3 # energy    5.04879070 # occ.  2.00000000
 
ion      s     py     pz     px    dxy    dyz    dz2    dxz  x2-y2    tot
    1  0.000  0.105  0.015  0.094  0.000  0.000  0.000  0.000  0.000  0.214
    2  0.000  0.105  0.015  0.094  0.000  0.000  0.000  0.000  0.000  0.214
tot    0.000  0.210  0.029  0.189  0.000  0.000  0.000  0.000  0.000  0.428
 
band     4 # energy    5.04879070 # occ.  2.00000000
 
ion      s     py     pz     px    dxy    dyz    dz2    dxz  x2-y2    tot
    1  0.000  0.038  0.128  0.048  0.000  0.000  0.000  0.000  0.000  0.214
    2  0.000  0.038  0.128  0.048  0.000  0.000  0.000  0.000  0.000  0.214
tot    0.000  0.075  0.256  0.097  0.000  0.000  0.000  0.000  0.000  0.428
 
band     5 # energy    7.83887265 # occ.  0.00000000
 
ion      s     py     pz     px    dxy    dyz    dz2    dxz  x2-y2    tot
    1  0.157  0.015  0.015  0.015  0.000  0.000  0.000  0.000  0.000  0.203
    2  0.157  0.015  0.015  0.015  0.000  0.000  0.000  0.000  0.000  0.203
tot    0.313  0.031  0.031  0.031  0.000  0.000  0.000  0.000  0.000  0.406
 
band     6 # energy    9.34949878 # occ.  0.00000000
 
ion      s     py     pz     px    dxy    dyz    dz2    dxz  x2-y2    tot
    1  0.000  0.086  0.011  0.040  0.000  0.000  0.000  0.000  0.000  0.137
    2  0.000  0.086  0.011  0.040  0.000  0.000  0.000  0.000  0.000  0.137
tot    0.000  0.172  0.022  0.080  0.000  0.000  0.000  0.000  0.000  0.273
 
band     7 # energy    9.34949878 # occ.  0.00000000
 
ion      s     py     pz     px    dxy    dyz    dz2    dxz  x2-y2    tot
    1  0.000  0.005  0.080  0.051  0.000  0.000  0.000  0.000  0.000  0.137
    2  0.000  0.005  0.080  0.051  0.000  0.000  0.000  0.000  0.000  0.137
tot    0.000  0.011  0.160  0.102  0.000  0.000  0.000  0.000  0.000  0.273
 
band     8 # energy   12.92714269 # occ.  0.00000000
 
ion      s     py     pz     px    dxy    dyz    dz2    dxz  x2-y2    tot
    1  0.078  0.042  0.036  0.040  0.000  0.000  0.000  0.000  0.000  0.195
    2  0.078  0.039  0.034  0.044  0.000  0.000  0.000  0.000  0.000  0.195
tot    0.155  0.081  0.070  0.083  0.000  0.000  0.000  0.000  0.000  0.389
 
band     9 # energy   14.65010133 # occ.  0.00000000
 
ion      s     py     pz     px    dxy    dyz    dz2    dxz  x2-y2    tot
    1  0.060  0.001  0.005  0.005  0.000  0.000  0.000  0.000  0.000  0.071
    2  0.070  0.004  0.011  0.006  0.000  0.000  0.000  0.000  0.000  0.091
tot    0.130  0.005  0.017  0.010  0.000  0.000  0.000  0.000  0.000  0.162
 
band    10 # energy   17.84832529 # occ.  0.00000000
 
ion      s     py     pz     px    dxy    dyz    dz2    dxz  x2-y2    tot
    1  0.037  0.027  0.026  0.023  0.000  0.000  0.000  0.000  0.000  0.113
    2  0.037  0.025  0.026  0.029  0.000  0.000  0.000  0.000  0.000  0.117
tot    0.073  0.052  0.053  0.052  0.000  0.000  0.000  0.000  0.000  0.230
 
band    11 # energy   23.88253586 # occ.  0.00000000
 
ion      s     py     pz     px    dxy    dyz    dz2    dxz  x2-y2    tot
    1  0.002  0.008  0.015  0.063  0.000  0.000  0.000  0.000  0.000  0.088
    2  0.020  0.003  0.003  0.034  0.000  0.000  0.000  0.000  0.000  0.059
tot    0.022  0.011  0.018  0.096  0.000  0.000  0.000  0.000  0.000  0.147
 
band    12 # energy   31.98010450 # occ.  0.00000000
 
ion      s     py     pz     px    dxy    dyz    dz2    dxz  x2-y2    tot
    1  0.002  0.020  0.043  0.027  0.000  0.000  0.000  0.000  0.000  0.092
    2  0.000  0.062  0.023  0.003  0.000  0.000  0.000  0.000  0.000  0.088
tot    0.002  0.082  0.066  0.030  0.000  0.000  0.000  0.000  0.000  0.180
 

 k-point    19 :    0.24285714 0.24285714 0.24285714     weight = 0.00555556

band     1 # energy   -5.37260398 # occ.  2.00000000
 
ion      s     py     pz     px    dxy    dyz    dz2    dxz  x2-y2    tot
    1  0.211  0.003  0.003  0.003  0.000  0.000  0.000  0.000  0.000  0.218
    2  0.211  0.003  0.003  0.003  0.000  0.000  0.000  0.000  0.000  0.218
tot    0.421  0.005  0.005  0.005  0.000  0.000  0.000  0.000  0.000  0.437
 
band     2 # energy    2.03519699 # occ.  2.00000000
 
ion      s     py     pz     px    dxy    dyz    dz2    dxz  x2-y2    tot
    1  0.094  0.041  0.041  0.041  0.000  0.000  0.000  0.000  0.000  0.215
    2  0.094  0.041  0.041  0.041  0.000  0.000  0.000  0.000  0.000  0.215
tot    0.187  0.081  0.081  0.081  0.000  0.000  0.000  0.000  0.000  0.431
 
band     3 # energy    5.09698680 # occ.  2.00000000
 
ion      s     py     pz     px    dxy    dyz    dz2    dxz  x2-y2    tot
    1  0.000  0.098  0.093  0.022  0.000  0.000  0.000  0.000  0.000  0.214
    2  0.000  0.098  0.093  0.022  0.000  0.000  0.000  0.000  0.000  0.214
tot    0.000  0.196  0.187  0.044  0.000  0.000  0.000  0.000  0.000  0.427
 
band     4 # energy    5.09698681 # occ.  2.00000000
 
ion      s     py     pz     px    dxy    dyz    dz2    dxz  x2-y2    tot
    1  0.000  0.044  0.049  0.120  0.000  0.000  0.000  0.000  0.000  0.214
    2  0.000  0.044  0.049  0.120  0.000  0.000  0.000  0.000  0.000  0.214
tot    0.000  0.089  0.098  0.241  0.000  0.000  0.000  0.000  0.000  0.427
 
band     5 # energy    7.89110403 # occ.  0.00000000
 
ion      s     py     pz     px    dxy    dyz    dz2    dxz  x2-y2    tot
    1  0.153  0.017  0.017  0.017  0.000  0.000  0.000  0.000  0.000  0.203
    2  0.153  0.017  0.017  0.017  0.000  0.000  0.000  0.000  0.000  0.203
tot    0.306  0.033  0.033  0.033  0.000  0.000  0.000  0.000  0.000  0.406
 
band     6 # energy    9.32610825 # occ.  0.00000000
 
ion      s     py     pz     px    dxy    dyz    dz2    dxz  x2-y2    tot
    1  0.000  0.004  0.082  0.055  0.000  0.000  0.000  0.000  0.000  0.141
    2  0.000  0.004  0.082  0.055  0.000  0.000  0.000  0.000  0.000  0.141
tot    0.000  0.007  0.163  0.111  0.000  0.000  0.000  0.000  0.000  0.281
 
band     7 # energy    9.32610827 # occ.  0.00000000
 
ion      s     py     pz     px    dxy    dyz    dz2    dxz  x2-y2    tot
    1  0.000  0.090  0.012  0.038  0.000  0.000  0.000  0.000  0.000  0.141
    2  0.000  0.090  0.012  0.038  0.000  0.000  0.000  0.000  0.000  0.141
tot    0.000  0.180  0.024  0.077  0.000  0.000  0.000  0.000  0.000  0.281
 
band     8 # energy   12.64095454 # occ.  0.00000000
 
ion      s     py     pz     px    dxy    dyz    dz2    dxz  x2-y2    tot
    1  0.117  0.047  0.049  0.051  0.000  0.000  0.000  0.000  0.000  0.265
    2  0.117  0.051  0.049  0.047  0.000  0.000  0.000  0.000  0.000  0.265
tot    0.235  0.098  0.098  0.099  0.000  0.000  0.000  0.000  0.000  0.530
 
band     9 # energy   12.99132584 # occ.  0.00000000
 
ion      s     py     pz     px    dxy    dyz    dz2    dxz  x2-y2    tot
    1  0.000  0.003  0.009  0.003  0.000  0.000  0.000  0.000  0.000  0.015
    2  0.000  0.003  0.009  0.003  0.000  0.000  0.000  0.000  0.000  0.015
tot    0.000  0.007  0.018  0.005  0.000  0.000  0.000  0.000  0.000  0.030
 
band    10 # energy   14.85430056 # occ.  0.00000000
 
ion      s     py     pz     px    dxy    dyz    dz2    dxz  x2-y2    tot
    1  0.050  0.008  0.008  0.007  0.000  0.000  0.000  0.000  0.000  0.072
    2  0.049  0.008  0.007  0.007  0.000  0.000  0.000  0.000  0.000  0.071
tot    0.099  0.015  0.015  0.014  0.000  0.000  0.000  0.000  0.000  0.143
 
band    11 # energy   17.56518126 # occ.  0.00000000
 
ion      s     py     pz     px    dxy    dyz    dz2    dxz  x2-y2    tot
    1  0.038  0.022  0.021  0.025  0.000  0.000  0.000  0.000  0.000  0.106
    2  0.039  0.022  0.024  0.022  0.000  0.000  0.000  0.000  0.000  0.107
tot    0.077  0.044  0.045  0.047  0.000  0.000  0.000  0.000  0.000  0.213
 
band    12 # energy   25.46600899 # occ.  0.00000000
 
ion      s     py     pz     px    dxy    dyz    dz2    dxz  x2-y2    tot
    1  0.021  0.007  0.015  0.033  0.000  0.000  0.000  0.000  0.000  0.076
    2  0.019  0.007  0.016  0.039  0.000  0.000  0.000  0.000  0.000  0.080
tot    0.040  0.014  0.030  0.072  0.000  0.000  0.000  0.000  0.000  0.156
 

 k-point    20 :    0.22857143 0.22857143 0.22857143     weight = 0.00555556

band     1 # energy   -5.45670256 # occ.  2.00000000
 
ion      s     py     pz     px    dxy    dyz    dz2    dxz  x2-y2    tot
    1  0.211  0.002  0.002  0.002  0.000  0.000  0.000  0.000  0.000  0.218
    2  0.211  0.002  0.002  0.002  0.000  0.000  0.000  0.000  0.000  0.218
tot    0.422  0.005  0.005  0.005  0.000  0.000  0.000  0.000  0.000  0.435
 
band     2 # energy    2.29534304 # occ.  2.00000000
 
ion      s     py     pz     px    dxy    dyz    dz2    dxz  x2-y2    tot
    1  0.091  0.042  0.042  0.042  0.000  0.000  0.000  0.000  0.000  0.216
    2  0.091  0.042  0.042  0.042  0.000  0.000  0.000  0.000  0.000  0.216
tot    0.182  0.083  0.083  0.083  0.000  0.000  0.000  0.000  0.000  0.432
 
band     3 # energy    5.14720389 # occ.  2.00000000
 
ion      s     py     pz     px    dxy    dyz    dz2    dxz  x2-y2    tot
    1  0.000  0.112  0.002  0.099  0.000  0.000  0.000  0.000  0.000  0.213
    2  0.000  0.112  0.002  0.099  0.000  0.000  0.000  0.000  0.000  0.213
tot    0.000  0.225  0.004  0.199  0.000  0.000  0.000  0.000  0.000  0.427
 
band     4 # energy    5.14720390 # occ.  2.00000000
 
ion      s     py     pz     px    dxy    dyz    dz2    dxz  x2-y2    tot
    1  0.000  0.030  0.141  0.043  0.000  0.000  0.000  0.000  0.000  0.213
    2  0.000  0.030  0.141  0.043  0.000  0.000  0.000  0.000  0.000  0.213
tot    0.000  0.060  0.281  0.086  0.000  0.000  0.000  0.000  0.000  0.427
 
band     5 # energy    7.94498911 # occ.  0.00000000
 
ion      s     py     pz     px    dxy    dyz    dz2    dxz  x2-y2    tot
    1  0.149  0.018  0.018  0.018  0.000  0.000  0.000  0.000  0.000  0.202
    2  0.149  0.018  0.018  0.018  0.000  0.000  0.000  0.000  0.000  0.202
tot    0.297  0.036  0.036  0.036  0.000  0.000  0.000  0.000  0.000  0.405
 
band     6 # energy    9.29278782 # occ.  0.00000000
 
ion      s     py     pz     px    dxy    dyz    dz2    dxz  x2-y2    tot
    1  0.000  0.086  0.004  0.054  0.000  0.000  0.000  0.000  0.000  0.144
    2  0.000  0.086  0.004  0.054  0.000  0.000  0.000  0.000  0.000  0.144
tot    0.000  0.173  0.008  0.108  0.000  0.000  0.000  0.000  0.000  0.288
 
band     7 # energy    9.29278784 # occ.  0.00000000
 
ion      s     py     pz     px    dxy    dyz    dz2    dxz  x2-y2    tot
    1  0.000  0.010  0.092  0.042  0.000  0.000  0.000  0.000  0.000  0.144
    2  0.000  0.010  0.092  0.042  0.000  0.000  0.000  0.000  0.000  0.144
tot    0.000  0.020  0.184  0.085  0.000  0.000  0.000  0.000  0.000  0.288
 
band     8 # energy   12.39532374 # occ.  0.00000000
 
ion      s     py     pz     px    dxy    dyz    dz2    dxz  x2-y2    tot
    1  0.129  0.048  0.048  0.048  0.000  0.000  0.000  0.000  0.000  0.272
    2  0.129  0.047  0.048  0.048  0.000  0.000  0.000  0.000  0.000  0.272
tot    0.258  0.095  0.095  0.095  0.000  0.000  0.000  0.000  0.000  0.543
 
band     9 # energy   12.93404898 # occ.  0.00000000
 
ion      s     py     pz     px    dxy    dyz    dz2    dxz  x2-y2    tot
    1  0.000  0.000  0.006  0.006  0.000  0.000  0.000  0.000  0.000  0.012
    2  0.000  0.000  0.006  0.006  0.000  0.000  0.000  0.000  0.000  0.012
tot    0.000  0.000  0.012  0.011  0.000  0.000  0.000  0.000  0.000  0.024
 
band    10 # energy   14.90753239 # occ.  0.00000000
 
ion      s     py     pz     px    dxy    dyz    dz2    dxz  x2-y2    tot
    1  0.047  0.009  0.008  0.009  0.000  0.000  0.000  0.000  0.000  0.073
    2  0.047  0.009  0.009  0.009  0.000  0.000  0.000  0.000  0.000  0.074
tot    0.094  0.018  0.018  0.017  0.000  0.000  0.000  0.000  0.000  0.147
 
band    11 # energy   17.25910751 # occ.  0.00000000
 
ion      s     py     pz     px    dxy    dyz    dz2    dxz  x2-y2    tot
    1  0.040  0.020  0.020  0.019  0.000  0.000  0.000  0.000  0.000  0.099
    2  0.040  0.019  0.019  0.020  0.000  0.000  0.000  0.000  0.000  0.099
tot    0.081  0.039  0.039  0.039  0.000  0.000  0.000  0.000  0.000  0.198
 
band    12 # energy   20.11749368 # occ.  0.00000000
 
ion      s     py     pz     px    dxy    dyz    dz2    dxz  x2-y2    tot
    1  0.000  0.018  0.005  0.013  0.000  0.000  0.000  0.000  0.000  0.035
    2  0.000  0.017  0.004  0.012  0.000  0.000  0.000  0.000  0.000  0.032
tot    0.000  0.034  0.009  0.024  0.000  0.000  0.000  0.000  0.000  0.068
 

 k-point    21 :    0.21428571 0.21428571 0.21428571     weight = 0.00555556

band     1 # energy   -5.53631012 # occ.  2.00000000
 
ion      s     py     pz     px    dxy    dyz    dz2    dxz  x2-y2    tot
    1  0.211  0.002  0.002  0.002  0.000  0.000  0.000  0.000  0.000  0.217
    2  0.211  0.002  0.002  0.002  0.000  0.000  0.000  0.000  0.000  0.217
tot    0.422  0.004  0.004  0.004  0.000  0.000  0.000  0.000  0.000  0.434
 
band     2 # energy    2.55880567 # occ.  2.00000000
 
ion      s     py     pz     px    dxy    dyz    dz2    dxz  x2-y2    tot
    1  0.088  0.043  0.043  0.043  0.000  0.000  0.000  0.000  0.000  0.217
    2  0.088  0.043  0.043  0.043  0.000  0.000  0.000  0.000  0.000  0.217
tot    0.176  0.086  0.086  0.086  0.000  0.000  0.000  0.000  0.000  0.434
 
band     3 # energy    5.19924691 # occ.  2.00000000
 
ion      s     py     pz     px    dxy    dyz    dz2    dxz  x2-y2    tot
    1  0.000  0.113  0.000  0.100  0.000  0.000  0.000  0.000  0.000  0.213
    2  0.000  0.113  0.000  0.100  0.000  0.000  0.000  0.000  0.000  0.213
tot    0.000  0.226  0.001  0.200  0.000  0.000  0.000  0.000  0.000  0.427
 
band     4 # energy    5.19924692 # occ.  2.00000000
 
ion      s     py     pz     px    dxy    dyz    dz2    dxz  x2-y2    tot
    1  0.000  0.029  0.142  0.042  0.000  0.000  0.000  0.000  0.000  0.213
    2  0.000  0.029  0.142  0.042  0.000  0.000  0.000  0.000  0.000  0.213
tot    0.000  0.059  0.283  0.084  0.000  0.000  0.000  0.000  0.000  0.427
 
band     5 # energy    8.00016013 # occ.  0.00000000
 
ion      s     py     pz     px    dxy    dyz    dz2    dxz  x2-y2    tot
    1  0.144  0.019  0.019  0.019  0.000  0.000  0.000  0.000  0.000  0.202
    2  0.144  0.019  0.019  0.019  0.000  0.000  0.000  0.000  0.000  0.202
tot    0.288  0.039  0.039  0.039  0.000  0.000  0.000  0.000  0.000  0.404
 
band     6 # energy    9.24956643 # occ.  0.00000000
 
ion      s     py     pz     px    dxy    dyz    dz2    dxz  x2-y2    tot
    1  0.000  0.043  0.070  0.035  0.000  0.000  0.000  0.000  0.000  0.147
    2  0.000  0.043  0.070  0.035  0.000  0.000  0.000  0.000  0.000  0.147
tot    0.000  0.086  0.139  0.070  0.000  0.000  0.000  0.000  0.000  0.295
 
band     7 # energy    9.24956643 # occ.  0.00000000
 
ion      s     py     pz     px    dxy    dyz    dz2    dxz  x2-y2    tot
    1  0.000  0.055  0.029  0.063  0.000  0.000  0.000  0.000  0.000  0.147
    2  0.000  0.055  0.029  0.063  0.000  0.000  0.000  0.000  0.000  0.147
tot    0.000  0.111  0.057  0.127  0.000  0.000  0.000  0.000  0.000  0.295
 
band     8 # energy   12.14678678 # occ.  0.00000000
 
ion      s     py     pz     px    dxy    dyz    dz2    dxz  x2-y2    tot
    1  0.139  0.046  0.046  0.046  0.000  0.000  0.000  0.000  0.000  0.276
    2  0.139  0.046  0.045  0.046  0.000  0.000  0.000  0.000  0.000  0.276
tot    0.278  0.091  0.091  0.091  0.000  0.000  0.000  0.000  0.000  0.552
 
band     9 # energy   14.85310655 # occ.  0.00000000
 
ion      s     py     pz     px    dxy    dyz    dz2    dxz  x2-y2    tot
    1  0.043  0.010  0.011  0.008  0.000  0.000  0.000  0.000  0.000  0.072
    2  0.044  0.006  0.015  0.010  0.000  0.000  0.000  0.000  0.000  0.075
tot    0.087  0.016  0.026  0.018  0.000  0.000  0.000  0.000  0.000  0.147
 
band    10 # energy   17.01435336 # occ.  0.00000000
 
ion      s     py     pz     px    dxy    dyz    dz2    dxz  x2-y2    tot
    1  0.041  0.015  0.016  0.017  0.000  0.000  0.000  0.000  0.000  0.090
    2  0.040  0.018  0.016  0.016  0.000  0.000  0.000  0.000  0.000  0.089
tot    0.081  0.033  0.032  0.033  0.000  0.000  0.000  0.000  0.000  0.179
 
band    11 # energy   24.01163545 # occ.  0.00000000
 
ion      s     py     pz     px    dxy    dyz    dz2    dxz  x2-y2    tot
    1  0.012  0.017  0.008  0.027  0.000  0.000  0.000  0.000  0.000  0.064
    2  0.010  0.033  0.018  0.003  0.000  0.000  0.000  0.000  0.000  0.065
tot    0.023  0.050  0.026  0.030  0.000  0.000  0.000  0.000  0.000  0.129
 
band    12 # energy   25.74211177 # occ.  0.00000000
 
ion      s     py     pz     px    dxy    dyz    dz2    dxz  x2-y2    tot
    1  0.024  0.021  0.024  0.030  0.000  0.000  0.000  0.000  0.000  0.100
    2  0.020  0.025  0.034  0.028  0.000  0.000  0.000  0.000  0.000  0.106
tot    0.045  0.045  0.058  0.058  0.000  0.000  0.000  0.000  0.000  0.206
 

 k-point    22 :    0.20000000 0.20000000 0.20000000     weight = 0.00555556

band     1 # energy   -5.61129566 # occ.  2.00000000
 
ion      s     py     pz     px    dxy    dyz    dz2    dxz  x2-y2    tot
    1  0.211  0.002  0.002  0.002  0.000  0.000  0.000  0.000  0.000  0.217
    2  0.211  0.002  0.002  0.002  0.000  0.000  0.000  0.000  0.000  0.217
tot    0.422  0.004  0.004  0.004  0.000  0.000  0.000  0.000  0.000  0.433
 
band     2 # energy    2.82495305 # occ.  2.00000000
 
ion      s     py     pz     px    dxy    dyz    dz2    dxz  x2-y2    tot
    1  0.085  0.044  0.044  0.044  0.000  0.000  0.000  0.000  0.000  0.218
    2  0.085  0.044  0.044  0.044  0.000  0.000  0.000  0.000  0.000  0.218
tot    0.169  0.089  0.089  0.089  0.000  0.000  0.000  0.000  0.000  0.435
 
band     3 # energy    5.25278729 # occ.  2.00000000
 
ion      s     py     pz     px    dxy    dyz    dz2    dxz  x2-y2    tot
    1  0.000  0.001  0.114  0.098  0.000  0.000  0.000  0.000  0.000  0.213
    2  0.000  0.001  0.114  0.098  0.000  0.000  0.000  0.000  0.000  0.213
tot    0.000  0.002  0.228  0.197  0.000  0.000  0.000  0.000  0.000  0.426
 
band     4 # energy    5.25278729 # occ.  2.00000000
 
ion      s     py     pz     px    dxy    dyz    dz2    dxz  x2-y2    tot
    1  0.000  0.141  0.028  0.044  0.000  0.000  0.000  0.000  0.000  0.213
    2  0.000  0.141  0.028  0.044  0.000  0.000  0.000  0.000  0.000  0.213
tot    0.000  0.282  0.056  0.088  0.000  0.000  0.000  0.000  0.000  0.426
 
band     5 # energy    8.05627680 # occ.  0.00000000
 
ion      s     py     pz     px    dxy    dyz    dz2    dxz  x2-y2    tot
    1  0.139  0.021  0.021  0.021  0.000  0.000  0.000  0.000  0.000  0.201
    2  0.139  0.021  0.021  0.021  0.000  0.000  0.000  0.000  0.000  0.201
tot    0.278  0.041  0.041  0.041  0.000  0.000  0.000  0.000  0.000  0.403
 
band     6 # energy    9.19697867 # occ.  0.00000000
 
ion      s     py     pz     px    dxy    dyz    dz2    dxz  x2-y2    tot
    1  0.000  0.067  0.081  0.002  0.000  0.000  0.000  0.000  0.000  0.150
    2  0.000  0.067  0.081  0.002  0.000  0.000  0.000  0.000  0.000  0.150
tot    0.000  0.133  0.162  0.004  0.000  0.000  0.000  0.000  0.000  0.300
 
band     7 # energy    9.19697870 # occ.  0.00000000
 
ion      s     py     pz     px    dxy    dyz    dz2    dxz  x2-y2    tot
    1  0.000  0.033  0.019  0.098  0.000  0.000  0.000  0.000  0.000  0.150
    2  0.000  0.033  0.019  0.098  0.000  0.000  0.000  0.000  0.000  0.150
tot    0.000  0.067  0.038  0.196  0.000  0.000  0.000  0.000  0.000  0.300
 
band     8 # energy   12.75839259 # occ.  0.00000000
 
ion      s     py     pz     px    dxy    dyz    dz2    dxz  x2-y2    tot
    1  0.019  0.005  0.012  0.006  0.000  0.000  0.000  0.000  0.000  0.042
    2  0.019  0.007  0.009  0.006  0.000  0.000  0.000  0.000  0.000  0.042
tot    0.038  0.012  0.021  0.013  0.000  0.000  0.000  0.000  0.000  0.084
 
band     9 # energy   14.98418107 # occ.  0.00000000
 
ion      s     py     pz     px    dxy    dyz    dz2    dxz  x2-y2    tot
    1  0.048  0.012  0.012  0.012  0.000  0.000  0.000  0.000  0.000  0.084
    2  0.048  0.012  0.012  0.012  0.000  0.000  0.000  0.000  0.000  0.084
tot    0.096  0.025  0.024  0.024  0.000  0.000  0.000  0.000  0.000  0.169
 
band    10 # energy   16.80317788 # occ.  0.00000000
 
ion      s     py     pz     px    dxy    dyz    dz2    dxz  x2-y2    tot
    1  0.039  0.013  0.014  0.012  0.000  0.000  0.000  0.000  0.000  0.077
    2  0.040  0.014  0.012  0.014  0.000  0.000  0.000  0.000  0.000  0.079
tot    0.078  0.027  0.026  0.026  0.000  0.000  0.000  0.000  0.000  0.157
 
band    11 # energy   23.88676800 # occ.  0.00000000
 
ion      s     py     pz     px    dxy    dyz    dz2    dxz  x2-y2    tot
    1  0.012  0.021  0.014  0.004  0.000  0.000  0.000  0.000  0.000  0.051
    2  0.016  0.002  0.013  0.016  0.000  0.000  0.000  0.000  0.000  0.047
tot    0.028  0.023  0.027  0.020  0.000  0.000  0.000  0.000  0.000  0.099
 
band    12 # energy   25.58888344 # occ.  0.00000000
 
ion      s     py     pz     px    dxy    dyz    dz2    dxz  x2-y2    tot
    1  0.010  0.017  0.028  0.030  0.000  0.000  0.000  0.000  0.000  0.085
    2  0.014  0.003  0.031  0.034  0.000  0.000  0.000  0.000  0.000  0.082
tot    0.024  0.019  0.059  0.064  0.000  0.000  0.000  0.000  0.000  0.166
 

 k-point    23 :    0.18571429 0.18571429 0.18571429     weight = 0.00555556

band     1 # energy   -5.68153715 # occ.  2.00000000
 
ion      s     py     pz     px    dxy    dyz    dz2    dxz  x2-y2    tot
    1  0.211  0.002  0.002  0.002  0.000  0.000  0.000  0.000  0.000  0.216
    2  0.211  0.002  0.002  0.002  0.000  0.000  0.000  0.000  0.000  0.216
tot    0.423  0.003  0.003  0.003  0.000  0.000  0.000  0.000  0.000  0.432
 
band     2 # energy    3.09313402 # occ.  2.00000000
 
ion      s     py     pz     px    dxy    dyz    dz2    dxz  x2-y2    tot
    1  0.081  0.046  0.046  0.046  0.000  0.000  0.000  0.000  0.000  0.218
    2  0.081  0.046  0.046  0.046  0.000  0.000  0.000  0.000  0.000  0.218
tot    0.162  0.091  0.091  0.091  0.000  0.000  0.000  0.000  0.000  0.436
 
band     3 # energy    5.30752255 # occ.  2.00000000
 
ion      s     py     pz     px    dxy    dyz    dz2    dxz  x2-y2    tot
    1  0.000  0.014  0.063  0.136  0.000  0.000  0.000  0.000  0.000  0.213
    2  0.000  0.014  0.063  0.136  0.000  0.000  0.000  0.000  0.000  0.213
tot    0.000  0.028  0.126  0.272  0.000  0.000  0.000  0.000  0.000  0.426
 
band     4 # energy    5.30752256 # occ.  2.00000000
 
ion      s     py     pz     px    dxy    dyz    dz2    dxz  x2-y2    tot
    1  0.000  0.128  0.079  0.006  0.000  0.000  0.000  0.000  0.000  0.213
    2  0.000  0.128  0.079  0.006  0.000  0.000  0.000  0.000  0.000  0.213
tot    0.000  0.256  0.158  0.012  0.000  0.000  0.000  0.000  0.000  0.426
 
band     5 # energy    8.11260191 # occ.  0.00000000
 
ion      s     py     pz     px    dxy    dyz    dz2    dxz  x2-y2    tot
    1  0.134  0.022  0.022  0.022  0.000  0.000  0.000  0.000  0.000  0.201
    2  0.134  0.022  0.022  0.022  0.000  0.000  0.000  0.000  0.000  0.201
tot    0.267  0.045  0.045  0.045  0.000  0.000  0.000  0.000  0.000  0.401
 
band     6 # energy    9.13602944 # occ.  0.00000000
 
ion      s     py     pz     px    dxy    dyz    dz2    dxz  x2-y2    tot
    1  0.000  0.101  0.024  0.027  0.000  0.000  0.000  0.000  0.000  0.152
    2  0.000  0.101  0.024  0.027  0.000  0.000  0.000  0.000  0.000  0.152
tot    0.000  0.202  0.048  0.054  0.000  0.000  0.000  0.000  0.000  0.304
 
band     7 # energy    9.13602946 # occ.  0.00000000
 
ion      s     py     pz     px    dxy    dyz    dz2    dxz  x2-y2    tot
    1  0.000  0.000  0.077  0.074  0.000  0.000  0.000  0.000  0.000  0.152
    2  0.000  0.000  0.077  0.074  0.000  0.000  0.000  0.000  0.000  0.152
tot    0.000  0.000  0.155  0.149  0.000  0.000  0.000  0.000  0.000  0.304
 
band     8 # energy   11.63633514 # occ.  0.00000000
 
ion      s     py     pz     px    dxy    dyz    dz2    dxz  x2-y2    tot
    1  0.159  0.042  0.042  0.042  0.000  0.000  0.000  0.000  0.000  0.284
    2  0.159  0.042  0.042  0.042  0.000  0.000  0.000  0.000  0.000  0.284
tot    0.317  0.084  0.084  0.084  0.000  0.000  0.000  0.000  0.000  0.569
 
band     9 # energy   12.88632047 # occ.  0.00000000
 
ion      s     py     pz     px    dxy    dyz    dz2    dxz  x2-y2    tot
    1  0.000  0.001  0.003  0.000  0.000  0.000  0.000  0.000  0.000  0.005
    2  0.000  0.001  0.003  0.000  0.000  0.000  0.000  0.000  0.000  0.005
tot    0.000  0.003  0.007  0.001  0.000  0.000  0.000  0.000  0.000  0.011
 
band    10 # energy   14.98449747 # occ.  0.00000000
 
ion      s     py     pz     px    dxy    dyz    dz2    dxz  x2-y2    tot
    1  0.052  0.013  0.013  0.014  0.000  0.000  0.000  0.000  0.000  0.092
    2  0.052  0.013  0.013  0.014  0.000  0.000  0.000  0.000  0.000  0.092
tot    0.104  0.027  0.027  0.027  0.000  0.000  0.000  0.000  0.000  0.184
 
band    11 # energy   16.63304712 # occ.  0.00000000
 
ion      s     py     pz     px    dxy    dyz    dz2    dxz  x2-y2    tot
    1  0.036  0.012  0.010  0.009  0.000  0.000  0.000  0.000  0.000  0.067
    2  0.036  0.010  0.011  0.010  0.000  0.000  0.000  0.000  0.000  0.067
tot    0.072  0.021  0.021  0.020  0.000  0.000  0.000  0.000  0.000  0.134
 
band    12 # energy   24.60172170 # occ.  0.00000000
 
ion      s     py     pz     px    dxy    dyz    dz2    dxz  x2-y2    tot
    1  0.012  0.018  0.029  0.009  0.000  0.000  0.000  0.000  0.000  0.067
    2  0.006  0.046  0.022  0.006  0.000  0.000  0.000  0.000  0.000  0.080
tot    0.018  0.064  0.051  0.014  0.000  0.000  0.000  0.000  0.000  0.147
 

 k-point    24 :    0.17142857 0.17142857 0.17142857     weight = 0.00555556

band     1 # energy   -5.74691205 # occ.  2.00000000
 
ion      s     py     pz     px    dxy    dyz    dz2    dxz  x2-y2    tot
    1  0.212  0.001  0.001  0.001  0.000  0.000  0.000  0.000  0.000  0.216
    2  0.212  0.001  0.001  0.001  0.000  0.000  0.000  0.000  0.000  0.216
tot    0.423  0.003  0.003  0.003  0.000  0.000  0.000  0.000  0.000  0.432
 
band     2 # energy    3.36258676 # occ.  2.00000000
 
ion      s     py     pz     px    dxy    dyz    dz2    dxz  x2-y2    tot
    1  0.077  0.047  0.047  0.047  0.000  0.000  0.000  0.000  0.000  0.219
    2  0.077  0.047  0.047  0.047  0.000  0.000  0.000  0.000  0.000  0.219
tot    0.154  0.094  0.094  0.094  0.000  0.000  0.000  0.000  0.000  0.438
 
band     3 # energy    5.36306567 # occ.  2.00000000
 
ion      s     py     pz     px    dxy    dyz    dz2    dxz  x2-y2    tot
    1  0.000  0.003  0.097  0.113  0.000  0.000  0.000  0.000  0.000  0.213
    2  0.000  0.003  0.097  0.113  0.000  0.000  0.000  0.000  0.000  0.213
tot    0.000  0.006  0.193  0.226  0.000  0.000  0.000  0.000  0.000  0.426
 
band     4 # energy    5.36306567 # occ.  2.00000000
 
ion      s     py     pz     px    dxy    dyz    dz2    dxz  x2-y2    tot
    1  0.000  0.139  0.045  0.029  0.000  0.000  0.000  0.000  0.000  0.213
    2  0.000  0.139  0.045  0.029  0.000  0.000  0.000  0.000  0.000  0.213
tot    0.000  0.278  0.091  0.057  0.000  0.000  0.000  0.000  0.000  0.426
 
band     5 # energy    8.16859858 # occ.  0.00000000
 
ion      s     py     pz     px    dxy    dyz    dz2    dxz  x2-y2    tot
    1  0.128  0.024  0.024  0.024  0.000  0.000  0.000  0.000  0.000  0.200
    2  0.128  0.024  0.024  0.024  0.000  0.000  0.000  0.000  0.000  0.200
tot    0.255  0.048  0.048  0.048  0.000  0.000  0.000  0.000  0.000  0.399
 
band     6 # energy    9.06813832 # occ.  0.00000000
 
ion      s     py     pz     px    dxy    dyz    dz2    dxz  x2-y2    tot
    1  0.000  0.057  0.025  0.071  0.000  0.000  0.000  0.000  0.000  0.153
    2  0.000  0.057  0.025  0.071  0.000  0.000  0.000  0.000  0.000  0.153
tot    0.000  0.115  0.050  0.142  0.000  0.000  0.000  0.000  0.000  0.307
 
band     7 # energy    9.06813833 # occ.  0.00000000
 
ion      s     py     pz     px    dxy    dyz    dz2    dxz  x2-y2    tot
    1  0.000  0.045  0.077  0.031  0.000  0.000  0.000  0.000  0.000  0.153
    2  0.000  0.045  0.077  0.031  0.000  0.000  0.000  0.000  0.000  0.153
tot    0.000  0.090  0.154  0.063  0.000  0.000  0.000  0.000  0.000  0.307
 
band     8 # energy   11.37933662 # occ.  0.00000000
 
ion      s     py     pz     px    dxy    dyz    dz2    dxz  x2-y2    tot
    1  0.169  0.040  0.040  0.040  0.000  0.000  0.000  0.000  0.000  0.288
    2  0.169  0.040  0.040  0.040  0.000  0.000  0.000  0.000  0.000  0.288
tot    0.338  0.080  0.080  0.080  0.000  0.000  0.000  0.000  0.000  0.576
 
band     9 # energy   12.90754527 # occ.  0.00000000
 
ion      s     py     pz     px    dxy    dyz    dz2    dxz  x2-y2    tot
    1  0.000  0.000  0.002  0.002  0.000  0.000  0.000  0.000  0.000  0.004
    2  0.000  0.000  0.002  0.002  0.000  0.000  0.000  0.000  0.000  0.004
tot    0.000  0.000  0.003  0.005  0.000  0.000  0.000  0.000  0.000  0.008
 
band    10 # energy   14.99926127 # occ.  0.00000000
 
ion      s     py     pz     px    dxy    dyz    dz2    dxz  x2-y2    tot
    1  0.062  0.015  0.018  0.017  0.000  0.000  0.000  0.000  0.000  0.112
    2  0.064  0.014  0.017  0.017  0.000  0.000  0.000  0.000  0.000  0.112
tot    0.126  0.029  0.035  0.034  0.000  0.000  0.000  0.000  0.000  0.224
 
band    11 # energy   24.70999611 # occ.  0.00000000
 
ion      s     py     pz     px    dxy    dyz    dz2    dxz  x2-y2    tot
    1  0.015  0.012  0.009  0.002  0.000  0.000  0.000  0.000  0.000  0.038
    2  0.013  0.012  0.021  0.001  0.000  0.000  0.000  0.000  0.000  0.047
tot    0.028  0.024  0.031  0.002  0.000  0.000  0.000  0.000  0.000  0.085
 
band    12 # energy   25.77149650 # occ.  0.00000000
 
ion      s     py     pz     px    dxy    dyz    dz2    dxz  x2-y2    tot
    1  0.002  0.026  0.008  0.018  0.000  0.000  0.000  0.000  0.000  0.054
    2  0.002  0.023  0.018  0.006  0.000  0.000  0.000  0.000  0.000  0.049
tot    0.003  0.050  0.026  0.024  0.000  0.000  0.000  0.000  0.000  0.103
 

 k-point    25 :    0.15714286 0.15714286 0.15714286     weight = 0.00555556

band     1 # energy   -5.80732541 # occ.  2.00000000
 
ion      s     py     pz     px    dxy    dyz    dz2    dxz  x2-y2    tot
    1  0.212  0.001  0.001  0.001  0.000  0.000  0.000  0.000  0.000  0.215
    2  0.212  0.001  0.001  0.001  0.000  0.000  0.000  0.000  0.000  0.215
tot    0.424  0.002  0.002  0.002  0.000  0.000  0.000  0.000  0.000  0.431
 
band     2 # energy    3.63239584 # occ.  2.00000000
 
ion      s     py     pz     px    dxy    dyz    dz2    dxz  x2-y2    tot
    1  0.073  0.049  0.049  0.049  0.000  0.000  0.000  0.000  0.000  0.219
    2  0.073  0.049  0.049  0.049  0.000  0.000  0.000  0.000  0.000  0.219
tot    0.146  0.098  0.098  0.098  0.000  0.000  0.000  0.000  0.000  0.438
 
band     3 # energy    5.41895052 # occ.  2.00000000
 
ion      s     py     pz     px    dxy    dyz    dz2    dxz  x2-y2    tot
    1  0.000  0.106  0.000  0.107  0.000  0.000  0.000  0.000  0.000  0.213
    2  0.000  0.106  0.000  0.107  0.000  0.000  0.000  0.000  0.000  0.213
tot    0.000  0.212  0.000  0.214  0.000  0.000  0.000  0.000  0.000  0.426
 
band     4 # energy    5.41895056 # occ.  2.00000000
 
ion      s     py     pz     px    dxy    dyz    dz2    dxz  x2-y2    tot
    1  0.000  0.036  0.142  0.035  0.000  0.000  0.000  0.000  0.000  0.213
    2  0.000  0.036  0.142  0.035  0.000  0.000  0.000  0.000  0.000  0.213
tot    0.000  0.072  0.284  0.070  0.000  0.000  0.000  0.000  0.000  0.426
 
band     5 # energy    8.22349318 # occ.  0.00000000
 
ion      s     py     pz     px    dxy    dyz    dz2    dxz  x2-y2    tot
    1  0.121  0.026  0.026  0.026  0.000  0.000  0.000  0.000  0.000  0.198
    2  0.121  0.026  0.026  0.026  0.000  0.000  0.000  0.000  0.000  0.198
tot    0.241  0.052  0.052  0.052  0.000  0.000  0.000  0.000  0.000  0.396
 
band     6 # energy    8.99501161 # occ.  0.00000000
 
ion      s     py     pz     px    dxy    dyz    dz2    dxz  x2-y2    tot
    1  0.000  0.051  0.055  0.049  0.000  0.000  0.000  0.000  0.000  0.154
    2  0.000  0.051  0.055  0.049  0.000  0.000  0.000  0.000  0.000  0.154
tot    0.000  0.101  0.110  0.098  0.000  0.000  0.000  0.000  0.000  0.309
 
band     7 # energy    8.99501168 # occ.  0.00000000
 
ion      s     py     pz     px    dxy    dyz    dz2    dxz  x2-y2    tot
    1  0.000  0.052  0.048  0.054  0.000  0.000  0.000  0.000  0.000  0.154
    2  0.000  0.052  0.048  0.054  0.000  0.000  0.000  0.000  0.000  0.154
tot    0.000  0.105  0.096  0.108  0.000  0.000  0.000  0.000  0.000  0.309
 
band     8 # energy   11.12236378 # occ.  0.00000000
 
ion      s     py     pz     px    dxy    dyz    dz2    dxz  x2-y2    tot
    1  0.179  0.038  0.038  0.038  0.000  0.000  0.000  0.000  0.000  0.292
    2  0.179  0.038  0.038  0.038  0.000  0.000  0.000  0.000  0.000  0.292
tot    0.359  0.075  0.075  0.075  0.000  0.000  0.000  0.000  0.000  0.584
 
band     9 # energy   12.94432531 # occ.  0.00000000
 
ion      s     py     pz     px    dxy    dyz    dz2    dxz  x2-y2    tot
    1  0.000  0.000  0.002  0.001  0.000  0.000  0.000  0.000  0.000  0.003
    2  0.000  0.000  0.002  0.001  0.000  0.000  0.000  0.000  0.000  0.003
tot    0.000  0.001  0.004  0.002  0.000  0.000  0.000  0.000  0.000  0.006
 
band    10 # energy   12.94432549 # occ.  0.00000000
 
ion      s     py     pz     px    dxy    dyz    dz2    dxz  x2-y2    tot
    1  0.000  0.002  0.000  0.001  0.000  0.000  0.000  0.000  0.000  0.003
    2  0.000  0.002  0.000  0.001  0.000  0.000  0.000  0.000  0.000  0.003
tot    0.000  0.003  0.000  0.003  0.000  0.000  0.000  0.000  0.000  0.006
 
band    11 # energy   14.86540896 # occ.  0.00000000
 
ion      s     py     pz     px    dxy    dyz    dz2    dxz  x2-y2    tot
    1  0.065  0.014  0.014  0.014  0.000  0.000  0.000  0.000  0.000  0.107
    2  0.064  0.014  0.014  0.014  0.000  0.000  0.000  0.000  0.000  0.107
tot    0.130  0.028  0.028  0.028  0.000  0.000  0.000  0.000  0.000  0.214
 
band    12 # energy   26.17410063 # occ.  0.00000000
 
ion      s     py     pz     px    dxy    dyz    dz2    dxz  x2-y2    tot
    1  0.004  0.008  0.027  0.012  0.000  0.000  0.000  0.000  0.000  0.051
    2  0.004  0.001  0.039  0.007  0.000  0.000  0.000  0.000  0.000  0.052
tot    0.008  0.010  0.066  0.019  0.000  0.000  0.000  0.000  0.000  0.103
 

 k-point    26 :    0.14285714 0.14285714 0.14285714     weight = 0.00555556

band     1 # energy   -5.86270173 # occ.  2.00000000
 
ion      s     py     pz     px    dxy    dyz    dz2    dxz  x2-y2    tot
    1  0.212  0.001  0.001  0.001  0.000  0.000  0.000  0.000  0.000  0.215
    2  0.212  0.001  0.001  0.001  0.000  0.000  0.000  0.000  0.000  0.215
tot    0.424  0.002  0.002  0.002  0.000  0.000  0.000  0.000  0.000  0.430
 
band     2 # energy    3.90149686 # occ.  2.00000000
 
ion      s     py     pz     px    dxy    dyz    dz2    dxz  x2-y2    tot
    1  0.068  0.051  0.051  0.051  0.000  0.000  0.000  0.000  0.000  0.220
    2  0.068  0.051  0.051  0.051  0.000  0.000  0.000  0.000  0.000  0.220
tot    0.136  0.101  0.101  0.101  0.000  0.000  0.000  0.000  0.000  0.439
 
band     3 # energy    5.47459121 # occ.  2.00000000
 
ion      s     py     pz     px    dxy    dyz    dz2    dxz  x2-y2    tot
    1  0.000  0.049  0.137  0.028  0.000  0.000  0.000  0.000  0.000  0.213
    2  0.000  0.049  0.137  0.028  0.000  0.000  0.000  0.000  0.000  0.213
tot    0.000  0.098  0.273  0.056  0.000  0.000  0.000  0.000  0.000  0.426
 
band     4 # energy    5.47459127 # occ.  2.00000000
 
ion      s     py     pz     px    dxy    dyz    dz2    dxz  x2-y2    tot
    1  0.000  0.093  0.006  0.114  0.000  0.000  0.000  0.000  0.000  0.213
    2  0.000  0.093  0.006  0.114  0.000  0.000  0.000  0.000  0.000  0.213
tot    0.000  0.187  0.011  0.229  0.000  0.000  0.000  0.000  0.000  0.426
 
band     5 # energy    8.27635337 # occ.  0.00000000
 
ion      s     py     pz     px    dxy    dyz    dz2    dxz  x2-y2    tot
    1  0.113  0.028  0.028  0.028  0.000  0.000  0.000  0.000  0.000  0.196
    2  0.113  0.028  0.028  0.028  0.000  0.000  0.000  0.000  0.000  0.196
tot    0.226  0.056  0.056  0.056  0.000  0.000  0.000  0.000  0.000  0.393
 
band     6 # energy    8.91854324 # occ.  0.00000000
 
ion      s     py     pz     px    dxy    dyz    dz2    dxz  x2-y2    tot
    1  0.000  0.081  0.003  0.071  0.000  0.000  0.000  0.000  0.000  0.155
    2  0.000  0.081  0.003  0.071  0.000  0.000  0.000  0.000  0.000  0.155
tot    0.000  0.162  0.007  0.141  0.000  0.000  0.000  0.000  0.000  0.310
 
band     7 # energy    8.91854328 # occ.  0.00000000
 
ion      s     py     pz     px    dxy    dyz    dz2    dxz  x2-y2    tot
    1  0.000  0.022  0.100  0.033  0.000  0.000  0.000  0.000  0.000  0.155
    2  0.000  0.022  0.100  0.033  0.000  0.000  0.000  0.000  0.000  0.155
tot    0.000  0.045  0.200  0.065  0.000  0.000  0.000  0.000  0.000  0.310
 
band     8 # energy   10.86681725 # occ.  0.00000000
 
ion      s     py     pz     px    dxy    dyz    dz2    dxz  x2-y2    tot
    1  0.191  0.035  0.035  0.035  0.000  0.000  0.000  0.000  0.000  0.296
    2  0.191  0.035  0.035  0.035  0.000  0.000  0.000  0.000  0.000  0.296
tot    0.382  0.070  0.070  0.070  0.000  0.000  0.000  0.000  0.000  0.592
 
band     9 # energy   12.99434878 # occ.  0.00000000
 
ion      s     py     pz     px    dxy    dyz    dz2    dxz  x2-y2    tot
    1  0.000  0.001  0.000  0.001  0.000  0.000  0.000  0.000  0.000  0.002
    2  0.000  0.001  0.000  0.001  0.000  0.000  0.000  0.000  0.000  0.002
tot    0.000  0.002  0.000  0.003  0.000  0.000  0.000  0.000  0.000  0.005
 
band    10 # energy   12.99434883 # occ.  0.00000000
 
ion      s     py     pz     px    dxy    dyz    dz2    dxz  x2-y2    tot
    1  0.000  0.001  0.001  0.000  0.000  0.000  0.000  0.000  0.000  0.002
    2  0.000  0.001  0.001  0.000  0.000  0.000  0.000  0.000  0.000  0.002
tot    0.000  0.002  0.003  0.000  0.000  0.000  0.000  0.000  0.000  0.005
 
band    11 # energy   14.75082323 # occ.  0.00000000
 
ion      s     py     pz     px    dxy    dyz    dz2    dxz  x2-y2    tot
    1  0.071  0.013  0.013  0.013  0.000  0.000  0.000  0.000  0.000  0.110
    2  0.071  0.013  0.013  0.013  0.000  0.000  0.000  0.000  0.000  0.110
tot    0.142  0.026  0.026  0.026  0.000  0.000  0.000  0.000  0.000  0.219
 
band    12 # energy   16.46978254 # occ.  0.00000000
 
ion      s     py     pz     px    dxy    dyz    dz2    dxz  x2-y2    tot
    1  0.021  0.007  0.007  0.007  0.000  0.000  0.000  0.000  0.000  0.042
    2  0.021  0.007  0.007  0.007  0.000  0.000  0.000  0.000  0.000  0.042
tot    0.043  0.014  0.013  0.014  0.000  0.000  0.000  0.000  0.000  0.083
 

 k-point    27 :    0.12857143 0.12857143 0.12857143     weight = 0.00555556

band     1 # energy   -5.91297106 # occ.  2.00000000
 
ion      s     py     pz     px    dxy    dyz    dz2    dxz  x2-y2    tot
    1  0.212  0.001  0.001  0.001  0.000  0.000  0.000  0.000  0.000  0.215
    2  0.212  0.001  0.001  0.001  0.000  0.000  0.000  0.000  0.000  0.215
tot    0.425  0.002  0.002  0.002  0.000  0.000  0.000  0.000  0.000  0.429
 
band     2 # energy    4.16833167 # occ.  2.00000000
 
ion      s     py     pz     px    dxy    dyz    dz2    dxz  x2-y2    tot
    1  0.063  0.052  0.052  0.052  0.000  0.000  0.000  0.000  0.000  0.220
    2  0.063  0.052  0.052  0.052  0.000  0.000  0.000  0.000  0.000  0.220
tot    0.125  0.105  0.105  0.105  0.000  0.000  0.000  0.000  0.000  0.440
 
band     3 # energy    5.52939064 # occ.  2.00000000
 
ion      s     py     pz     px    dxy    dyz    dz2    dxz  x2-y2    tot
    1  0.000  0.067  0.119  0.028  0.000  0.000  0.000  0.000  0.000  0.213
    2  0.000  0.067  0.119  0.028  0.000  0.000  0.000  0.000  0.000  0.213
tot    0.000  0.133  0.238  0.056  0.000  0.000  0.000  0.000  0.000  0.427
 
band     4 # energy    5.52939065 # occ.  2.00000000
 
ion      s     py     pz     px    dxy    dyz    dz2    dxz  x2-y2    tot
    1  0.000  0.076  0.023  0.114  0.000  0.000  0.000  0.000  0.000  0.213
    2  0.000  0.076  0.023  0.114  0.000  0.000  0.000  0.000  0.000  0.213
tot    0.000  0.151  0.047  0.229  0.000  0.000  0.000  0.000  0.000  0.427
 
band     5 # energy    8.32597206 # occ.  0.00000000
 
ion      s     py     pz     px    dxy    dyz    dz2    dxz  x2-y2    tot
    1  0.104  0.030  0.030  0.030  0.000  0.000  0.000  0.000  0.000  0.194
    2  0.104  0.030  0.030  0.030  0.000  0.000  0.000  0.000  0.000  0.194
tot    0.208  0.060  0.060  0.060  0.000  0.000  0.000  0.000  0.000  0.388
 
band     6 # energy    8.84068606 # occ.  0.00000000
 
ion      s     py     pz     px    dxy    dyz    dz2    dxz  x2-y2    tot
    1  0.000  0.028  0.032  0.095  0.000  0.000  0.000  0.000  0.000  0.155
    2  0.000  0.028  0.032  0.095  0.000  0.000  0.000  0.000  0.000  0.155
tot    0.000  0.056  0.063  0.191  0.000  0.000  0.000  0.000  0.000  0.310
 
band     7 # energy    8.84068607 # occ.  0.00000000
 
ion      s     py     pz     px    dxy    dyz    dz2    dxz  x2-y2    tot
    1  0.000  0.075  0.072  0.008  0.000  0.000  0.000  0.000  0.000  0.155
    2  0.000  0.075  0.072  0.008  0.000  0.000  0.000  0.000  0.000  0.155
tot    0.000  0.151  0.143  0.016  0.000  0.000  0.000  0.000  0.000  0.310
 
band     8 # energy   10.61448415 # occ.  0.00000000
 
ion      s     py     pz     px    dxy    dyz    dz2    dxz  x2-y2    tot
    1  0.204  0.032  0.032  0.032  0.000  0.000  0.000  0.000  0.000  0.301
    2  0.204  0.032  0.032  0.032  0.000  0.000  0.000  0.000  0.000  0.301
tot    0.408  0.064  0.064  0.064  0.000  0.000  0.000  0.000  0.000  0.602
 
band     9 # energy   13.05483683 # occ.  0.00000000
 
ion      s     py     pz     px    dxy    dyz    dz2    dxz  x2-y2    tot
    1  0.000  0.001  0.000  0.001  0.000  0.000  0.000  0.000  0.000  0.002
    2  0.000  0.001  0.000  0.001  0.000  0.000  0.000  0.000  0.000  0.002
tot    0.000  0.002  0.000  0.002  0.000  0.000  0.000  0.000  0.000  0.004
 
band    10 # energy   14.61522895 # occ.  0.00000000
 
ion      s     py     pz     px    dxy    dyz    dz2    dxz  x2-y2    tot
    1  0.077  0.011  0.011  0.011  0.000  0.000  0.000  0.000  0.000  0.110
    2  0.076  0.011  0.011  0.011  0.000  0.000  0.000  0.000  0.000  0.110
tot    0.154  0.022  0.022  0.023  0.000  0.000  0.000  0.000  0.000  0.221
 
band    11 # energy   16.57950812 # occ.  0.00000000
 
ion      s     py     pz     px    dxy    dyz    dz2    dxz  x2-y2    tot
    1  0.016  0.007  0.010  0.005  0.000  0.000  0.000  0.000  0.000  0.039
    2  0.017  0.011  0.007  0.004  0.000  0.000  0.000  0.000  0.000  0.039
tot    0.033  0.018  0.018  0.009  0.000  0.000  0.000  0.000  0.000  0.078
 
band    12 # energy   26.94357910 # occ.  0.00000000
 
ion      s     py     pz     px    dxy    dyz    dz2    dxz  x2-y2    tot
    1  0.002  0.003  0.025  0.013  0.000  0.000  0.000  0.000  0.000  0.043
    2  0.000  0.001  0.022  0.021  0.000  0.000  0.000  0.000  0.000  0.044
tot    0.003  0.003  0.047  0.034  0.000  0.000  0.000  0.000  0.000  0.087
 

 k-point    28 :    0.11428571 0.11428571 0.11428571     weight = 0.00555556

band     1 # energy   -5.95807664 # occ.  2.00000000
 
ion      s     py     pz     px    dxy    dyz    dz2    dxz  x2-y2    tot
    1  0.213  0.001  0.001  0.001  0.000  0.000  0.000  0.000  0.000  0.214
    2  0.213  0.001  0.001  0.001  0.000  0.000  0.000  0.000  0.000  0.214
tot    0.425  0.001  0.001  0.001  0.000  0.000  0.000  0.000  0.000  0.429
 
band     2 # energy    4.43115665 # occ.  2.00000000
 
ion      s     py     pz     px    dxy    dyz    dz2    dxz  x2-y2    tot
    1  0.057  0.054  0.054  0.054  0.000  0.000  0.000  0.000  0.000  0.220
    2  0.057  0.054  0.054  0.054  0.000  0.000  0.000  0.000  0.000  0.220
tot    0.113  0.109  0.109  0.109  0.000  0.000  0.000  0.000  0.000  0.440
 
band     3 # energy    5.58257264 # occ.  2.00000000
 
ion      s     py     pz     px    dxy    dyz    dz2    dxz  x2-y2    tot
    1  0.000  0.074  0.125  0.015  0.000  0.000  0.000  0.000  0.000  0.214
    2  0.000  0.074  0.125  0.015  0.000  0.000  0.000  0.000  0.000  0.214
tot    0.000  0.148  0.250  0.030  0.000  0.000  0.000  0.000  0.000  0.427
 
band     4 # energy    5.58257272 # occ.  2.00000000
 
ion      s     py     pz     px    dxy    dyz    dz2    dxz  x2-y2    tot
    1  0.000  0.069  0.018  0.127  0.000  0.000  0.000  0.000  0.000  0.214
    2  0.000  0.069  0.018  0.127  0.000  0.000  0.000  0.000  0.000  0.214
tot    0.000  0.137  0.035  0.255  0.000  0.000  0.000  0.000  0.000  0.427
 
band     5 # energy    8.37092318 # occ.  0.00000000
 
ion      s     py     pz     px    dxy    dyz    dz2    dxz  x2-y2    tot
    1  0.093  0.033  0.033  0.033  0.000  0.000  0.000  0.000  0.000  0.191
    2  0.093  0.033  0.033  0.033  0.000  0.000  0.000  0.000  0.000  0.191
tot    0.187  0.065  0.065  0.065  0.000  0.000  0.000  0.000  0.000  0.382
 
band     6 # energy    8.76349571 # occ.  0.00000000
 
ion      s     py     pz     px    dxy    dyz    dz2    dxz  x2-y2    tot
    1  0.000  0.003  0.085  0.066  0.000  0.000  0.000  0.000  0.000  0.155
    2  0.000  0.003  0.085  0.066  0.000  0.000  0.000  0.000  0.000  0.155
tot    0.000  0.007  0.170  0.133  0.000  0.000  0.000  0.000  0.000  0.310
 
band     7 # energy    8.76349595 # occ.  0.00000000
 
ion      s     py     pz     px    dxy    dyz    dz2    dxz  x2-y2    tot
    1  0.000  0.100  0.018  0.037  0.000  0.000  0.000  0.000  0.000  0.155
    2  0.000  0.100  0.018  0.037  0.000  0.000  0.000  0.000  0.000  0.155
tot    0.000  0.200  0.036  0.074  0.000  0.000  0.000  0.000  0.000  0.310
 
band     8 # energy   10.36778220 # occ.  0.00000000
 
ion      s     py     pz     px    dxy    dyz    dz2    dxz  x2-y2    tot
    1  0.219  0.029  0.029  0.029  0.000  0.000  0.000  0.000  0.000  0.306
    2  0.219  0.029  0.029  0.029  0.000  0.000  0.000  0.000  0.000  0.306
tot    0.438  0.058  0.058  0.058  0.000  0.000  0.000  0.000  0.000  0.613
 
band     9 # energy   13.12328100 # occ.  0.00000000
 
ion      s     py     pz     px    dxy    dyz    dz2    dxz  x2-y2    tot
    1  0.000  0.000  0.001  0.001  0.000  0.000  0.000  0.000  0.000  0.002
    2  0.000  0.000  0.001  0.001  0.000  0.000  0.000  0.000  0.000  0.002
tot    0.000  0.000  0.001  0.002  0.000  0.000  0.000  0.000  0.000  0.003
 
band    10 # energy   13.12328103 # occ.  0.00000000
 
ion      s     py     pz     px    dxy    dyz    dz2    dxz  x2-y2    tot
    1  0.000  0.001  0.001  0.000  0.000  0.000  0.000  0.000  0.000  0.002
    2  0.000  0.001  0.001  0.000  0.000  0.000  0.000  0.000  0.000  0.002
tot    0.000  0.002  0.001  0.000  0.000  0.000  0.000  0.000  0.000  0.003
 
band    11 # energy   14.47236429 # occ.  0.00000000
 
ion      s     py     pz     px    dxy    dyz    dz2    dxz  x2-y2    tot
    1  0.082  0.009  0.009  0.009  0.000  0.000  0.000  0.000  0.000  0.110
    2  0.082  0.009  0.009  0.009  0.000  0.000  0.000  0.000  0.000  0.110
tot    0.164  0.019  0.019  0.019  0.000  0.000  0.000  0.000  0.000  0.220
 
band    12 # energy   18.07499435 # occ.  0.00000000
 
ion      s     py     pz     px    dxy    dyz    dz2    dxz  x2-y2    tot
    1  0.000  0.003  0.010  0.023  0.000  0.000  0.000  0.000  0.000  0.036
    2  0.000  0.003  0.011  0.022  0.000  0.000  0.000  0.000  0.000  0.036
tot    0.000  0.007  0.021  0.044  0.000  0.000  0.000  0.000  0.000  0.072
 

 k-point    29 :    0.10000000 0.10000000 0.10000000     weight = 0.00555556

band     1 # energy   -5.99797360 # occ.  2.00000000
 
ion      s     py     pz     px    dxy    dyz    dz2    dxz  x2-y2    tot
    1  0.213  0.000  0.000  0.000  0.000  0.000  0.000  0.000  0.000  0.214
    2  0.213  0.000  0.000  0.000  0.000  0.000  0.000  0.000  0.000  0.214
tot    0.426  0.001  0.001  0.001  0.000  0.000  0.000  0.000  0.000  0.428
 
band     2 # energy    4.68751751 # occ.  2.00000000
 
ion      s     py     pz     px    dxy    dyz    dz2    dxz  x2-y2    tot
    1  0.050  0.057  0.057  0.057  0.000  0.000  0.000  0.000  0.000  0.220
    2  0.050  0.057  0.057  0.057  0.000  0.000  0.000  0.000  0.000  0.220
tot    0.100  0.113  0.113  0.113  0.000  0.000  0.000  0.000  0.000  0.440
 
band     3 # energy    5.63326349 # occ.  2.00000000
 
ion      s     py     pz     px    dxy    dyz    dz2    dxz  x2-y2    tot
    1  0.000  0.099  0.112  0.003  0.000  0.000  0.000  0.000  0.000  0.214
    2  0.000  0.099  0.112  0.003  0.000  0.000  0.000  0.000  0.000  0.214
tot    0.000  0.197  0.224  0.006  0.000  0.000  0.000  0.000  0.000  0.428
 
band     4 # energy    5.63326355 # occ.  2.00000000
 
ion      s     py     pz     px    dxy    dyz    dz2    dxz  x2-y2    tot
    1  0.000  0.044  0.030  0.139  0.000  0.000  0.000  0.000  0.000  0.214
    2  0.000  0.044  0.030  0.139  0.000  0.000  0.000  0.000  0.000  0.214
tot    0.000  0.088  0.061  0.279  0.000  0.000  0.000  0.000  0.000  0.428
 
band     5 # energy    8.40932873 # occ.  0.00000000
 
ion      s     py     pz     px    dxy    dyz    dz2    dxz  x2-y2    tot
    1  0.081  0.035  0.035  0.035  0.000  0.000  0.000  0.000  0.000  0.186
    2  0.081  0.035  0.035  0.035  0.000  0.000  0.000  0.000  0.000  0.186
tot    0.161  0.071  0.071  0.071  0.000  0.000  0.000  0.000  0.000  0.373
 
band     6 # energy    8.68906412 # occ.  0.00000000
 
ion      s     py     pz     px    dxy    dyz    dz2    dxz  x2-y2    tot
    1  0.000  0.014  0.074  0.066  0.000  0.000  0.000  0.000  0.000  0.154
    2  0.000  0.014  0.074  0.066  0.000  0.000  0.000  0.000  0.000  0.154
tot    0.000  0.028  0.148  0.133  0.000  0.000  0.000  0.000  0.000  0.309
 
band     7 # energy    8.68906473 # occ.  0.00000000
 
ion      s     py     pz     px    dxy    dyz    dz2    dxz  x2-y2    tot
    1  0.000  0.089  0.029  0.037  0.000  0.000  0.000  0.000  0.000  0.154
    2  0.000  0.089  0.029  0.037  0.000  0.000  0.000  0.000  0.000  0.154
tot    0.000  0.178  0.058  0.073  0.000  0.000  0.000  0.000  0.000  0.309
 
band     8 # energy   10.13001653 # occ.  0.00000000
 
ion      s     py     pz     px    dxy    dyz    dz2    dxz  x2-y2    tot
    1  0.237  0.025  0.025  0.025  0.000  0.000  0.000  0.000  0.000  0.313
    2  0.237  0.025  0.025  0.025  0.000  0.000  0.000  0.000  0.000  0.313
tot    0.473  0.051  0.051  0.051  0.000  0.000  0.000  0.000  0.000  0.626
 
band     9 # energy   13.19666588 # occ.  0.00000000
 
ion      s     py     pz     px    dxy    dyz    dz2    dxz  x2-y2    tot
    1  0.000  0.000  0.000  0.001  0.000  0.000  0.000  0.000  0.000  0.001
    2  0.000  0.000  0.000  0.001  0.000  0.000  0.000  0.000  0.000  0.001
tot    0.000  0.001  0.001  0.001  0.000  0.000  0.000  0.000  0.000  0.003
 
band    10 # energy   13.19666594 # occ.  0.00000000
 
ion      s     py     pz     px    dxy    dyz    dz2    dxz  x2-y2    tot
    1  0.000  0.001  0.000  0.000  0.000  0.000  0.000  0.000  0.000  0.001
    2  0.000  0.001  0.000  0.000  0.000  0.000  0.000  0.000  0.000  0.001
tot    0.000  0.001  0.001  0.001  0.000  0.000  0.000  0.000  0.000  0.003
 
band    11 # energy   14.33120358 # occ.  0.00000000
 
ion      s     py     pz     px    dxy    dyz    dz2    dxz  x2-y2    tot
    1  0.086  0.007  0.007  0.007  0.000  0.000  0.000  0.000  0.000  0.109
    2  0.086  0.007  0.007  0.007  0.000  0.000  0.000  0.000  0.000  0.109
tot    0.173  0.015  0.015  0.015  0.000  0.000  0.000  0.000  0.000  0.217
 
band    12 # energy   27.69971205 # occ.  0.00000000
 
ion      s     py     pz     px    dxy    dyz    dz2    dxz  x2-y2    tot
    1  0.001  0.009  0.015  0.011  0.000  0.000  0.000  0.000  0.000  0.036
    2  0.000  0.028  0.008  0.010  0.000  0.000  0.000  0.000  0.000  0.046
tot    0.001  0.037  0.024  0.021  0.000  0.000  0.000  0.000  0.000  0.083
 

 k-point    30 :    0.08571429 0.08571429 0.08571429     weight = 0.00555556

band     1 # energy   -6.03263827 # occ.  2.00000000
 
ion      s     py     pz     px    dxy    dyz    dz2    dxz  x2-y2    tot
    1  0.213  0.000  0.000  0.000  0.000  0.000  0.000  0.000  0.000  0.214
    2  0.213  0.000  0.000  0.000  0.000  0.000  0.000  0.000  0.000  0.214
tot    0.426  0.001  0.001  0.001  0.000  0.000  0.000  0.000  0.000  0.428
 
band     2 # energy    4.93414725 # occ.  2.00000000
 
ion      s     py     pz     px    dxy    dyz    dz2    dxz  x2-y2    tot
    1  0.042  0.059  0.059  0.059  0.000  0.000  0.000  0.000  0.000  0.220
    2  0.042  0.059  0.059  0.059  0.000  0.000  0.000  0.000  0.000  0.220
tot    0.085  0.118  0.118  0.118  0.000  0.000  0.000  0.000  0.000  0.439
 
band     3 # energy    5.68048636 # occ.  2.00000000
 
ion      s     py     pz     px    dxy    dyz    dz2    dxz  x2-y2    tot
    1  0.000  0.093  0.065  0.056  0.000  0.000  0.000  0.000  0.000  0.214
    2  0.000  0.093  0.065  0.056  0.000  0.000  0.000  0.000  0.000  0.214
tot    0.000  0.187  0.130  0.111  0.000  0.000  0.000  0.000  0.000  0.429
 
band     4 # energy    5.68048635 # occ.  2.00000000
 
ion      s     py     pz     px    dxy    dyz    dz2    dxz  x2-y2    tot
    1  0.000  0.049  0.078  0.087  0.000  0.000  0.000  0.000  0.000  0.214
    2  0.000  0.049  0.078  0.087  0.000  0.000  0.000  0.000  0.000  0.214
tot    0.000  0.099  0.155  0.174  0.000  0.000  0.000  0.000  0.000  0.429
 
band     5 # energy    8.43895262 # occ.  0.00000000
 
ion      s     py     pz     px    dxy    dyz    dz2    dxz  x2-y2    tot
    1  0.066  0.038  0.038  0.038  0.000  0.000  0.000  0.000  0.000  0.181
    2  0.066  0.038  0.038  0.038  0.000  0.000  0.000  0.000  0.000  0.181
tot    0.131  0.077  0.077  0.077  0.000  0.000  0.000  0.000  0.000  0.361
 
band     6 # energy    8.61932767 # occ.  0.00000000
 
ion      s     py     pz     px    dxy    dyz    dz2    dxz  x2-y2    tot
    1  0.000  0.013  0.043  0.098  0.000  0.000  0.000  0.000  0.000  0.154
    2  0.000  0.013  0.043  0.098  0.000  0.000  0.000  0.000  0.000  0.154
tot    0.000  0.026  0.085  0.196  0.000  0.000  0.000  0.000  0.000  0.308
 
band     7 # energy    8.61932768 # occ.  0.00000000
 
ion      s     py     pz     px    dxy    dyz    dz2    dxz  x2-y2    tot
    1  0.000  0.090  0.060  0.004  0.000  0.000  0.000  0.000  0.000  0.154
    2  0.000  0.090  0.060  0.004  0.000  0.000  0.000  0.000  0.000  0.154
tot    0.000  0.179  0.120  0.009  0.000  0.000  0.000  0.000  0.000  0.308
 
band     8 # energy    9.90587471 # occ.  0.00000000
 
ion      s     py     pz     px    dxy    dyz    dz2    dxz  x2-y2    tot
    1  0.257  0.021  0.021  0.021  0.000  0.000  0.000  0.000  0.000  0.321
    2  0.257  0.021  0.021  0.021  0.000  0.000  0.000  0.000  0.000  0.321
tot    0.515  0.042  0.042  0.042  0.000  0.000  0.000  0.000  0.000  0.641
 
band     9 # energy   13.27167305 # occ.  0.00000000
 
ion      s     py     pz     px    dxy    dyz    dz2    dxz  x2-y2    tot
    1  0.000  0.000  0.000  0.001  0.000  0.000  0.000  0.000  0.000  0.001
    2  0.000  0.000  0.000  0.001  0.000  0.000  0.000  0.000  0.000  0.001
tot    0.000  0.000  0.001  0.001  0.000  0.000  0.000  0.000  0.000  0.002
 
band    10 # energy   14.19907518 # occ.  0.00000000
 
ion      s     py     pz     px    dxy    dyz    dz2    dxz  x2-y2    tot
    1  0.090  0.006  0.006  0.006  0.000  0.000  0.000  0.000  0.000  0.107
    2  0.090  0.006  0.006  0.006  0.000  0.000  0.000  0.000  0.000  0.107
tot    0.180  0.011  0.011  0.011  0.000  0.000  0.000  0.000  0.000  0.214
 
band    11 # energy   16.86320704 # occ.  0.00000000
 
ion      s     py     pz     px    dxy    dyz    dz2    dxz  x2-y2    tot
    1  0.007  0.003  0.006  0.021  0.000  0.000  0.000  0.000  0.000  0.038
    2  0.007  0.004  0.005  0.021  0.000  0.000  0.000  0.000  0.000  0.038
tot    0.015  0.008  0.011  0.042  0.000  0.000  0.000  0.000  0.000  0.076
 
band    12 # energy   21.87554544 # occ.  0.00000000
 
ion      s     py     pz     px    dxy    dyz    dz2    dxz  x2-y2    tot
    1  0.032  0.002  0.003  0.003  0.000  0.000  0.000  0.000  0.000  0.040
    2  0.032  0.003  0.003  0.003  0.000  0.000  0.000  0.000  0.000  0.041
tot    0.064  0.005  0.006  0.006  0.000  0.000  0.000  0.000  0.000  0.081
 

 k-point    31 :    0.07142857 0.07142857 0.07142857     weight = 0.00555556

band     1 # energy   -6.06202279 # occ.  2.00000000
 
ion      s     py     pz     px    dxy    dyz    dz2    dxz  x2-y2    tot
    1  0.213  0.000  0.000  0.000  0.000  0.000  0.000  0.000  0.000  0.214
    2  0.213  0.000  0.000  0.000  0.000  0.000  0.000  0.000  0.000  0.214
tot    0.426  0.000  0.000  0.000  0.000  0.000  0.000  0.000  0.000  0.428
 
band     2 # energy    5.16655223 # occ.  2.00000000
 
ion      s     py     pz     px    dxy    dyz    dz2    dxz  x2-y2    tot
    1  0.034  0.062  0.062  0.062  0.000  0.000  0.000  0.000  0.000  0.219
    2  0.034  0.062  0.062  0.062  0.000  0.000  0.000  0.000  0.000  0.219
tot    0.069  0.123  0.123  0.123  0.000  0.000  0.000  0.000  0.000  0.438
 
band     3 # energy    5.72317448 # occ.  2.00000000
 
ion      s     py     pz     px    dxy    dyz    dz2    dxz  x2-y2    tot
    1  0.000  0.109  0.077  0.029  0.000  0.000  0.000  0.000  0.000  0.215
    2  0.000  0.109  0.077  0.029  0.000  0.000  0.000  0.000  0.000  0.215
tot    0.000  0.217  0.154  0.058  0.000  0.000  0.000  0.000  0.000  0.430
 
band     4 # energy    5.72317449 # occ.  2.00000000
 
ion      s     py     pz     px    dxy    dyz    dz2    dxz  x2-y2    tot
    1  0.000  0.035  0.066  0.114  0.000  0.000  0.000  0.000  0.000  0.215
    2  0.000  0.035  0.066  0.114  0.000  0.000  0.000  0.000  0.000  0.215
tot    0.000  0.069  0.132  0.228  0.000  0.000  0.000  0.000  0.000  0.430
 
band     5 # energy    8.45693651 # occ.  0.00000000
 
ion      s     py     pz     px    dxy    dyz    dz2    dxz  x2-y2    tot
    1  0.048  0.042  0.042  0.042  0.000  0.000  0.000  0.000  0.000  0.174
    2  0.048  0.042  0.042  0.042  0.000  0.000  0.000  0.000  0.000  0.174
tot    0.097  0.083  0.083  0.083  0.000  0.000  0.000  0.000  0.000  0.347
 
band     6 # energy    8.55619920 # occ.  0.00000000
 
ion      s     py     pz     px    dxy    dyz    dz2    dxz  x2-y2    tot
    1  0.000  0.051  0.033  0.070  0.000  0.000  0.000  0.000  0.000  0.153
    2  0.000  0.051  0.033  0.070  0.000  0.000  0.000  0.000  0.000  0.153
tot    0.000  0.101  0.066  0.140  0.000  0.000  0.000  0.000  0.000  0.307
 
band     7 # energy    8.55619921 # occ.  0.00000000
 
ion      s     py     pz     px    dxy    dyz    dz2    dxz  x2-y2    tot
    1  0.000  0.052  0.069  0.032  0.000  0.000  0.000  0.000  0.000  0.153
    2  0.000  0.052  0.069  0.032  0.000  0.000  0.000  0.000  0.000  0.153
tot    0.000  0.103  0.138  0.065  0.000  0.000  0.000  0.000  0.000  0.307
 
band     8 # energy    9.70157945 # occ.  0.00000000
 
ion      s     py     pz     px    dxy    dyz    dz2    dxz  x2-y2    tot
    1  0.281  0.016  0.016  0.016  0.000  0.000  0.000  0.000  0.000  0.330
    2  0.281  0.016  0.016  0.016  0.000  0.000  0.000  0.000  0.000  0.330
tot    0.562  0.033  0.033  0.033  0.000  0.000  0.000  0.000  0.000  0.660
 
band     9 # energy   13.34473707 # occ.  0.00000000
 
ion      s     py     pz     px    dxy    dyz    dz2    dxz  x2-y2    tot
    1  0.000  0.000  0.001  0.000  0.000  0.000  0.000  0.000  0.000  0.001
    2  0.000  0.000  0.001  0.000  0.000  0.000  0.000  0.000  0.000  0.001
tot    0.000  0.001  0.001  0.000  0.000  0.000  0.000  0.000  0.000  0.002
 
band    10 # energy   14.08086493 # occ.  0.00000000
 
ion      s     py     pz     px    dxy    dyz    dz2    dxz  x2-y2    tot
    1  0.094  0.004  0.004  0.004  0.000  0.000  0.000  0.000  0.000  0.106
    2  0.093  0.004  0.004  0.004  0.000  0.000  0.000  0.000  0.000  0.106
tot    0.187  0.008  0.008  0.008  0.000  0.000  0.000  0.000  0.000  0.211
 
band    11 # energy   17.39862494 # occ.  0.00000000
 
ion      s     py     pz     px    dxy    dyz    dz2    dxz  x2-y2    tot
    1  0.001  0.009  0.014  0.014  0.000  0.000  0.000  0.000  0.000  0.038
    2  0.001  0.010  0.011  0.016  0.000  0.000  0.000  0.000  0.000  0.038
tot    0.002  0.019  0.025  0.030  0.000  0.000  0.000  0.000  0.000  0.076
 
band    12 # energy   28.57074278 # occ.  0.00000000
 
ion      s     py     pz     px    dxy    dyz    dz2    dxz  x2-y2    tot
    1  0.001  0.002  0.022  0.011  0.000  0.000  0.000  0.000  0.000  0.036
    2  0.000  0.005  0.008  0.016  0.000  0.000  0.000  0.000  0.000  0.030
tot    0.001  0.007  0.030  0.028  0.000  0.000  0.000  0.000  0.000  0.066
 

 k-point    32 :    0.05714286 0.05714286 0.05714286     weight = 0.00555556

band     1 # energy   -6.08609134 # occ.  2.00000000
 
ion      s     py     pz     px    dxy    dyz    dz2    dxz  x2-y2    tot
    1  0.213  0.000  0.000  0.000  0.000  0.000  0.000  0.000  0.000  0.214
    2  0.213  0.000  0.000  0.000  0.000  0.000  0.000  0.000  0.000  0.214
tot    0.426  0.000  0.000  0.000  0.000  0.000  0.000  0.000  0.000  0.427
 
band     2 # energy    5.37859045 # occ.  2.00000000
 
ion      s     py     pz     px    dxy    dyz    dz2    dxz  x2-y2    tot
    1  0.025  0.064  0.064  0.064  0.000  0.000  0.000  0.000  0.000  0.219
    2  0.025  0.064  0.064  0.064  0.000  0.000  0.000  0.000  0.000  0.219
tot    0.051  0.129  0.129  0.129  0.000  0.000  0.000  0.000  0.000  0.437
 
band     3 # energy    5.76023692 # occ.  2.00000000
 
ion      s     py     pz     px    dxy    dyz    dz2    dxz  x2-y2    tot
    1  0.000  0.023  0.051  0.142  0.000  0.000  0.000  0.000  0.000  0.215
    2  0.000  0.023  0.051  0.142  0.000  0.000  0.000  0.000  0.000  0.215
tot    0.000  0.046  0.101  0.283  0.000  0.000  0.000  0.000  0.000  0.430
 
band     4 # energy    5.76023692 # occ.  2.00000000
 
ion      s     py     pz     px    dxy    dyz    dz2    dxz  x2-y2    tot
    1  0.000  0.120  0.093  0.002  0.000  0.000  0.000  0.000  0.000  0.215
    2  0.000  0.120  0.093  0.002  0.000  0.000  0.000  0.000  0.000  0.215
tot    0.000  0.241  0.186  0.004  0.000  0.000  0.000  0.000  0.000  0.430
 
band     5 # energy    8.46081051 # occ.  0.00000000
 
ion      s     py     pz     px    dxy    dyz    dz2    dxz  x2-y2    tot
    1  0.030  0.045  0.045  0.045  0.000  0.000  0.000  0.000  0.000  0.166
    2  0.030  0.045  0.045  0.045  0.000  0.000  0.000  0.000  0.000  0.166
tot    0.060  0.090  0.090  0.090  0.000  0.000  0.000  0.000  0.000  0.331
 
band     6 # energy    8.50153547 # occ.  0.00000000
 
ion      s     py     pz     px    dxy    dyz    dz2    dxz  x2-y2    tot
    1  0.000  0.022  0.048  0.082  0.000  0.000  0.000  0.000  0.000  0.153
    2  0.000  0.022  0.048  0.082  0.000  0.000  0.000  0.000  0.000  0.153
tot    0.000  0.045  0.096  0.165  0.000  0.000  0.000  0.000  0.000  0.306
 
band     7 # energy    8.50153547 # occ.  0.00000000
 
ion      s     py     pz     px    dxy    dyz    dz2    dxz  x2-y2    tot
    1  0.000  0.080  0.054  0.019  0.000  0.000  0.000  0.000  0.000  0.153
    2  0.000  0.080  0.054  0.019  0.000  0.000  0.000  0.000  0.000  0.153
tot    0.000  0.159  0.108  0.039  0.000  0.000  0.000  0.000  0.000  0.306
 
band     8 # energy    9.52503232 # occ.  0.00000000
 
ion      s     py     pz     px    dxy    dyz    dz2    dxz  x2-y2    tot
    1  0.306  0.011  0.011  0.011  0.000  0.000  0.000  0.000  0.000  0.340
    2  0.306  0.011  0.011  0.011  0.000  0.000  0.000  0.000  0.000  0.340
tot    0.613  0.022  0.022  0.022  0.000  0.000  0.000  0.000  0.000  0.679
 
band     9 # energy   13.41222840 # occ.  0.00000000
 
ion      s     py     pz     px    dxy    dyz    dz2    dxz  x2-y2    tot
    1  0.000  0.000  0.000  0.000  0.000  0.000  0.000  0.000  0.000  0.001
    2  0.000  0.000  0.000  0.000  0.000  0.000  0.000  0.000  0.000  0.001
tot    0.000  0.000  0.001  0.001  0.000  0.000  0.000  0.000  0.000  0.001
 
band    10 # energy   13.97696278 # occ.  0.00000000
 
ion      s     py     pz     px    dxy    dyz    dz2    dxz  x2-y2    tot
    1  0.096  0.003  0.003  0.003  0.000  0.000  0.000  0.000  0.000  0.104
    2  0.096  0.003  0.003  0.003  0.000  0.000  0.000  0.000  0.000  0.104
tot    0.191  0.005  0.005  0.005  0.000  0.000  0.000  0.000  0.000  0.207
 
band    11 # energy   17.35020042 # occ.  0.00000000
 
ion      s     py     pz     px    dxy    dyz    dz2    dxz  x2-y2    tot
    1  0.000  0.001  0.016  0.022  0.000  0.000  0.000  0.000  0.000  0.039
    2  0.000  0.001  0.015  0.023  0.000  0.000  0.000  0.000  0.000  0.039
tot    0.000  0.002  0.030  0.045  0.000  0.000  0.000  0.000  0.000  0.077
 
band    12 # energy   29.02027475 # occ.  0.00000000
 
ion      s     py     pz     px    dxy    dyz    dz2    dxz  x2-y2    tot
    1  0.000  0.008  0.011  0.009  0.000  0.000  0.000  0.000  0.000  0.029
    2  0.000  0.003  0.002  0.031  0.000  0.000  0.000  0.000  0.000  0.036
tot    0.001  0.011  0.014  0.040  0.000  0.000  0.000  0.000  0.000  0.065
 

 k-point    33 :    0.04285714 0.04285714 0.04285714     weight = 0.00555556

band     1 # energy   -6.10483504 # occ.  2.00000000
 
ion      s     py     pz     px    dxy    dyz    dz2    dxz  x2-y2    tot
    1  0.213  0.000  0.000  0.000  0.000  0.000  0.000  0.000  0.000  0.214
    2  0.213  0.000  0.000  0.000  0.000  0.000  0.000  0.000  0.000  0.214
tot    0.427  0.000  0.000  0.000  0.000  0.000  0.000  0.000  0.000  0.427
 
band     2 # energy    5.56189707 # occ.  2.00000000
 
ion      s     py     pz     px    dxy    dyz    dz2    dxz  x2-y2    tot
    1  0.016  0.067  0.067  0.067  0.000  0.000  0.000  0.000  0.000  0.218
    2  0.016  0.067  0.067  0.067  0.000  0.000  0.000  0.000  0.000  0.218
tot    0.033  0.134  0.134  0.134  0.000  0.000  0.000  0.000  0.000  0.436
 
band     3 # energy    5.79050000 # occ.  2.00000000
 
ion      s     py     pz     px    dxy    dyz    dz2    dxz  x2-y2    tot
    1  0.000  0.119  0.094  0.002  0.000  0.000  0.000  0.000  0.000  0.216
    2  0.000  0.119  0.094  0.002  0.000  0.000  0.000  0.000  0.000  0.216
tot    0.000  0.239  0.189  0.004  0.000  0.000  0.000  0.000  0.000  0.431
 
band     4 # energy    5.79050014 # occ.  2.00000000
 
ion      s     py     pz     px    dxy    dyz    dz2    dxz  x2-y2    tot
    1  0.000  0.024  0.049  0.142  0.000  0.000  0.000  0.000  0.000  0.216
    2  0.000  0.024  0.049  0.142  0.000  0.000  0.000  0.000  0.000  0.216
tot    0.000  0.049  0.099  0.284  0.000  0.000  0.000  0.000  0.000  0.431
 
band     5 # energy    8.44972139 # occ.  0.00000000
 
ion      s     py     pz     px    dxy    dyz    dz2    dxz  x2-y2    tot
    1  0.014  0.048  0.048  0.048  0.000  0.000  0.000  0.000  0.000  0.158
    2  0.014  0.048  0.048  0.048  0.000  0.000  0.000  0.000  0.000  0.158
tot    0.028  0.096  0.096  0.096  0.000  0.000  0.000  0.000  0.000  0.317
 
band     6 # energy    8.45699074 # occ.  0.00000000
 
ion      s     py     pz     px    dxy    dyz    dz2    dxz  x2-y2    tot
    1  0.000  0.047  0.019  0.087  0.000  0.000  0.000  0.000  0.000  0.152
    2  0.000  0.047  0.019  0.087  0.000  0.000  0.000  0.000  0.000  0.152
tot    0.000  0.094  0.037  0.173  0.000  0.000  0.000  0.000  0.000  0.304
 
band     7 # energy    8.45699096 # occ.  0.00000000
 
ion      s     py     pz     px    dxy    dyz    dz2    dxz  x2-y2    tot
    1  0.000  0.055  0.083  0.015  0.000  0.000  0.000  0.000  0.000  0.152
    2  0.000  0.055  0.083  0.015  0.000  0.000  0.000  0.000  0.000  0.152
tot    0.000  0.109  0.166  0.030  0.000  0.000  0.000  0.000  0.000  0.304
 
band     8 # energy    9.38443539 # occ.  0.00000000
 
ion      s     py     pz     px    dxy    dyz    dz2    dxz  x2-y2    tot
    1  0.330  0.006  0.006  0.006  0.000  0.000  0.000  0.000  0.000  0.349
    2  0.330  0.006  0.006  0.006  0.000  0.000  0.000  0.000  0.000  0.349
tot    0.660  0.012  0.012  0.012  0.000  0.000  0.000  0.000  0.000  0.698
 
band     9 # energy   13.47021821 # occ.  0.00000000
 
ion      s     py     pz     px    dxy    dyz    dz2    dxz  x2-y2    tot
    1  0.000  0.000  0.000  0.000  0.000  0.000  0.000  0.000  0.000  0.000
    2  0.000  0.000  0.000  0.000  0.000  0.000  0.000  0.000  0.000  0.000
tot    0.000  0.000  0.000  0.000  0.000  0.000  0.000  0.000  0.000  0.001
 
band    10 # energy   13.47021884 # occ.  0.00000000
 
ion      s     py     pz     px    dxy    dyz    dz2    dxz  x2-y2    tot
    1  0.000  0.000  0.000  0.000  0.000  0.000  0.000  0.000  0.000  0.000
    2  0.000  0.000  0.000  0.000  0.000  0.000  0.000  0.000  0.000  0.000
tot    0.000  0.000  0.000  0.000  0.000  0.000  0.000  0.000  0.000  0.001
 
band    11 # energy   13.89978750 # occ.  0.00000000
 
ion      s     py     pz     px    dxy    dyz    dz2    dxz  x2-y2    tot
    1  0.099  0.002  0.002  0.002  0.000  0.000  0.000  0.000  0.000  0.103
    2  0.099  0.002  0.002  0.002  0.000  0.000  0.000  0.000  0.000  0.103
tot    0.197  0.003  0.003  0.003  0.000  0.000  0.000  0.000  0.000  0.206
 
band    12 # energy   28.85386123 # occ.  0.00000000
 
ion      s     py     pz     px    dxy    dyz    dz2    dxz  x2-y2    tot
    1  0.000  0.001  0.002  0.034  0.000  0.000  0.000  0.000  0.000  0.037
    2  0.000  0.012  0.010  0.022  0.000  0.000  0.000  0.000  0.000  0.044
tot    0.000  0.013  0.012  0.056  0.000  0.000  0.000  0.000  0.000  0.081
 

 k-point    34 :    0.02857143 0.02857143 0.02857143     weight = 0.00555556

band     1 # energy   -6.11823156 # occ.  2.00000000
 
ion      s     py     pz     px    dxy    dyz    dz2    dxz  x2-y2    tot
    1  0.213  0.000  0.000  0.000  0.000  0.000  0.000  0.000  0.000  0.214
    2  0.213  0.000  0.000  0.000  0.000  0.000  0.000  0.000  0.000  0.214
tot    0.427  0.000  0.000  0.000  0.000  0.000  0.000  0.000  0.000  0.427
 
band     2 # energy    5.70597159 # occ.  2.00000000
 
ion      s     py     pz     px    dxy    dyz    dz2    dxz  x2-y2    tot
    1  0.008  0.070  0.070  0.070  0.000  0.000  0.000  0.000  0.000  0.217
    2  0.008  0.070  0.070  0.070  0.000  0.000  0.000  0.000  0.000  0.217
tot    0.016  0.139  0.139  0.139  0.000  0.000  0.000  0.000  0.000  0.434
 
band     3 # energy    5.81297330 # occ.  2.00000000
 
ion      s     py     pz     px    dxy    dyz    dz2    dxz  x2-y2    tot
    1  0.000  0.112  0.078  0.027  0.000  0.000  0.000  0.000  0.000  0.216
    2  0.000  0.112  0.078  0.027  0.000  0.000  0.000  0.000  0.000  0.216
tot    0.000  0.223  0.155  0.053  0.000  0.000  0.000  0.000  0.000  0.432
 
band     4 # energy    5.81297331 # occ.  2.00000000
 
ion      s     py     pz     px    dxy    dyz    dz2    dxz  x2-y2    tot
    1  0.000  0.032  0.066  0.117  0.000  0.000  0.000  0.000  0.000  0.216
    2  0.000  0.032  0.066  0.117  0.000  0.000  0.000  0.000  0.000  0.216
tot    0.000  0.064  0.133  0.235  0.000  0.000  0.000  0.000  0.000  0.432
 
band     5 # energy    8.42401925 # occ.  0.00000000
 
ion      s     py     pz     px    dxy    dyz    dz2    dxz  x2-y2    tot
    1  0.000  0.077  0.036  0.039  0.000  0.000  0.000  0.000  0.000  0.152
    2  0.000  0.077  0.036  0.039  0.000  0.000  0.000  0.000  0.000  0.152
tot    0.000  0.155  0.071  0.078  0.000  0.000  0.000  0.000  0.000  0.304
 
band     6 # energy    8.42401926 # occ.  0.00000000
 
ion      s     py     pz     px    dxy    dyz    dz2    dxz  x2-y2    tot
    1  0.000  0.024  0.066  0.062  0.000  0.000  0.000  0.000  0.000  0.152
    2  0.000  0.024  0.066  0.062  0.000  0.000  0.000  0.000  0.000  0.152
tot    0.000  0.048  0.131  0.125  0.000  0.000  0.000  0.000  0.000  0.304
 
band     7 # energy    8.42789440 # occ.  0.00000000
 
ion      s     py     pz     px    dxy    dyz    dz2    dxz  x2-y2    tot
    1  0.004  0.050  0.050  0.050  0.000  0.000  0.000  0.000  0.000  0.154
    2  0.004  0.050  0.050  0.050  0.000  0.000  0.000  0.000  0.000  0.154
tot    0.008  0.100  0.100  0.100  0.000  0.000  0.000  0.000  0.000  0.307
 
band     8 # energy    9.28536208 # occ.  0.00000000
 
ion      s     py     pz     px    dxy    dyz    dz2    dxz  x2-y2    tot
    1  0.347  0.003  0.003  0.003  0.000  0.000  0.000  0.000  0.000  0.355
    2  0.347  0.003  0.003  0.003  0.000  0.000  0.000  0.000  0.000  0.355
tot    0.694  0.005  0.005  0.005  0.000  0.000  0.000  0.000  0.000  0.710
 
band     9 # energy   13.51498191 # occ.  0.00000000
 
ion      s     py     pz     px    dxy    dyz    dz2    dxz  x2-y2    tot
    1  0.000  0.000  0.000  0.000  0.000  0.000  0.000  0.000  0.000  0.000
    2  0.000  0.000  0.000  0.000  0.000  0.000  0.000  0.000  0.000  0.000
tot    0.000  0.000  0.000  0.000  0.000  0.000  0.000  0.000  0.000  0.000
 
band    10 # energy   13.83964157 # occ.  0.00000000
 
ion      s     py     pz     px    dxy    dyz    dz2    dxz  x2-y2    tot
    1  0.100  0.001  0.001  0.001  0.000  0.000  0.000  0.000  0.000  0.102
    2  0.100  0.001  0.001  0.001  0.000  0.000  0.000  0.000  0.000  0.102
tot    0.200  0.001  0.001  0.001  0.000  0.000  0.000  0.000  0.000  0.204
 
band    11 # energy   17.11932760 # occ.  0.00000000
 
ion      s     py     pz     px    dxy    dyz    dz2    dxz  x2-y2    tot
    1  0.000  0.003  0.030  0.006  0.000  0.000  0.000  0.000  0.000  0.040
    2  0.000  0.003  0.031  0.005  0.000  0.000  0.000  0.000  0.000  0.040
tot    0.001  0.006  0.061  0.012  0.000  0.000  0.000  0.000  0.000  0.079
 
band    12 # energy   29.01788772 # occ.  0.00000000
 
ion      s     py     pz     px    dxy    dyz    dz2    dxz  x2-y2    tot
    1  0.000  0.014  0.004  0.028  0.000  0.000  0.000  0.000  0.000  0.046
    2  0.000  0.016  0.010  0.007  0.000  0.000  0.000  0.000  0.000  0.033
tot    0.000  0.031  0.014  0.035  0.000  0.000  0.000  0.000  0.000  0.080
 

 k-point    35 :    0.01428571 0.01428571 0.01428571     weight = 0.00555556

band     1 # energy   -6.12627011 # occ.  2.00000000
 
ion      s     py     pz     px    dxy    dyz    dz2    dxz  x2-y2    tot
    1  0.213  0.000  0.000  0.000  0.000  0.000  0.000  0.000  0.000  0.213
    2  0.213  0.000  0.000  0.000  0.000  0.000  0.000  0.000  0.000  0.213
tot    0.427  0.000  0.000  0.000  0.000  0.000  0.000  0.000  0.000  0.427
 
band     2 # energy    5.79912882 # occ.  2.00000000
 
ion      s     py     pz     px    dxy    dyz    dz2    dxz  x2-y2    tot
    1  0.002  0.071  0.071  0.071  0.000  0.000  0.000  0.000  0.000  0.216
    2  0.002  0.071  0.071  0.071  0.000  0.000  0.000  0.000  0.000  0.216
tot    0.004  0.143  0.143  0.143  0.000  0.000  0.000  0.000  0.000  0.433
 
band     3 # energy    5.82682289 # occ.  2.00000000
 
ion      s     py     pz     px    dxy    dyz    dz2    dxz  x2-y2    tot
    1  0.000  0.061  0.139  0.016  0.000  0.000  0.000  0.000  0.000  0.216
    2  0.000  0.061  0.139  0.016  0.000  0.000  0.000  0.000  0.000  0.216
tot    0.000  0.122  0.278  0.032  0.000  0.000  0.000  0.000  0.000  0.432
 
band     4 # energy    5.82682297 # occ.  2.00000000
 
ion      s     py     pz     px    dxy    dyz    dz2    dxz  x2-y2    tot
    1  0.000  0.083  0.005  0.128  0.000  0.000  0.000  0.000  0.000  0.216
    2  0.000  0.083  0.005  0.128  0.000  0.000  0.000  0.000  0.000  0.216
tot    0.000  0.166  0.010  0.256  0.000  0.000  0.000  0.000  0.000  0.432
 
band     5 # energy    8.40375109 # occ.  0.00000000
 
ion      s     py     pz     px    dxy    dyz    dz2    dxz  x2-y2    tot
    1  0.000  0.006  0.052  0.094  0.000  0.000  0.000  0.000  0.000  0.151
    2  0.000  0.006  0.052  0.094  0.000  0.000  0.000  0.000  0.000  0.151
tot    0.000  0.012  0.104  0.187  0.000  0.000  0.000  0.000  0.000  0.303
 
band     6 # energy    8.40375138 # occ.  0.00000000
 
ion      s     py     pz     px    dxy    dyz    dz2    dxz  x2-y2    tot
    1  0.000  0.095  0.049  0.007  0.000  0.000  0.000  0.000  0.000  0.151
    2  0.000  0.095  0.049  0.007  0.000  0.000  0.000  0.000  0.000  0.151
tot    0.000  0.190  0.098  0.015  0.000  0.000  0.000  0.000  0.000  0.303
 
band     7 # energy    8.40608172 # occ.  0.00000000
 
ion      s     py     pz     px    dxy    dyz    dz2    dxz  x2-y2    tot
    1  0.001  0.050  0.050  0.050  0.000  0.000  0.000  0.000  0.000  0.152
    2  0.001  0.050  0.050  0.050  0.000  0.000  0.000  0.000  0.000  0.152
tot    0.001  0.101  0.101  0.101  0.000  0.000  0.000  0.000  0.000  0.303
 
band     8 # energy    9.22817012 # occ.  0.00000000
 
ion      s     py     pz     px    dxy    dyz    dz2    dxz  x2-y2    tot
    1  0.356  0.001  0.001  0.001  0.000  0.000  0.000  0.000  0.000  0.358
    2  0.356  0.001  0.001  0.001  0.000  0.000  0.000  0.000  0.000  0.358
tot    0.712  0.001  0.001  0.001  0.000  0.000  0.000  0.000  0.000  0.716
 
band     9 # energy   13.54331569 # occ.  0.00000000
 
ion      s     py     pz     px    dxy    dyz    dz2    dxz  x2-y2    tot
    1  0.000  0.000  0.000  0.000  0.000  0.000  0.000  0.000  0.000  0.000
    2  0.000  0.000  0.000  0.000  0.000  0.000  0.000  0.000  0.000  0.000
tot    0.000  0.000  0.000  0.000  0.000  0.000  0.000  0.000  0.000  0.000
 
band    10 # energy   13.54331582 # occ.  0.00000000
 
ion      s     py     pz     px    dxy    dyz    dz2    dxz  x2-y2    tot
    1  0.000  0.000  0.000  0.000  0.000  0.000  0.000  0.000  0.000  0.000
    2  0.000  0.000  0.000  0.000  0.000  0.000  0.000  0.000  0.000  0.000
tot    0.000  0.000  0.000  0.000  0.000  0.000  0.000  0.000  0.000  0.000
 
band    11 # energy   13.80519222 # occ.  0.00000000
 
ion      s     py     pz     px    dxy    dyz    dz2    dxz  x2-y2    tot
    1  0.101  0.000  0.000  0.000  0.000  0.000  0.000  0.000  0.000  0.102
    2  0.101  0.000  0.000  0.000  0.000  0.000  0.000  0.000  0.000  0.102
tot    0.203  0.000  0.000  0.000  0.000  0.000  0.000  0.000  0.000  0.204
 
band    12 # energy   17.10264032 # occ.  0.00000000
 
ion      s     py     pz     px    dxy    dyz    dz2    dxz  x2-y2    tot
    1  0.000  0.017  0.017  0.006  0.000  0.000  0.000  0.000  0.000  0.040
    2  0.000  0.017  0.017  0.006  0.000  0.000  0.000  0.000  0.000  0.040
tot    0.000  0.034  0.034  0.012  0.000  0.000  0.000  0.000  0.000  0.080
 

 k-point    36 :    0.00000000 0.00000000 0.00000000     weight = 0.00555556

band     1 # energy   -6.12894452 # occ.  2.00000000
 
ion      s     py     pz     px    dxy    dyz    dz2    dxz  x2-y2    tot
    1  0.213  0.000  0.000  0.000  0.000  0.000  0.000  0.000  0.000  0.213
    2  0.213  0.000  0.000  0.000  0.000  0.000  0.000  0.000  0.000  0.213
tot    0.427  0.000  0.000  0.000  0.000  0.000  0.000  0.000  0.000  0.427
 
band     2 # energy    5.83150303 # occ.  2.00000000
 
ion      s     py     pz     px    dxy    dyz    dz2    dxz  x2-y2    tot
    1  0.000  0.059  0.076  0.081  0.000  0.000  0.000  0.000  0.000  0.216
    2  0.000  0.059  0.076  0.081  0.000  0.000  0.000  0.000  0.000  0.216
tot    0.000  0.118  0.153  0.161  0.000  0.000  0.000  0.000  0.000  0.432
 
band     3 # energy    5.83150320 # occ.  2.00000000
 
ion      s     py     pz     px    dxy    dyz    dz2    dxz  x2-y2    tot
    1  0.000  0.110  0.100  0.007  0.000  0.000  0.000  0.000  0.000  0.216
    2  0.000  0.110  0.100  0.007  0.000  0.000  0.000  0.000  0.000  0.216
tot    0.000  0.219  0.200  0.013  0.000  0.000  0.000  0.000  0.000  0.432
 
band     4 # energy    5.83150321 # occ.  2.00000000
 
ion      s     py     pz     px    dxy    dyz    dz2    dxz  x2-y2    tot
    1  0.000  0.048  0.040  0.129  0.000  0.000  0.000  0.000  0.000  0.216
    2  0.000  0.048  0.040  0.129  0.000  0.000  0.000  0.000  0.000  0.216
tot    0.000  0.095  0.079  0.258  0.000  0.000  0.000  0.000  0.000  0.432
 
band     5 # energy    8.39691167 # occ.  0.00000000
 
ion      s     py     pz     px    dxy    dyz    dz2    dxz  x2-y2    tot
    1  0.000  0.066  0.055  0.030  0.000  0.000  0.000  0.000  0.000  0.151
    2  0.000  0.066  0.055  0.030  0.000  0.000  0.000  0.000  0.000  0.151
tot    0.000  0.132  0.110  0.061  0.000  0.000  0.000  0.000  0.000  0.303
 
band     6 # energy    8.39691175 # occ.  0.00000000
 
ion      s     py     pz     px    dxy    dyz    dz2    dxz  x2-y2    tot
    1  0.000  0.048  0.008  0.095  0.000  0.000  0.000  0.000  0.000  0.151
    2  0.000  0.048  0.008  0.095  0.000  0.000  0.000  0.000  0.000  0.151
tot    0.000  0.096  0.016  0.191  0.000  0.000  0.000  0.000  0.000  0.303
 
band     7 # energy    8.39691176 # occ.  0.00000000
 
ion      s     py     pz     px    dxy    dyz    dz2    dxz  x2-y2    tot
    1  0.000  0.037  0.088  0.026  0.000  0.000  0.000  0.000  0.000  0.151
    2  0.000  0.037  0.088  0.026  0.000  0.000  0.000  0.000  0.000  0.151
tot    0.000  0.075  0.177  0.051  0.000  0.000  0.000  0.000  0.000  0.303
 
band     8 # energy    9.20972455 # occ.  0.00000000
 
ion      s     py     pz     px    dxy    dyz    dz2    dxz  x2-y2    tot
    1  0.359  0.000  0.000  0.000  0.000  0.000  0.000  0.000  0.000  0.359
    2  0.359  0.000  0.000  0.000  0.000  0.000  0.000  0.000  0.000  0.359
tot    0.717  0.000  0.000  0.000  0.000  0.000  0.000  0.000  0.000  0.717
 
band     9 # energy   13.55302243 # occ.  0.00000000
 
ion      s     py     pz     px    dxy    dyz    dz2    dxz  x2-y2    tot
    1  0.000  0.000  0.000  0.000  0.000  0.000  0.000  0.000  0.000  0.000
    2  0.000  0.000  0.000  0.000  0.000  0.000  0.000  0.000  0.000  0.000
tot    0.000  0.000  0.000  0.000  0.000  0.000  0.000  0.000  0.000  0.000
 
band    10 # energy   13.79283540 # occ.  0.00000000
 
ion      s     py     pz     px    dxy    dyz    dz2    dxz  x2-y2    tot
    1  0.102  0.000  0.000  0.000  0.000  0.000  0.000  0.000  0.000  0.102
    2  0.102  0.000  0.000  0.000  0.000  0.000  0.000  0.000  0.000  0.102
tot    0.203  0.000  0.000  0.000  0.000  0.000  0.000  0.000  0.000  0.203
 
band    11 # energy   17.08616372 # occ.  0.00000000
 
ion      s     py     pz     px    dxy    dyz    dz2    dxz  x2-y2    tot
    1  0.000  0.028  0.011  0.001  0.000  0.000  0.000  0.000  0.000  0.040
    2  0.000  0.028  0.011  0.001  0.000  0.000  0.000  0.000  0.000  0.040
tot    0.000  0.056  0.022  0.002  0.000  0.000  0.000  0.000  0.000  0.080
 
band    12 # energy   29.19648210 # occ.  0.00000000
 
ion      s     py     pz     px    dxy    dyz    dz2    dxz  x2-y2    tot
    1  0.000  0.011  0.003  0.002  0.000  0.000  0.000  0.000  0.000  0.016
    2  0.000  0.001  0.002  0.008  0.000  0.000  0.000  0.000  0.000  0.011
tot    0.000  0.012  0.006  0.010  0.000  0.000  0.000  0.000  0.000  0.027
 

 k-point    37 :    0.00000000 0.00000000 0.00000000     weight = 0.00555556

band     1 # energy   -6.12894452 # occ.  2.00000000
 
ion      s     py     pz     px    dxy    dyz    dz2    dxz  x2-y2    tot
    1  0.213  0.000  0.000  0.000  0.000  0.000  0.000  0.000  0.000  0.213
    2  0.213  0.000  0.000  0.000  0.000  0.000  0.000  0.000  0.000  0.213
tot    0.427  0.000  0.000  0.000  0.000  0.000  0.000  0.000  0.000  0.427
 
band     2 # energy    5.83150304 # occ.  2.00000000
 
ion      s     py     pz     px    dxy    dyz    dz2    dxz  x2-y2    tot
    1  0.000  0.089  0.094  0.033  0.000  0.000  0.000  0.000  0.000  0.216
    2  0.000  0.089  0.094  0.033  0.000  0.000  0.000  0.000  0.000  0.216
tot    0.000  0.177  0.189  0.066  0.000  0.000  0.000  0.000  0.000  0.432
 
band     3 # energy    5.83150320 # occ.  2.00000000
 
ion      s     py     pz     px    dxy    dyz    dz2    dxz  x2-y2    tot
    1  0.000  0.114  0.059  0.043  0.000  0.000  0.000  0.000  0.000  0.216
    2  0.000  0.114  0.059  0.043  0.000  0.000  0.000  0.000  0.000  0.216
tot    0.000  0.228  0.119  0.085  0.000  0.000  0.000  0.000  0.000  0.432
 
band     4 # energy    5.83150326 # occ.  2.00000000
 
ion      s     py     pz     px    dxy    dyz    dz2    dxz  x2-y2    tot
    1  0.000  0.013  0.062  0.141  0.000  0.000  0.000  0.000  0.000  0.216
    2  0.000  0.013  0.062  0.141  0.000  0.000  0.000  0.000  0.000  0.216
tot    0.000  0.026  0.125  0.281  0.000  0.000  0.000  0.000  0.000  0.432
 
band     5 # energy    8.39691166 # occ.  0.00000000
 
ion      s     py     pz     px    dxy    dyz    dz2    dxz  x2-y2    tot
    1  0.000  0.057  0.042  0.052  0.000  0.000  0.000  0.000  0.000  0.151
    2  0.000  0.057  0.042  0.052  0.000  0.000  0.000  0.000  0.000  0.151
tot    0.000  0.115  0.084  0.103  0.000  0.000  0.000  0.000  0.000  0.303
 
band     6 # energy    8.39691174 # occ.  0.00000000
 
ion      s     py     pz     px    dxy    dyz    dz2    dxz  x2-y2    tot
    1  0.000  0.086  0.022  0.044  0.000  0.000  0.000  0.000  0.000  0.151
    2  0.000  0.086  0.022  0.044  0.000  0.000  0.000  0.000  0.000  0.151
tot    0.000  0.171  0.043  0.089  0.000  0.000  0.000  0.000  0.000  0.303
 
band     7 # energy    8.39691176 # occ.  0.00000000
 
ion      s     py     pz     px    dxy    dyz    dz2    dxz  x2-y2    tot
    1  0.000  0.008  0.088  0.055  0.000  0.000  0.000  0.000  0.000  0.151
    2  0.000  0.008  0.088  0.055  0.000  0.000  0.000  0.000  0.000  0.151
tot    0.000  0.017  0.175  0.111  0.000  0.000  0.000  0.000  0.000  0.303
 
band     8 # energy    9.20972456 # occ.  0.00000000
 
ion      s     py     pz     px    dxy    dyz    dz2    dxz  x2-y2    tot
    1  0.359  0.000  0.000  0.000  0.000  0.000  0.000  0.000  0.000  0.359
    2  0.359  0.000  0.000  0.000  0.000  0.000  0.000  0.000  0.000  0.359
tot    0.717  0.000  0.000  0.000  0.000  0.000  0.000  0.000  0.000  0.717
 
band     9 # energy   13.55302243 # occ.  0.00000000
 
ion      s     py     pz     px    dxy    dyz    dz2    dxz  x2-y2    tot
    1  0.000  0.000  0.000  0.000  0.000  0.000  0.000  0.000  0.000  0.000
    2  0.000  0.000  0.000  0.000  0.000  0.000  0.000  0.000  0.000  0.000
tot    0.000  0.000  0.000  0.000  0.000  0.000  0.000  0.000  0.000  0.000
 
band    10 # energy   13.79289814 # occ.  0.00000000
 
ion      s     py     pz     px    dxy    dyz    dz2    dxz  x2-y2    tot
    1  0.102  0.000  0.000  0.000  0.000  0.000  0.000  0.000  0.000  0.102
    2  0.102  0.000  0.000  0.000  0.000  0.000  0.000  0.000  0.000  0.102
tot    0.203  0.000  0.000  0.000  0.000  0.000  0.000  0.000  0.000  0.203
 
band    11 # energy   17.08578388 # occ.  0.00000000
 
ion      s     py     pz     px    dxy    dyz    dz2    dxz  x2-y2    tot
    1  0.000  0.017  0.001  0.022  0.000  0.000  0.000  0.000  0.000  0.040
    2  0.000  0.017  0.001  0.022  0.000  0.000  0.000  0.000  0.000  0.040
tot    0.000  0.034  0.002  0.044  0.000  0.000  0.000  0.000  0.000  0.080
 
band    12 # energy   29.78033803 # occ.  0.00000000
 
ion      s     py     pz     px    dxy    dyz    dz2    dxz  x2-y2    tot
    1  0.000  0.013  0.023  0.018  0.000  0.000  0.000  0.000  0.000  0.054
    2  0.000  0.000  0.037  0.010  0.000  0.000  0.000  0.000  0.000  0.047
tot    0.000  0.013  0.060  0.028  0.000  0.000  0.000  0.000  0.000  0.101
 

 k-point    38 :    0.01428571 0.00000000 0.01428571     weight = 0.00555556

band     1 # energy   -6.12537674 # occ.  2.00000000
 
ion      s     py     pz     px    dxy    dyz    dz2    dxz  x2-y2    tot
    1  0.213  0.000  0.000  0.000  0.000  0.000  0.000  0.000  0.000  0.213
    2  0.213  0.000  0.000  0.000  0.000  0.000  0.000  0.000  0.000  0.213
tot    0.427  0.000  0.000  0.000  0.000  0.000  0.000  0.000  0.000  0.427
 
band     2 # energy    5.80690881 # occ.  2.00000000
 
ion      s     py     pz     px    dxy    dyz    dz2    dxz  x2-y2    tot
    1  0.003  0.214  0.000  0.000  0.000  0.000  0.000  0.000  0.000  0.217
    2  0.003  0.214  0.000  0.000  0.000  0.000  0.000  0.000  0.000  0.217
tot    0.006  0.428  0.000  0.000  0.000  0.000  0.000  0.000  0.000  0.434
 
band     3 # energy    5.81593953 # occ.  2.00000000
 
ion      s     py     pz     px    dxy    dyz    dz2    dxz  x2-y2    tot
    1  0.000  0.000  0.093  0.123  0.000  0.000  0.000  0.000  0.000  0.216
    2  0.000  0.000  0.122  0.094  0.000  0.000  0.000  0.000  0.000  0.216
tot    0.000  0.000  0.215  0.217  0.000  0.000  0.000  0.000  0.000  0.432
 
band     4 # energy    5.81593954 # occ.  2.00000000
 
ion      s     py     pz     px    dxy    dyz    dz2    dxz  x2-y2    tot
    1  0.000  0.000  0.123  0.093  0.000  0.000  0.000  0.000  0.000  0.216
    2  0.000  0.000  0.094  0.122  0.000  0.000  0.000  0.000  0.000  0.216
tot    0.000  0.000  0.217  0.215  0.000  0.000  0.000  0.000  0.000  0.432
 
band     5 # energy    8.38797744 # occ.  0.00000000
 
ion      s     py     pz     px    dxy    dyz    dz2    dxz  x2-y2    tot
    1  0.000  0.151  0.000  0.000  0.000  0.000  0.000  0.000  0.000  0.151
    2  0.000  0.151  0.000  0.000  0.000  0.000  0.000  0.000  0.000  0.151
tot    0.001  0.302  0.000  0.000  0.000  0.000  0.000  0.000  0.000  0.302
 
band     6 # energy    8.41688347 # occ.  0.00000000
 
ion      s     py     pz     px    dxy    dyz    dz2    dxz  x2-y2    tot
    1  0.000  0.000  0.077  0.075  0.000  0.000  0.000  0.000  0.000  0.152
    2  0.000  0.000  0.075  0.076  0.000  0.000  0.000  0.000  0.000  0.152
tot    0.000  0.000  0.152  0.151  0.000  0.000  0.000  0.000  0.000  0.304
 
band     7 # energy    8.41688353 # occ.  0.00000000
 
ion      s     py     pz     px    dxy    dyz    dz2    dxz  x2-y2    tot
    1  0.000  0.000  0.075  0.077  0.000  0.000  0.000  0.000  0.000  0.152
    2  0.000  0.000  0.076  0.075  0.000  0.000  0.000  0.000  0.000  0.152
tot    0.000  0.000  0.151  0.152  0.000  0.000  0.000  0.000  0.000  0.304
 
band     8 # energy    9.23385620 # occ.  0.00000000
 
ion      s     py     pz     px    dxy    dyz    dz2    dxz  x2-y2    tot
    1  0.356  0.002  0.000  0.000  0.000  0.000  0.000  0.000  0.000  0.358
    2  0.356  0.002  0.000  0.000  0.000  0.000  0.000  0.000  0.000  0.358
tot    0.711  0.005  0.000  0.000  0.000  0.000  0.000  0.000  0.000  0.716
 
band     9 # energy   13.52751468 # occ.  0.00000000
 
ion      s     py     pz     px    dxy    dyz    dz2    dxz  x2-y2    tot
    1  0.000  0.000  0.000  0.000  0.000  0.000  0.000  0.000  0.000  0.000
    2  0.000  0.000  0.000  0.000  0.000  0.000  0.000  0.000  0.000  0.000
tot    0.000  0.000  0.000  0.000  0.000  0.000  0.000  0.000  0.000  0.000
 
band    10 # energy   13.80884402 # occ.  0.00000000
 
ion      s     py     pz     px    dxy    dyz    dz2    dxz  x2-y2    tot
    1  0.101  0.001  0.000  0.000  0.000  0.000  0.000  0.000  0.000  0.102
    2  0.101  0.001  0.000  0.000  0.000  0.000  0.000  0.000  0.000  0.102
tot    0.202  0.001  0.000  0.000  0.000  0.000  0.000  0.000  0.000  0.204
 
band    11 # energy   17.09325191 # occ.  0.00000000
 
ion      s     py     pz     px    dxy    dyz    dz2    dxz  x2-y2    tot
    1  0.000  0.003  0.035  0.002  0.000  0.000  0.000  0.000  0.000  0.040
    2  0.000  0.003  0.036  0.002  0.000  0.000  0.000  0.000  0.000  0.040
tot    0.000  0.006  0.071  0.004  0.000  0.000  0.000  0.000  0.000  0.080
 
band    12 # energy   29.38949102 # occ.  0.00000000
 
ion      s     py     pz     px    dxy    dyz    dz2    dxz  x2-y2    tot
    1  0.000  0.004  0.025  0.012  0.000  0.000  0.000  0.000  0.000  0.041
    2  0.000  0.007  0.022  0.011  0.000  0.000  0.000  0.000  0.000  0.040
tot    0.000  0.011  0.047  0.023  0.000  0.000  0.000  0.000  0.000  0.081
 

 k-point    39 :    0.02857143 0.00000000 0.02857143     weight = 0.00555556

band     1 # energy   -6.11465588 # occ.  2.00000000
 
ion      s     py     pz     px    dxy    dyz    dz2    dxz  x2-y2    tot
    1  0.213  0.000  0.000  0.000  0.000  0.000  0.000  0.000  0.000  0.214
    2  0.213  0.000  0.000  0.000  0.000  0.000  0.000  0.000  0.000  0.214
tot    0.427  0.000  0.000  0.000  0.000  0.000  0.000  0.000  0.000  0.427
 
band     2 # energy    5.73525787 # occ.  2.00000000
 
ion      s     py     pz     px    dxy    dyz    dz2    dxz  x2-y2    tot
    1  0.011  0.208  0.000  0.000  0.000  0.000  0.000  0.000  0.000  0.220
    2  0.011  0.208  0.000  0.000  0.000  0.000  0.000  0.000  0.000  0.220
tot    0.023  0.417  0.000  0.000  0.000  0.000  0.000  0.000  0.000  0.439
 
band     3 # energy    5.77069410 # occ.  2.00000000
 
ion      s     py     pz     px    dxy    dyz    dz2    dxz  x2-y2    tot
    1  0.000  0.000  0.134  0.081  0.000  0.000  0.000  0.000  0.000  0.215
    2  0.000  0.000  0.162  0.053  0.000  0.000  0.000  0.000  0.000  0.215
tot    0.000  0.000  0.296  0.133  0.000  0.000  0.000  0.000  0.000  0.429
 
band     4 # energy    5.77069414 # occ.  2.00000000
 
ion      s     py     pz     px    dxy    dyz    dz2    dxz  x2-y2    tot
    1  0.000  0.000  0.081  0.134  0.000  0.000  0.000  0.000  0.000  0.215
    2  0.000  0.000  0.053  0.162  0.000  0.000  0.000  0.000  0.000  0.215
tot    0.000  0.000  0.133  0.296  0.000  0.000  0.000  0.000  0.000  0.429
 
band     5 # energy    8.36152897 # occ.  0.00000000
 
ion      s     py     pz     px    dxy    dyz    dz2    dxz  x2-y2    tot
    1  0.002  0.149  0.000  0.000  0.000  0.000  0.000  0.000  0.000  0.150
    2  0.002  0.149  0.000  0.000  0.000  0.000  0.000  0.000  0.000  0.150
tot    0.003  0.298  0.000  0.000  0.000  0.000  0.000  0.000  0.000  0.301
 
band     6 # energy    8.47533706 # occ.  0.00000000
 
ion      s     py     pz     px    dxy    dyz    dz2    dxz  x2-y2    tot
    1  0.000  0.000  0.061  0.092  0.000  0.000  0.000  0.000  0.000  0.153
    2  0.000  0.000  0.086  0.067  0.000  0.000  0.000  0.000  0.000  0.153
tot    0.000  0.000  0.147  0.159  0.000  0.000  0.000  0.000  0.000  0.306
 
band     7 # energy    8.47533720 # occ.  0.00000000
 
ion      s     py     pz     px    dxy    dyz    dz2    dxz  x2-y2    tot
    1  0.000  0.000  0.092  0.061  0.000  0.000  0.000  0.000  0.000  0.153
    2  0.000  0.000  0.067  0.086  0.000  0.000  0.000  0.000  0.000  0.153
tot    0.000  0.000  0.159  0.147  0.000  0.000  0.000  0.000  0.000  0.306
 
band     8 # energy    9.30378050 # occ.  0.00000000
 
ion      s     py     pz     px    dxy    dyz    dz2    dxz  x2-y2    tot
    1  0.347  0.009  0.000  0.000  0.000  0.000  0.000  0.000  0.000  0.356
    2  0.347  0.009  0.000  0.000  0.000  0.000  0.000  0.000  0.000  0.356
tot    0.694  0.017  0.000  0.000  0.000  0.000  0.000  0.000  0.000  0.711
 
band     9 # energy   13.43757422 # occ.  0.00000000
 
ion      s     py     pz     px    dxy    dyz    dz2    dxz  x2-y2    tot
    1  0.000  0.000  0.000  0.000  0.000  0.000  0.000  0.000  0.000  0.001
    2  0.000  0.000  0.000  0.000  0.000  0.000  0.000  0.000  0.000  0.001
tot    0.000  0.001  0.000  0.000  0.000  0.000  0.000  0.000  0.000  0.001
 
band    10 # energy   13.56884593 # occ.  0.00000000
 
ion      s     py     pz     px    dxy    dyz    dz2    dxz  x2-y2    tot
    1  0.000  0.000  0.000  0.000  0.000  0.000  0.000  0.000  0.000  0.000
    2  0.000  0.000  0.000  0.000  0.000  0.000  0.000  0.000  0.000  0.000
tot    0.000  0.000  0.000  0.000  0.000  0.000  0.000  0.000  0.000  0.000
 
band    11 # energy   13.85682806 # occ.  0.00000000
 
ion      s     py     pz     px    dxy    dyz    dz2    dxz  x2-y2    tot
    1  0.100  0.003  0.000  0.000  0.000  0.000  0.000  0.000  0.000  0.103
    2  0.100  0.003  0.000  0.000  0.000  0.000  0.000  0.000  0.000  0.103
tot    0.200  0.005  0.000  0.000  0.000  0.000  0.000  0.000  0.000  0.205
 
band    12 # energy   17.14077710 # occ.  0.00000000
 
ion      s     py     pz     px    dxy    dyz    dz2    dxz  x2-y2    tot
    1  0.001  0.020  0.017  0.001  0.000  0.000  0.000  0.000  0.000  0.039
    2  0.001  0.020  0.017  0.001  0.000  0.000  0.000  0.000  0.000  0.039
tot    0.002  0.040  0.035  0.002  0.000  0.000  0.000  0.000  0.000  0.079
 

 k-point    40 :    0.04285714 0.00000000 0.04285714     weight = 0.00555556

band     1 # energy   -6.09678463 # occ.  2.00000000
 
ion      s     py     pz     px    dxy    dyz    dz2    dxz  x2-y2    tot
    1  0.213  0.000  0.000  0.000  0.000  0.000  0.000  0.000  0.000  0.214
    2  0.213  0.000  0.000  0.000  0.000  0.000  0.000  0.000  0.000  0.214
tot    0.427  0.001  0.000  0.000  0.000  0.000  0.000  0.000  0.000  0.427
 
band     2 # energy    5.62215277 # occ.  2.00000000
 
ion      s     py     pz     px    dxy    dyz    dz2    dxz  x2-y2    tot
    1  0.023  0.200  0.000  0.000  0.000  0.000  0.000  0.000  0.000  0.223
    2  0.023  0.200  0.000  0.000  0.000  0.000  0.000  0.000  0.000  0.223
tot    0.046  0.400  0.000  0.000  0.000  0.000  0.000  0.000  0.000  0.447
 
band     3 # energy    5.69960601 # occ.  2.00000000
 
ion      s     py     pz     px    dxy    dyz    dz2    dxz  x2-y2    tot
    1  0.000  0.000  0.146  0.067  0.000  0.000  0.000  0.000  0.000  0.213
    2  0.000  0.000  0.155  0.058  0.000  0.000  0.000  0.000  0.000  0.213
tot    0.000  0.000  0.301  0.125  0.000  0.000  0.000  0.000  0.000  0.426
 
band     4 # energy    5.69960615 # occ.  2.00000000
 
ion      s     py     pz     px    dxy    dyz    dz2    dxz  x2-y2    tot
    1  0.000  0.000  0.067  0.146  0.000  0.000  0.000  0.000  0.000  0.213
    2  0.000  0.000  0.058  0.155  0.000  0.000  0.000  0.000  0.000  0.213
tot    0.000  0.000  0.125  0.301  0.000  0.000  0.000  0.000  0.000  0.426
 
band     5 # energy    8.31859670 # occ.  0.00000000
 
ion      s     py     pz     px    dxy    dyz    dz2    dxz  x2-y2    tot
    1  0.003  0.146  0.000  0.000  0.000  0.000  0.000  0.000  0.000  0.149
    2  0.003  0.146  0.000  0.000  0.000  0.000  0.000  0.000  0.000  0.149
tot    0.007  0.292  0.000  0.000  0.000  0.000  0.000  0.000  0.000  0.299
 
band     6 # energy    8.56841949 # occ.  0.00000000
 
ion      s     py     pz     px    dxy    dyz    dz2    dxz  x2-y2    tot
    1  0.000  0.000  0.049  0.106  0.000  0.000  0.000  0.000  0.000  0.155
    2  0.000  0.000  0.044  0.110  0.000  0.000  0.000  0.000  0.000  0.155
tot    0.000  0.000  0.093  0.216  0.000  0.000  0.000  0.000  0.000  0.309
 
band     7 # energy    8.56841954 # occ.  0.00000000
 
ion      s     py     pz     px    dxy    dyz    dz2    dxz  x2-y2    tot
    1  0.000  0.000  0.106  0.049  0.000  0.000  0.000  0.000  0.000  0.155
    2  0.000  0.000  0.110  0.044  0.000  0.000  0.000  0.000  0.000  0.155
tot    0.000  0.000  0.216  0.093  0.000  0.000  0.000  0.000  0.000  0.309
 
band     8 # energy    9.41284490 # occ.  0.00000000
 
ion      s     py     pz     px    dxy    dyz    dz2    dxz  x2-y2    tot
    1  0.334  0.018  0.000  0.000  0.000  0.000  0.000  0.000  0.000  0.352
    2  0.334  0.018  0.000  0.000  0.000  0.000  0.000  0.000  0.000  0.352
tot    0.669  0.036  0.000  0.000  0.000  0.000  0.000  0.000  0.000  0.704
 
band     9 # energy   13.31057163 # occ.  0.00000000
 
ion      s     py     pz     px    dxy    dyz    dz2    dxz  x2-y2    tot
    1  0.000  0.001  0.000  0.000  0.000  0.000  0.000  0.000  0.000  0.001
    2  0.000  0.001  0.000  0.000  0.000  0.000  0.000  0.000  0.000  0.001
tot    0.001  0.002  0.000  0.000  0.000  0.000  0.000  0.000  0.000  0.002
 
band    10 # energy   13.93478953 # occ.  0.00000000
 
ion      s     py     pz     px    dxy    dyz    dz2    dxz  x2-y2    tot
    1  0.098  0.006  0.000  0.000  0.000  0.000  0.000  0.000  0.000  0.104
    2  0.098  0.006  0.000  0.000  0.000  0.000  0.000  0.000  0.000  0.104
tot    0.195  0.012  0.000  0.000  0.000  0.000  0.000  0.000  0.000  0.207
 
band    11 # energy   17.21159265 # occ.  0.00000000
 
ion      s     py     pz     px    dxy    dyz    dz2    dxz  x2-y2    tot
    1  0.002  0.021  0.002  0.014  0.000  0.000  0.000  0.000  0.000  0.038
    2  0.002  0.021  0.003  0.013  0.000  0.000  0.000  0.000  0.000  0.039
tot    0.004  0.041  0.005  0.027  0.000  0.000  0.000  0.000  0.000  0.077
 
band    12 # energy   29.05095055 # occ.  0.00000000
 
ion      s     py     pz     px    dxy    dyz    dz2    dxz  x2-y2    tot
    1  0.000  0.007  0.014  0.002  0.000  0.000  0.000  0.000  0.000  0.023
    2  0.000  0.004  0.004  0.010  0.000  0.000  0.000  0.000  0.000  0.019
tot    0.000  0.011  0.018  0.012  0.000  0.000  0.000  0.000  0.000  0.042
 

 k-point    41 :    0.05714286 0.00000000 0.05714286     weight = 0.00555556

band     1 # energy   -6.07177484 # occ.  2.00000000
 
ion      s     py     pz     px    dxy    dyz    dz2    dxz  x2-y2    tot
    1  0.213  0.001  0.000  0.000  0.000  0.000  0.000  0.000  0.000  0.214
    2  0.213  0.001  0.000  0.000  0.000  0.000  0.000  0.000  0.000  0.214
tot    0.426  0.001  0.000  0.000  0.000  0.000  0.000  0.000  0.000  0.428
 
band     2 # energy    5.47485989 # occ.  2.00000000
 
ion      s     py     pz     px    dxy    dyz    dz2    dxz  x2-y2    tot
    1  0.037  0.190  0.000  0.000  0.000  0.000  0.000  0.000  0.000  0.227
    2  0.037  0.190  0.000  0.000  0.000  0.000  0.000  0.000  0.000  0.227
tot    0.074  0.381  0.000  0.000  0.000  0.000  0.000  0.000  0.000  0.455
 
band     3 # energy    5.60768884 # occ.  2.00000000
 
ion      s     py     pz     px    dxy    dyz    dz2    dxz  x2-y2    tot
    1  0.000  0.000  0.132  0.079  0.000  0.000  0.000  0.000  0.000  0.211
    2  0.000  0.000  0.158  0.053  0.000  0.000  0.000  0.000  0.000  0.211
tot    0.000  0.000  0.290  0.132  0.000  0.000  0.000  0.000  0.000  0.422
 
band     4 # energy    5.60768893 # occ.  2.00000000
 
ion      s     py     pz     px    dxy    dyz    dz2    dxz  x2-y2    tot
    1  0.000  0.000  0.079  0.132  0.000  0.000  0.000  0.000  0.000  0.211
    2  0.000  0.000  0.053  0.158  0.000  0.000  0.000  0.000  0.000  0.211
tot    0.000  0.000  0.132  0.290  0.000  0.000  0.000  0.000  0.000  0.422
 
band     5 # energy    8.26075159 # occ.  0.00000000
 
ion      s     py     pz     px    dxy    dyz    dz2    dxz  x2-y2    tot
    1  0.006  0.142  0.000  0.000  0.000  0.000  0.000  0.000  0.000  0.148
    2  0.006  0.142  0.000  0.000  0.000  0.000  0.000  0.000  0.000  0.148
tot    0.011  0.285  0.000  0.000  0.000  0.000  0.000  0.000  0.000  0.296
 
band     6 # energy    8.69105063 # occ.  0.00000000
 
ion      s     py     pz     px    dxy    dyz    dz2    dxz  x2-y2    tot
    1  0.000  0.000  0.070  0.086  0.000  0.000  0.000  0.000  0.000  0.156
    2  0.000  0.000  0.068  0.089  0.000  0.000  0.000  0.000  0.000  0.156
tot    0.000  0.000  0.137  0.175  0.000  0.000  0.000  0.000  0.000  0.313
 
band     7 # energy    8.69105070 # occ.  0.00000000
 
ion      s     py     pz     px    dxy    dyz    dz2    dxz  x2-y2    tot
    1  0.000  0.000  0.086  0.070  0.000  0.000  0.000  0.000  0.000  0.156
    2  0.000  0.000  0.089  0.068  0.000  0.000  0.000  0.000  0.000  0.156
tot    0.000  0.000  0.175  0.137  0.000  0.000  0.000  0.000  0.000  0.313
 
band     8 # energy    9.55179380 # occ.  0.00000000
 
ion      s     py     pz     px    dxy    dyz    dz2    dxz  x2-y2    tot
    1  0.320  0.029  0.000  0.000  0.000  0.000  0.000  0.000  0.000  0.348
    2  0.320  0.029  0.000  0.000  0.000  0.000  0.000  0.000  0.000  0.348
tot    0.639  0.057  0.000  0.000  0.000  0.000  0.000  0.000  0.000  0.696
 
band     9 # energy   13.13868700 # occ.  0.00000000
 
ion      s     py     pz     px    dxy    dyz    dz2    dxz  x2-y2    tot
    1  0.001  0.001  0.000  0.000  0.000  0.000  0.000  0.000  0.000  0.002
    2  0.001  0.001  0.000  0.000  0.000  0.000  0.000  0.000  0.000  0.002
tot    0.003  0.002  0.000  0.000  0.000  0.000  0.000  0.000  0.000  0.005
 
band    10 # energy   14.04067425 # occ.  0.00000000
 
ion      s     py     pz     px    dxy    dyz    dz2    dxz  x2-y2    tot
    1  0.094  0.010  0.000  0.000  0.000  0.000  0.000  0.000  0.000  0.105
    2  0.095  0.010  0.000  0.000  0.000  0.000  0.000  0.000  0.000  0.105
tot    0.189  0.020  0.000  0.000  0.000  0.000  0.000  0.000  0.000  0.209
 
band    11 # energy   17.26355686 # occ.  0.00000000
 
ion      s     py     pz     px    dxy    dyz    dz2    dxz  x2-y2    tot
    1  0.002  0.013  0.020  0.002  0.000  0.000  0.000  0.000  0.000  0.038
    2  0.002  0.013  0.019  0.004  0.000  0.000  0.000  0.000  0.000  0.038
tot    0.004  0.026  0.039  0.007  0.000  0.000  0.000  0.000  0.000  0.076
 
band    12 # energy   29.43952431 # occ.  0.00000000
 
ion      s     py     pz     px    dxy    dyz    dz2    dxz  x2-y2    tot
    1  0.001  0.021  0.005  0.009  0.000  0.000  0.000  0.000  0.000  0.035
    2  0.000  0.006  0.010  0.002  0.000  0.000  0.000  0.000  0.000  0.018
tot    0.001  0.027  0.015  0.010  0.000  0.000  0.000  0.000  0.000  0.053
 

 k-point    42 :    0.07142857 0.00000000 0.07142857     weight = 0.00555556

band     1 # energy   -6.03962887 # occ.  2.00000000
 
ion      s     py     pz     px    dxy    dyz    dz2    dxz  x2-y2    tot
    1  0.213  0.001  0.000  0.000  0.000  0.000  0.000  0.000  0.000  0.214
    2  0.213  0.001  0.000  0.000  0.000  0.000  0.000  0.000  0.000  0.214
tot    0.426  0.002  0.000  0.000  0.000  0.000  0.000  0.000  0.000  0.428
 
band     2 # energy    5.30061037 # occ.  2.00000000
 
ion      s     py     pz     px    dxy    dyz    dz2    dxz  x2-y2    tot
    1  0.051  0.181  0.000  0.000  0.000  0.000  0.000  0.000  0.000  0.232
    2  0.051  0.181  0.000  0.000  0.000  0.000  0.000  0.000  0.000  0.232
tot    0.102  0.361  0.000  0.000  0.000  0.000  0.000  0.000  0.000  0.463
 
band     3 # energy    5.50013499 # occ.  2.00000000
 
ion      s     py     pz     px    dxy    dyz    dz2    dxz  x2-y2    tot
    1  0.000  0.000  0.157  0.053  0.000  0.000  0.000  0.000  0.000  0.209
    2  0.000  0.000  0.160  0.049  0.000  0.000  0.000  0.000  0.000  0.209
tot    0.000  0.000  0.317  0.102  0.000  0.000  0.000  0.000  0.000  0.419
 
band     4 # energy    5.50013516 # occ.  2.00000000
 
ion      s     py     pz     px    dxy    dyz    dz2    dxz  x2-y2    tot
    1  0.000  0.000  0.053  0.157  0.000  0.000  0.000  0.000  0.000  0.209
    2  0.000  0.000  0.049  0.160  0.000  0.000  0.000  0.000  0.000  0.209
tot    0.000  0.000  0.102  0.317  0.000  0.000  0.000  0.000  0.000  0.419
 
band     5 # energy    8.18993107 # occ.  0.00000000
 
ion      s     py     pz     px    dxy    dyz    dz2    dxz  x2-y2    tot
    1  0.008  0.138  0.000  0.000  0.000  0.000  0.000  0.000  0.000  0.146
    2  0.008  0.138  0.000  0.000  0.000  0.000  0.000  0.000  0.000  0.146
tot    0.017  0.276  0.000  0.000  0.000  0.000  0.000  0.000  0.000  0.293
 
band     6 # energy    8.83804993 # occ.  0.00000000
 
ion      s     py     pz     px    dxy    dyz    dz2    dxz  x2-y2    tot
    1  0.000  0.000  0.148  0.010  0.000  0.000  0.000  0.000  0.000  0.158
    2  0.000  0.000  0.102  0.056  0.000  0.000  0.000  0.000  0.000  0.158
tot    0.000  0.000  0.251  0.065  0.000  0.000  0.000  0.000  0.000  0.316
 
band     7 # energy    8.83804996 # occ.  0.00000000
 
ion      s     py     pz     px    dxy    dyz    dz2    dxz  x2-y2    tot
    1  0.000  0.000  0.010  0.148  0.000  0.000  0.000  0.000  0.000  0.158
    2  0.000  0.000  0.056  0.102  0.000  0.000  0.000  0.000  0.000  0.158
tot    0.000  0.000  0.065  0.251  0.000  0.000  0.000  0.000  0.000  0.316
 
band     8 # energy    9.70998747 # occ.  0.00000000
 
ion      s     py     pz     px    dxy    dyz    dz2    dxz  x2-y2    tot
    1  0.303  0.040  0.000  0.000  0.000  0.000  0.000  0.000  0.000  0.343
    2  0.303  0.040  0.000  0.000  0.000  0.000  0.000  0.000  0.000  0.343
tot    0.607  0.080  0.000  0.000  0.000  0.000  0.000  0.000  0.000  0.687
 
band     9 # energy   12.95034052 # occ.  0.00000000
 
ion      s     py     pz     px    dxy    dyz    dz2    dxz  x2-y2    tot
    1  0.003  0.001  0.000  0.000  0.000  0.000  0.000  0.000  0.000  0.004
    2  0.003  0.001  0.000  0.000  0.000  0.000  0.000  0.000  0.000  0.004
tot    0.007  0.001  0.000  0.000  0.000  0.000  0.000  0.000  0.000  0.008
 
band    10 # energy   13.65190670 # occ.  0.00000000
 
ion      s     py     pz     px    dxy    dyz    dz2    dxz  x2-y2    tot
    1  0.000  0.000  0.000  0.000  0.000  0.000  0.000  0.000  0.000  0.000
    2  0.000  0.000  0.000  0.000  0.000  0.000  0.000  0.000  0.000  0.000
tot    0.000  0.000  0.000  0.000  0.000  0.000  0.000  0.000  0.000  0.000
 
band    11 # energy   14.17631286 # occ.  0.00000000
 
ion      s     py     pz     px    dxy    dyz    dz2    dxz  x2-y2    tot
    1  0.091  0.015  0.000  0.000  0.000  0.000  0.000  0.000  0.000  0.107
    2  0.091  0.015  0.000  0.000  0.000  0.000  0.000  0.000  0.000  0.107
tot    0.183  0.031  0.000  0.000  0.000  0.000  0.000  0.000  0.000  0.213
 
band    12 # energy   29.10920363 # occ.  0.00000000
 
ion      s     py     pz     px    dxy    dyz    dz2    dxz  x2-y2    tot
    1  0.000  0.018  0.016  0.008  0.000  0.000  0.000  0.000  0.000  0.043
    2  0.002  0.028  0.015  0.001  0.000  0.000  0.000  0.000  0.000  0.046
tot    0.002  0.046  0.031  0.009  0.000  0.000  0.000  0.000  0.000  0.088
 

 k-point    43 :    0.08571429 0.00000000 0.08571429     weight = 0.00555556

band     1 # energy   -6.00036654 # occ.  2.00000000
 
ion      s     py     pz     px    dxy    dyz    dz2    dxz  x2-y2    tot
    1  0.213  0.001  0.000  0.000  0.000  0.000  0.000  0.000  0.000  0.214
    2  0.213  0.001  0.000  0.000  0.000  0.000  0.000  0.000  0.000  0.214
tot    0.426  0.003  0.000  0.000  0.000  0.000  0.000  0.000  0.000  0.428
 
band     2 # energy    5.10569114 # occ.  2.00000000
 
ion      s     py     pz     px    dxy    dyz    dz2    dxz  x2-y2    tot
    1  0.064  0.171  0.000  0.000  0.000  0.000  0.000  0.000  0.000  0.236
    2  0.064  0.171  0.000  0.000  0.000  0.000  0.000  0.000  0.000  0.236
tot    0.129  0.342  0.000  0.000  0.000  0.000  0.000  0.000  0.000  0.471
 
band     3 # energy    5.38145964 # occ.  2.00000000
 
ion      s     py     pz     px    dxy    dyz    dz2    dxz  x2-y2    tot
    1  0.000  0.000  0.148  0.059  0.000  0.000  0.000  0.000  0.000  0.208
    2  0.000  0.000  0.128  0.079  0.000  0.000  0.000  0.000  0.000  0.208
tot    0.000  0.000  0.277  0.139  0.000  0.000  0.000  0.000  0.000  0.415
 
band     4 # energy    5.38145975 # occ.  2.00000000
 
ion      s     py     pz     px    dxy    dyz    dz2    dxz  x2-y2    tot
    1  0.000  0.000  0.059  0.148  0.000  0.000  0.000  0.000  0.000  0.208
    2  0.000  0.000  0.079  0.128  0.000  0.000  0.000  0.000  0.000  0.208
tot    0.000  0.000  0.139  0.277  0.000  0.000  0.000  0.000  0.000  0.415
 
band     5 # energy    8.10826093 # occ.  0.00000000
 
ion      s     py     pz     px    dxy    dyz    dz2    dxz  x2-y2    tot
    1  0.012  0.133  0.000  0.000  0.000  0.000  0.000  0.000  0.000  0.144
    2  0.012  0.133  0.000  0.000  0.000  0.000  0.000  0.000  0.000  0.144
tot    0.023  0.266  0.000  0.000  0.000  0.000  0.000  0.000  0.000  0.289
 
band     6 # energy    9.00481160 # occ.  0.00000000
 
ion      s     py     pz     px    dxy    dyz    dz2    dxz  x2-y2    tot
    1  0.000  0.000  0.085  0.075  0.000  0.000  0.000  0.000  0.000  0.160
    2  0.000  0.000  0.077  0.083  0.000  0.000  0.000  0.000  0.000  0.160
tot    0.000  0.000  0.161  0.158  0.000  0.000  0.000  0.000  0.000  0.320
 
band     7 # energy    9.00481167 # occ.  0.00000000
 
ion      s     py     pz     px    dxy    dyz    dz2    dxz  x2-y2    tot
    1  0.000  0.000  0.075  0.085  0.000  0.000  0.000  0.000  0.000  0.160
    2  0.000  0.000  0.083  0.077  0.000  0.000  0.000  0.000  0.000  0.160
tot    0.000  0.000  0.158  0.161  0.000  0.000  0.000  0.000  0.000  0.320
 
band     8 # energy    9.87553847 # occ.  0.00000000
 
ion      s     py     pz     px    dxy    dyz    dz2    dxz  x2-y2    tot
    1  0.286  0.051  0.000  0.000  0.000  0.000  0.000  0.000  0.000  0.337
    2  0.286  0.051  0.000  0.000  0.000  0.000  0.000  0.000  0.000  0.337
tot    0.571  0.103  0.000  0.000  0.000  0.000  0.000  0.000  0.000  0.674
 
band     9 # energy   12.75673948 # occ.  0.00000000
 
ion      s     py     pz     px    dxy    dyz    dz2    dxz  x2-y2    tot
    1  0.007  0.000  0.000  0.000  0.000  0.000  0.000  0.000  0.000  0.008
    2  0.007  0.000  0.000  0.000  0.000  0.000  0.000  0.000  0.000  0.008
tot    0.015  0.001  0.000  0.000  0.000  0.000  0.000  0.000  0.000  0.015
 
band    10 # energy   14.33504562 # occ.  0.00000000
 
ion      s     py     pz     px    dxy    dyz    dz2    dxz  x2-y2    tot
    1  0.088  0.021  0.000  0.000  0.000  0.000  0.000  0.000  0.000  0.109
    2  0.088  0.021  0.000  0.000  0.000  0.000  0.000  0.000  0.000  0.109
tot    0.175  0.042  0.000  0.000  0.000  0.000  0.000  0.000  0.000  0.217
 
band    11 # energy   17.39113145 # occ.  0.00000000
 
ion      s     py     pz     px    dxy    dyz    dz2    dxz  x2-y2    tot
    1  0.002  0.006  0.011  0.018  0.000  0.000  0.000  0.000  0.000  0.037
    2  0.002  0.006  0.012  0.017  0.000  0.000  0.000  0.000  0.000  0.037
tot    0.005  0.012  0.023  0.035  0.000  0.000  0.000  0.000  0.000  0.074
 
band    12 # energy   28.15188340 # occ.  0.00000000
 
ion      s     py     pz     px    dxy    dyz    dz2    dxz  x2-y2    tot
    1  0.001  0.020  0.033  0.019  0.000  0.000  0.000  0.000  0.000  0.072
    2  0.001  0.008  0.021  0.025  0.000  0.000  0.000  0.000  0.000  0.055
tot    0.001  0.028  0.054  0.044  0.000  0.000  0.000  0.000  0.000  0.127
 

 k-point    44 :    0.10000000 0.00000000 0.10000000     weight = 0.00555556

band     1 # energy   -5.95402535 # occ.  2.00000000
 
ion      s     py     pz     px    dxy    dyz    dz2    dxz  x2-y2    tot
    1  0.213  0.002  0.000  0.000  0.000  0.000  0.000  0.000  0.000  0.214
    2  0.213  0.002  0.000  0.000  0.000  0.000  0.000  0.000  0.000  0.214
tot    0.425  0.004  0.000  0.000  0.000  0.000  0.000  0.000  0.000  0.429
 
band     2 # energy    4.89513070 # occ.  2.00000000
 
ion      s     py     pz     px    dxy    dyz    dz2    dxz  x2-y2    tot
    1  0.077  0.162  0.000  0.000  0.000  0.000  0.000  0.000  0.000  0.239
    2  0.077  0.162  0.000  0.000  0.000  0.000  0.000  0.000  0.000  0.239
tot    0.154  0.324  0.000  0.000  0.000  0.000  0.000  0.000  0.000  0.478
 
band     3 # energy    5.25539486 # occ.  2.00000000
 
ion      s     py     pz     px    dxy    dyz    dz2    dxz  x2-y2    tot
    1  0.000  0.000  0.100  0.106  0.000  0.000  0.000  0.000  0.000  0.206
    2  0.000  0.000  0.015  0.191  0.000  0.000  0.000  0.000  0.000  0.206
tot    0.000  0.000  0.115  0.298  0.000  0.000  0.000  0.000  0.000  0.412
 
band     4 # energy    5.25539494 # occ.  2.00000000
 
ion      s     py     pz     px    dxy    dyz    dz2    dxz  x2-y2    tot
    1  0.000  0.000  0.106  0.100  0.000  0.000  0.000  0.000  0.000  0.206
    2  0.000  0.000  0.191  0.015  0.000  0.000  0.000  0.000  0.000  0.206
tot    0.000  0.000  0.298  0.115  0.000  0.000  0.000  0.000  0.000  0.412
 
band     5 # energy    8.01792727 # occ.  0.00000000
 
ion      s     py     pz     px    dxy    dyz    dz2    dxz  x2-y2    tot
    1  0.015  0.128  0.000  0.000  0.000  0.000  0.000  0.000  0.000  0.142
    2  0.015  0.128  0.000  0.000  0.000  0.000  0.000  0.000  0.000  0.142
tot    0.029  0.255  0.000  0.000  0.000  0.000  0.000  0.000  0.000  0.285
 
band     6 # energy    9.18769390 # occ.  0.00000000
 
ion      s     py     pz     px    dxy    dyz    dz2    dxz  x2-y2    tot
    1  0.000  0.000  0.137  0.025  0.000  0.000  0.000  0.000  0.000  0.161
    2  0.000  0.000  0.094  0.068  0.000  0.000  0.000  0.000  0.000  0.161
tot    0.000  0.000  0.231  0.092  0.000  0.000  0.000  0.000  0.000  0.323
 
band     7 # energy    9.18769395 # occ.  0.00000000
 
ion      s     py     pz     px    dxy    dyz    dz2    dxz  x2-y2    tot
    1  0.000  0.000  0.025  0.137  0.000  0.000  0.000  0.000  0.000  0.161
    2  0.000  0.000  0.068  0.094  0.000  0.000  0.000  0.000  0.000  0.161
tot    0.000  0.000  0.092  0.231  0.000  0.000  0.000  0.000  0.000  0.323
 
band     8 # energy   10.03428928 # occ.  0.00000000
 
ion      s     py     pz     px    dxy    dyz    dz2    dxz  x2-y2    tot
    1  0.266  0.062  0.000  0.000  0.000  0.000  0.000  0.000  0.000  0.328
    2  0.266  0.062  0.000  0.000  0.000  0.000  0.000  0.000  0.000  0.328
tot    0.532  0.124  0.000  0.000  0.000  0.000  0.000  0.000  0.000  0.655
 
band     9 # energy   12.57367436 # occ.  0.00000000
 
ion      s     py     pz     px    dxy    dyz    dz2    dxz  x2-y2    tot
    1  0.015  0.000  0.000  0.000  0.000  0.000  0.000  0.000  0.000  0.015
    2  0.015  0.000  0.000  0.000  0.000  0.000  0.000  0.000  0.000  0.015
tot    0.029  0.000  0.000  0.000  0.000  0.000  0.000  0.000  0.000  0.029
 
band    10 # energy   13.74705665 # occ.  0.00000000
 
ion      s     py     pz     px    dxy    dyz    dz2    dxz  x2-y2    tot
    1  0.000  0.000  0.000  0.000  0.000  0.000  0.000  0.000  0.000  0.000
    2  0.000  0.000  0.000  0.000  0.000  0.000  0.000  0.000  0.000  0.000
tot    0.000  0.000  0.000  0.000  0.000  0.000  0.000  0.000  0.000  0.000
 
band    11 # energy   14.51638474 # occ.  0.00000000
 
ion      s     py     pz     px    dxy    dyz    dz2    dxz  x2-y2    tot
    1  0.083  0.027  0.000  0.000  0.000  0.000  0.000  0.000  0.000  0.111
    2  0.083  0.027  0.000  0.000  0.000  0.000  0.000  0.000  0.000  0.111
tot    0.167  0.054  0.000  0.000  0.000  0.000  0.000  0.000  0.000  0.221
 
band    12 # energy   17.45803957 # occ.  0.00000000
 
ion      s     py     pz     px    dxy    dyz    dz2    dxz  x2-y2    tot
    1  0.002  0.004  0.018  0.013  0.000  0.000  0.000  0.000  0.000  0.037
    2  0.002  0.004  0.021  0.010  0.000  0.000  0.000  0.000  0.000  0.037
tot    0.004  0.007  0.039  0.023  0.000  0.000  0.000  0.000  0.000  0.074
 

 k-point    45 :    0.11428571 0.00000000 0.11428571     weight = 0.00555556

band     1 # energy   -5.90061145 # occ.  2.00000000
 
ion      s     py     pz     px    dxy    dyz    dz2    dxz  x2-y2    tot
    1  0.212  0.003  0.000  0.000  0.000  0.000  0.000  0.000  0.000  0.215
    2  0.212  0.003  0.000  0.000  0.000  0.000  0.000  0.000  0.000  0.215
tot    0.425  0.005  0.000  0.000  0.000  0.000  0.000  0.000  0.000  0.430
 
band     2 # energy    4.67278163 # occ.  2.00000000
 
ion      s     py     pz     px    dxy    dyz    dz2    dxz  x2-y2    tot
    1  0.089  0.154  0.000  0.000  0.000  0.000  0.000  0.000  0.000  0.242
    2  0.089  0.154  0.000  0.000  0.000  0.000  0.000  0.000  0.000  0.242
tot    0.177  0.307  0.000  0.000  0.000  0.000  0.000  0.000  0.000  0.484
 
band     3 # energy    5.12484389 # occ.  2.00000000
 
ion      s     py     pz     px    dxy    dyz    dz2    dxz  x2-y2    tot
    1  0.000  0.000  0.154  0.050  0.000  0.000  0.000  0.000  0.000  0.205
    2  0.000  0.000  0.169  0.035  0.000  0.000  0.000  0.000  0.000  0.205
tot    0.000  0.000  0.324  0.086  0.000  0.000  0.000  0.000  0.000  0.410
 
band     4 # energy    5.12484394 # occ.  2.00000000
 
ion      s     py     pz     px    dxy    dyz    dz2    dxz  x2-y2    tot
    1  0.000  0.000  0.050  0.154  0.000  0.000  0.000  0.000  0.000  0.205
    2  0.000  0.000  0.035  0.169  0.000  0.000  0.000  0.000  0.000  0.205
tot    0.000  0.000  0.086  0.324  0.000  0.000  0.000  0.000  0.000  0.410
 
band     5 # energy    7.92095038 # occ.  0.00000000
 
ion      s     py     pz     px    dxy    dyz    dz2    dxz  x2-y2    tot
    1  0.018  0.122  0.000  0.000  0.000  0.000  0.000  0.000  0.000  0.140
    2  0.018  0.122  0.000  0.000  0.000  0.000  0.000  0.000  0.000  0.140
tot    0.036  0.245  0.000  0.000  0.000  0.000  0.000  0.000  0.000  0.280
 
band     6 # energy    9.38335701 # occ.  0.00000000
 
ion      s     py     pz     px    dxy    dyz    dz2    dxz  x2-y2    tot
    1  0.000  0.000  0.081  0.081  0.000  0.000  0.000  0.000  0.000  0.163
    2  0.000  0.000  0.079  0.083  0.000  0.000  0.000  0.000  0.000  0.163
tot    0.000  0.000  0.161  0.165  0.000  0.000  0.000  0.000  0.000  0.325
 
band     7 # energy    9.38335709 # occ.  0.00000000
 
ion      s     py     pz     px    dxy    dyz    dz2    dxz  x2-y2    tot
    1  0.000  0.000  0.081  0.081  0.000  0.000  0.000  0.000  0.000  0.163
    2  0.000  0.000  0.083  0.079  0.000  0.000  0.000  0.000  0.000  0.163
tot    0.000  0.000  0.165  0.161  0.000  0.000  0.000  0.000  0.000  0.325
 
band     8 # energy   10.16812476 # occ.  0.00000000
 
ion      s     py     pz     px    dxy    dyz    dz2    dxz  x2-y2    tot
    1  0.241  0.070  0.000  0.000  0.000  0.000  0.000  0.000  0.000  0.312
    2  0.241  0.070  0.000  0.000  0.000  0.000  0.000  0.000  0.000  0.312
tot    0.483  0.140  0.000  0.000  0.000  0.000  0.000  0.000  0.000  0.623
 
band     9 # energy   12.42100029 # occ.  0.00000000
 
ion      s     py     pz     px    dxy    dyz    dz2    dxz  x2-y2    tot
    1  0.028  0.001  0.000  0.000  0.000  0.000  0.000  0.000  0.000  0.029
    2  0.028  0.001  0.000  0.000  0.000  0.000  0.000  0.000  0.000  0.029
tot    0.055  0.002  0.000  0.000  0.000  0.000  0.000  0.000  0.000  0.057
 
band    10 # energy   13.80635004 # occ.  0.00000000
 
ion      s     py     pz     px    dxy    dyz    dz2    dxz  x2-y2    tot
    1  0.000  0.000  0.000  0.000  0.000  0.000  0.000  0.000  0.000  0.000
    2  0.000  0.000  0.000  0.000  0.000  0.000  0.000  0.000  0.000  0.000
tot    0.000  0.000  0.000  0.000  0.000  0.000  0.000  0.000  0.000  0.000
 
band    11 # energy   14.71778285 # occ.  0.00000000
 
ion      s     py     pz     px    dxy    dyz    dz2    dxz  x2-y2    tot
    1  0.079  0.034  0.000  0.000  0.000  0.000  0.000  0.000  0.000  0.113
    2  0.079  0.034  0.000  0.000  0.000  0.000  0.000  0.000  0.000  0.113
tot    0.158  0.067  0.000  0.000  0.000  0.000  0.000  0.000  0.000  0.225
 
band    12 # energy   32.37433760 # occ.  0.00000000
 
ion      s     py     pz     px    dxy    dyz    dz2    dxz  x2-y2    tot
    1  0.005  0.034  0.061  0.017  0.000  0.000  0.000  0.000  0.000  0.117
    2  0.006  0.041  0.056  0.023  0.000  0.000  0.000  0.000  0.000  0.126
tot    0.011  0.075  0.117  0.040  0.000  0.000  0.000  0.000  0.000  0.243
 

 k-point    46 :    0.12857143 0.00000000 0.12857143     weight = 0.00555556

band     1 # energy   -5.84013684 # occ.  2.00000000
 
ion      s     py     pz     px    dxy    dyz    dz2    dxz  x2-y2    tot
    1  0.212  0.003  0.000  0.000  0.000  0.000  0.000  0.000  0.000  0.215
    2  0.212  0.003  0.000  0.000  0.000  0.000  0.000  0.000  0.000  0.215
tot    0.424  0.006  0.000  0.000  0.000  0.000  0.000  0.000  0.000  0.430
 
band     2 # energy    4.44153836 # occ.  2.00000000
 
ion      s     py     pz     px    dxy    dyz    dz2    dxz  x2-y2    tot
    1  0.099  0.146  0.000  0.000  0.000  0.000  0.000  0.000  0.000  0.245
    2  0.099  0.146  0.000  0.000  0.000  0.000  0.000  0.000  0.000  0.245
tot    0.198  0.292  0.000  0.000  0.000  0.000  0.000  0.000  0.000  0.490
 
band     3 # energy    4.99215369 # occ.  2.00000000
 
ion      s     py     pz     px    dxy    dyz    dz2    dxz  x2-y2    tot
    1  0.000  0.000  0.061  0.143  0.000  0.000  0.000  0.000  0.000  0.204
    2  0.000  0.000  0.033  0.171  0.000  0.000  0.000  0.000  0.000  0.204
tot    0.000  0.000  0.094  0.313  0.000  0.000  0.000  0.000  0.000  0.407
 
band     4 # energy    4.99215377 # occ.  2.00000000
 
ion      s     py     pz     px    dxy    dyz    dz2    dxz  x2-y2    tot
    1  0.000  0.000  0.143  0.061  0.000  0.000  0.000  0.000  0.000  0.204
    2  0.000  0.000  0.171  0.033  0.000  0.000  0.000  0.000  0.000  0.204
tot    0.000  0.000  0.313  0.094  0.000  0.000  0.000  0.000  0.000  0.407
 
band     5 # energy    7.81929471 # occ.  0.00000000
 
ion      s     py     pz     px    dxy    dyz    dz2    dxz  x2-y2    tot
    1  0.021  0.117  0.000  0.000  0.000  0.000  0.000  0.000  0.000  0.138
    2  0.021  0.117  0.000  0.000  0.000  0.000  0.000  0.000  0.000  0.138
tot    0.042  0.234  0.000  0.000  0.000  0.000  0.000  0.000  0.000  0.276
 
band     6 # energy    9.58968772 # occ.  0.00000000
 
ion      s     py     pz     px    dxy    dyz    dz2    dxz  x2-y2    tot
    1  0.000  0.000  0.006  0.157  0.000  0.000  0.000  0.000  0.000  0.164
    2  0.000  0.000  0.125  0.039  0.000  0.000  0.000  0.000  0.000  0.164
tot    0.000  0.000  0.131  0.196  0.000  0.000  0.000  0.000  0.000  0.328
 
band     7 # energy    9.58968779 # occ.  0.00000000
 
ion      s     py     pz     px    dxy    dyz    dz2    dxz  x2-y2    tot
    1  0.000  0.000  0.157  0.006  0.000  0.000  0.000  0.000  0.000  0.164
    2  0.000  0.000  0.039  0.125  0.000  0.000  0.000  0.000  0.000  0.164
tot    0.000  0.000  0.196  0.131  0.000  0.000  0.000  0.000  0.000  0.328
 
band     8 # energy   10.25467012 # occ.  0.00000000
 
ion      s     py     pz     px    dxy    dyz    dz2    dxz  x2-y2    tot
    1  0.210  0.075  0.000  0.000  0.000  0.000  0.000  0.000  0.000  0.285
    2  0.210  0.075  0.000  0.000  0.000  0.000  0.000  0.000  0.000  0.285
tot    0.420  0.150  0.000  0.000  0.000  0.000  0.000  0.000  0.000  0.570
 
band     9 # energy   12.32273899 # occ.  0.00000000
 
ion      s     py     pz     px    dxy    dyz    dz2    dxz  x2-y2    tot
    1  0.048  0.005  0.000  0.000  0.000  0.000  0.000  0.000  0.000  0.053
    2  0.048  0.005  0.000  0.000  0.000  0.000  0.000  0.000  0.000  0.053
tot    0.097  0.010  0.000  0.000  0.000  0.000  0.000  0.000  0.000  0.107
 
band    10 # energy   13.87360459 # occ.  0.00000000
 
ion      s     py     pz     px    dxy    dyz    dz2    dxz  x2-y2    tot
    1  0.000  0.000  0.000  0.000  0.000  0.000  0.000  0.000  0.000  0.000
    2  0.000  0.000  0.000  0.000  0.000  0.000  0.000  0.000  0.000  0.000
tot    0.000  0.000  0.000  0.000  0.000  0.000  0.000  0.000  0.000  0.000
 
band    11 # energy   14.93720817 # occ.  0.00000000
 
ion      s     py     pz     px    dxy    dyz    dz2    dxz  x2-y2    tot
    1  0.075  0.040  0.000  0.000  0.000  0.000  0.000  0.000  0.000  0.115
    2  0.075  0.040  0.000  0.000  0.000  0.000  0.000  0.000  0.000  0.115
tot    0.149  0.081  0.000  0.000  0.000  0.000  0.000  0.000  0.000  0.230
 
band    12 # energy   17.96769512 # occ.  0.00000000
 
ion      s     py     pz     px    dxy    dyz    dz2    dxz  x2-y2    tot
    1  0.011  0.011  0.000  0.008  0.000  0.000  0.000  0.000  0.000  0.030
    2  0.011  0.011  0.000  0.008  0.000  0.000  0.000  0.000  0.000  0.030
tot    0.022  0.022  0.001  0.016  0.000  0.000  0.000  0.000  0.000  0.061
 

 k-point    47 :    0.14285714 0.00000000 0.14285714     weight = 0.00555556

band     1 # energy   -5.77264432 # occ.  2.00000000
 
ion      s     py     pz     px    dxy    dyz    dz2    dxz  x2-y2    tot
    1  0.212  0.004  0.000  0.000  0.000  0.000  0.000  0.000  0.000  0.216
    2  0.212  0.004  0.000  0.000  0.000  0.000  0.000  0.000  0.000  0.216
tot    0.423  0.008  0.000  0.000  0.000  0.000  0.000  0.000  0.000  0.431
 
band     2 # energy    4.20355481 # occ.  2.00000000
 
ion      s     py     pz     px    dxy    dyz    dz2    dxz  x2-y2    tot
    1  0.108  0.139  0.000  0.000  0.000  0.000  0.000  0.000  0.000  0.247
    2  0.108  0.139  0.000  0.000  0.000  0.000  0.000  0.000  0.000  0.247
tot    0.216  0.278  0.000  0.000  0.000  0.000  0.000  0.000  0.000  0.495
 
band     3 # energy    4.85896702 # occ.  2.00000000
 
ion      s     py     pz     px    dxy    dyz    dz2    dxz  x2-y2    tot
    1  0.000  0.000  0.123  0.079  0.000  0.000  0.000  0.000  0.000  0.203
    2  0.000  0.000  0.130  0.072  0.000  0.000  0.000  0.000  0.000  0.203
tot    0.000  0.000  0.253  0.152  0.000  0.000  0.000  0.000  0.000  0.405
 
band     4 # energy    4.85896711 # occ.  2.00000000
 
ion      s     py     pz     px    dxy    dyz    dz2    dxz  x2-y2    tot
    1  0.000  0.000  0.079  0.123  0.000  0.000  0.000  0.000  0.000  0.203
    2  0.000  0.000  0.072  0.130  0.000  0.000  0.000  0.000  0.000  0.203
tot    0.000  0.000  0.152  0.253  0.000  0.000  0.000  0.000  0.000  0.405
 
band     5 # energy    7.71467363 # occ.  0.00000000
 
ion      s     py     pz     px    dxy    dyz    dz2    dxz  x2-y2    tot
    1  0.024  0.112  0.000  0.000  0.000  0.000  0.000  0.000  0.000  0.136
    2  0.024  0.112  0.000  0.000  0.000  0.000  0.000  0.000  0.000  0.136
tot    0.049  0.223  0.000  0.000  0.000  0.000  0.000  0.000  0.000  0.272
 
band     6 # energy    9.80471843 # occ.  0.00000000
 
ion      s     py     pz     px    dxy    dyz    dz2    dxz  x2-y2    tot
    1  0.000  0.000  0.042  0.123  0.000  0.000  0.000  0.000  0.000  0.165
    2  0.000  0.000  0.150  0.015  0.000  0.000  0.000  0.000  0.000  0.165
tot    0.000  0.000  0.192  0.138  0.000  0.000  0.000  0.000  0.000  0.330
 
band     7 # energy    9.80471847 # occ.  0.00000000
 
ion      s     py     pz     px    dxy    dyz    dz2    dxz  x2-y2    tot
    1  0.000  0.000  0.123  0.042  0.000  0.000  0.000  0.000  0.000  0.165
    2  0.000  0.000  0.015  0.150  0.000  0.000  0.000  0.000  0.000  0.165
tot    0.000  0.000  0.138  0.192  0.000  0.000  0.000  0.000  0.000  0.330
 
band     8 # energy   10.27262047 # occ.  0.00000000
 
ion      s     py     pz     px    dxy    dyz    dz2    dxz  x2-y2    tot
    1  0.173  0.074  0.000  0.000  0.000  0.000  0.000  0.000  0.000  0.248
    2  0.173  0.074  0.000  0.000  0.000  0.000  0.000  0.000  0.000  0.248
tot    0.347  0.149  0.000  0.000  0.000  0.000  0.000  0.000  0.000  0.496
 
band     9 # energy   12.30084813 # occ.  0.00000000
 
ion      s     py     pz     px    dxy    dyz    dz2    dxz  x2-y2    tot
    1  0.076  0.014  0.000  0.000  0.000  0.000  0.000  0.000  0.000  0.090
    2  0.076  0.014  0.000  0.000  0.000  0.000  0.000  0.000  0.000  0.090
tot    0.152  0.027  0.000  0.000  0.000  0.000  0.000  0.000  0.000  0.179
 
band    10 # energy   13.94867981 # occ.  0.00000000
 
ion      s     py     pz     px    dxy    dyz    dz2    dxz  x2-y2    tot
    1  0.000  0.000  0.000  0.000  0.000  0.000  0.000  0.000  0.000  0.000
    2  0.000  0.000  0.000  0.000  0.000  0.000  0.000  0.000  0.000  0.000
tot    0.000  0.000  0.000  0.000  0.000  0.000  0.000  0.000  0.000  0.000
 
band    11 # energy   15.17265616 # occ.  0.00000000
 
ion      s     py     pz     px    dxy    dyz    dz2    dxz  x2-y2    tot
    1  0.070  0.047  0.000  0.000  0.000  0.000  0.000  0.000  0.000  0.117
    2  0.070  0.047  0.000  0.000  0.000  0.000  0.000  0.000  0.000  0.117
tot    0.140  0.094  0.000  0.000  0.000  0.000  0.000  0.000  0.000  0.234
 
band    12 # energy   17.71168842 # occ.  0.00000000
 
ion      s     py     pz     px    dxy    dyz    dz2    dxz  x2-y2    tot
    1  0.000  0.000  0.024  0.011  0.000  0.000  0.000  0.000  0.000  0.036
    2  0.000  0.000  0.017  0.019  0.000  0.000  0.000  0.000  0.000  0.036
tot    0.001  0.000  0.040  0.030  0.000  0.000  0.000  0.000  0.000  0.071
 

 k-point    48 :    0.15714286 0.00000000 0.15714286     weight = 0.00555556

band     1 # energy   -5.69815630 # occ.  2.00000000
 
ion      s     py     pz     px    dxy    dyz    dz2    dxz  x2-y2    tot
    1  0.211  0.005  0.000  0.000  0.000  0.000  0.000  0.000  0.000  0.216
    2  0.211  0.005  0.000  0.000  0.000  0.000  0.000  0.000  0.000  0.216
tot    0.422  0.009  0.000  0.000  0.000  0.000  0.000  0.000  0.000  0.432
 
band     2 # energy    3.96044540 # occ.  2.00000000
 
ion      s     py     pz     px    dxy    dyz    dz2    dxz  x2-y2    tot
    1  0.117  0.133  0.000  0.000  0.000  0.000  0.000  0.000  0.000  0.249
    2  0.117  0.133  0.000  0.000  0.000  0.000  0.000  0.000  0.000  0.249
tot    0.233  0.265  0.000  0.000  0.000  0.000  0.000  0.000  0.000  0.499
 
band     3 # energy    4.72666782 # occ.  2.00000000
 
ion      s     py     pz     px    dxy    dyz    dz2    dxz  x2-y2    tot
    1  0.000  0.000  0.097  0.105  0.000  0.000  0.000  0.000  0.000  0.202
    2  0.000  0.000  0.078  0.123  0.000  0.000  0.000  0.000  0.000  0.202
tot    0.000  0.000  0.175  0.229  0.000  0.000  0.000  0.000  0.000  0.404
 
band     4 # energy    4.72666792 # occ.  2.00000000
 
ion      s     py     pz     px    dxy    dyz    dz2    dxz  x2-y2    tot
    1  0.000  0.000  0.105  0.097  0.000  0.000  0.000  0.000  0.000  0.202
    2  0.000  0.000  0.123  0.078  0.000  0.000  0.000  0.000  0.000  0.202
tot    0.000  0.000  0.229  0.175  0.000  0.000  0.000  0.000  0.000  0.404
 
band     5 # energy    7.60865512 # occ.  0.00000000
 
ion      s     py     pz     px    dxy    dyz    dz2    dxz  x2-y2    tot
    1  0.027  0.106  0.000  0.000  0.000  0.000  0.000  0.000  0.000  0.134
    2  0.027  0.106  0.000  0.000  0.000  0.000  0.000  0.000  0.000  0.134
tot    0.055  0.213  0.000  0.000  0.000  0.000  0.000  0.000  0.000  0.267
 
band     6 # energy   10.02708796 # occ.  0.00000000
 
ion      s     py     pz     px    dxy    dyz    dz2    dxz  x2-y2    tot
    1  0.000  0.000  0.119  0.047  0.000  0.000  0.000  0.000  0.000  0.165
    2  0.000  0.000  0.059  0.107  0.000  0.000  0.000  0.000  0.000  0.165
tot    0.000  0.000  0.177  0.154  0.000  0.000  0.000  0.000  0.000  0.331
 
band     7 # energy   10.02708801 # occ.  0.00000000
 
ion      s     py     pz     px    dxy    dyz    dz2    dxz  x2-y2    tot
    1  0.000  0.000  0.047  0.119  0.000  0.000  0.000  0.000  0.000  0.165
    2  0.000  0.000  0.107  0.059  0.000  0.000  0.000  0.000  0.000  0.165
tot    0.000  0.000  0.154  0.177  0.000  0.000  0.000  0.000  0.000  0.331
 
band     8 # energy   10.21424442 # occ.  0.00000000
 
ion      s     py     pz     px    dxy    dyz    dz2    dxz  x2-y2    tot
    1  0.137  0.069  0.000  0.000  0.000  0.000  0.000  0.000  0.000  0.206
    2  0.137  0.069  0.000  0.000  0.000  0.000  0.000  0.000  0.000  0.206
tot    0.274  0.138  0.000  0.000  0.000  0.000  0.000  0.000  0.000  0.412
 
band     9 # energy   12.36473634 # occ.  0.00000000
 
ion      s     py     pz     px    dxy    dyz    dz2    dxz  x2-y2    tot
    1  0.104  0.026  0.000  0.000  0.000  0.000  0.000  0.000  0.000  0.130
    2  0.104  0.026  0.000  0.000  0.000  0.000  0.000  0.000  0.000  0.130
tot    0.208  0.052  0.000  0.000  0.000  0.000  0.000  0.000  0.000  0.260
 
band    10 # energy   14.03163926 # occ.  0.00000000
 
ion      s     py     pz     px    dxy    dyz    dz2    dxz  x2-y2    tot
    1  0.000  0.000  0.000  0.000  0.000  0.000  0.000  0.000  0.000  0.000
    2  0.000  0.000  0.000  0.000  0.000  0.000  0.000  0.000  0.000  0.000
tot    0.000  0.000  0.000  0.000  0.000  0.000  0.000  0.000  0.000  0.000
 
band    11 # energy   15.42227624 # occ.  0.00000000
 
ion      s     py     pz     px    dxy    dyz    dz2    dxz  x2-y2    tot
    1  0.065  0.054  0.000  0.000  0.000  0.000  0.000  0.000  0.000  0.120
    2  0.065  0.054  0.000  0.000  0.000  0.000  0.000  0.000  0.000  0.120
tot    0.131  0.108  0.000  0.000  0.000  0.000  0.000  0.000  0.000  0.239
 
band    12 # energy   18.25511982 # occ.  0.00000000
 
ion      s     py     pz     px    dxy    dyz    dz2    dxz  x2-y2    tot
    1  0.012  0.008  0.005  0.004  0.000  0.000  0.000  0.000  0.000  0.028
    2  0.012  0.008  0.002  0.007  0.000  0.000  0.000  0.000  0.000  0.028
tot    0.024  0.015  0.007  0.010  0.000  0.000  0.000  0.000  0.000  0.056
 

 k-point    49 :    0.17142857 0.00000000 0.17142857     weight = 0.00555556

band     1 # energy   -5.61670917 # occ.  2.00000000
 
ion      s     py     pz     px    dxy    dyz    dz2    dxz  x2-y2    tot
    1  0.211  0.006  0.000  0.000  0.000  0.000  0.000  0.000  0.000  0.216
    2  0.211  0.006  0.000  0.000  0.000  0.000  0.000  0.000  0.000  0.216
tot    0.422  0.011  0.000  0.000  0.000  0.000  0.000  0.000  0.000  0.433
 
band     2 # energy    3.71342484 # occ.  2.00000000
 
ion      s     py     pz     px    dxy    dyz    dz2    dxz  x2-y2    tot
    1  0.124  0.127  0.000  0.000  0.000  0.000  0.000  0.000  0.000  0.251
    2  0.124  0.127  0.000  0.000  0.000  0.000  0.000  0.000  0.000  0.251
tot    0.249  0.253  0.000  0.000  0.000  0.000  0.000  0.000  0.000  0.502
 
band     3 # energy    4.59628345 # occ.  2.00000000
 
ion      s     py     pz     px    dxy    dyz    dz2    dxz  x2-y2    tot
    1  0.000  0.000  0.027  0.174  0.000  0.000  0.000  0.000  0.000  0.201
    2  0.000  0.000  0.198  0.003  0.000  0.000  0.000  0.000  0.000  0.201
tot    0.000  0.000  0.225  0.177  0.000  0.000  0.000  0.000  0.000  0.402
 
band     4 # energy    4.59628347 # occ.  2.00000000
 
ion      s     py     pz     px    dxy    dyz    dz2    dxz  x2-y2    tot
    1  0.000  0.000  0.174  0.027  0.000  0.000  0.000  0.000  0.000  0.201
    2  0.000  0.000  0.003  0.198  0.000  0.000  0.000  0.000  0.000  0.201
tot    0.000  0.000  0.177  0.225  0.000  0.000  0.000  0.000  0.000  0.402
 
band     5 # energy    7.50257966 # occ.  0.00000000
 
ion      s     py     pz     px    dxy    dyz    dz2    dxz  x2-y2    tot
    1  0.030  0.101  0.000  0.000  0.000  0.000  0.000  0.000  0.000  0.131
    2  0.030  0.101  0.000  0.000  0.000  0.000  0.000  0.000  0.000  0.131
tot    0.060  0.203  0.000  0.000  0.000  0.000  0.000  0.000  0.000  0.263
 
band     6 # energy   10.09025986 # occ.  0.00000000
 
ion      s     py     pz     px    dxy    dyz    dz2    dxz  x2-y2    tot
    1  0.107  0.062  0.000  0.000  0.000  0.000  0.000  0.000  0.000  0.169
    2  0.107  0.062  0.000  0.000  0.000  0.000  0.000  0.000  0.000  0.169
tot    0.215  0.124  0.000  0.000  0.000  0.000  0.000  0.000  0.000  0.339
 
band     7 # energy   10.25583170 # occ.  0.00000000
 
ion      s     py     pz     px    dxy    dyz    dz2    dxz  x2-y2    tot
    1  0.000  0.000  0.115  0.051  0.000  0.000  0.000  0.000  0.000  0.166
    2  0.000  0.000  0.044  0.122  0.000  0.000  0.000  0.000  0.000  0.166
tot    0.000  0.000  0.160  0.172  0.000  0.000  0.000  0.000  0.000  0.332
 
band     8 # energy   10.25583178 # occ.  0.00000000
 
ion      s     py     pz     px    dxy    dyz    dz2    dxz  x2-y2    tot
    1  0.000  0.000  0.051  0.115  0.000  0.000  0.000  0.000  0.000  0.166
    2  0.000  0.000  0.122  0.044  0.000  0.000  0.000  0.000  0.000  0.166
tot    0.000  0.000  0.172  0.160  0.000  0.000  0.000  0.000  0.000  0.332
 
band     9 # energy   12.50415632 # occ.  0.00000000
 
ion      s     py     pz     px    dxy    dyz    dz2    dxz  x2-y2    tot
    1  0.126  0.040  0.000  0.000  0.000  0.000  0.000  0.000  0.000  0.167
    2  0.126  0.040  0.000  0.000  0.000  0.000  0.000  0.000  0.000  0.167
tot    0.253  0.080  0.000  0.000  0.000  0.000  0.000  0.000  0.000  0.333
 
band    10 # energy   14.12279088 # occ.  0.00000000
 
ion      s     py     pz     px    dxy    dyz    dz2    dxz  x2-y2    tot
    1  0.000  0.000  0.000  0.000  0.000  0.000  0.000  0.000  0.000  0.000
    2  0.000  0.000  0.000  0.000  0.000  0.000  0.000  0.000  0.000  0.000
tot    0.000  0.000  0.000  0.000  0.000  0.000  0.000  0.000  0.000  0.000
 
band    11 # energy   15.68437720 # occ.  0.00000000
 
ion      s     py     pz     px    dxy    dyz    dz2    dxz  x2-y2    tot
    1  0.061  0.061  0.000  0.000  0.000  0.000  0.000  0.000  0.000  0.122
    2  0.061  0.061  0.000  0.000  0.000  0.000  0.000  0.000  0.000  0.122
tot    0.121  0.123  0.000  0.000  0.000  0.000  0.000  0.000  0.000  0.244
 
band    12 # energy   17.98129071 # occ.  0.00000000
 
ion      s     py     pz     px    dxy    dyz    dz2    dxz  x2-y2    tot
    1  0.000  0.000  0.029  0.004  0.000  0.000  0.000  0.000  0.000  0.034
    2  0.000  0.000  0.033  0.001  0.000  0.000  0.000  0.000  0.000  0.034
tot    0.001  0.000  0.062  0.005  0.000  0.000  0.000  0.000  0.000  0.068
 

 k-point    50 :    0.18571429 0.00000000 0.18571429     weight = 0.00555556

band     1 # energy   -5.52836895 # occ.  2.00000000
 
ion      s     py     pz     px    dxy    dyz    dz2    dxz  x2-y2    tot
    1  0.210  0.007  0.000  0.000  0.000  0.000  0.000  0.000  0.000  0.217
    2  0.210  0.007  0.000  0.000  0.000  0.000  0.000  0.000  0.000  0.217
tot    0.421  0.013  0.000  0.000  0.000  0.000  0.000  0.000  0.000  0.434
 
band     2 # energy    3.46341452 # occ.  2.00000000
 
ion      s     py     pz     px    dxy    dyz    dz2    dxz  x2-y2    tot
    1  0.131  0.121  0.000  0.000  0.000  0.000  0.000  0.000  0.000  0.252
    2  0.131  0.121  0.000  0.000  0.000  0.000  0.000  0.000  0.000  0.252
tot    0.262  0.242  0.000  0.000  0.000  0.000  0.000  0.000  0.000  0.505
 
band     3 # energy    4.46865080 # occ.  2.00000000
 
ion      s     py     pz     px    dxy    dyz    dz2    dxz  x2-y2    tot
    1  0.000  0.000  0.070  0.131  0.000  0.000  0.000  0.000  0.000  0.200
    2  0.000  0.000  0.102  0.098  0.000  0.000  0.000  0.000  0.000  0.200
tot    0.000  0.000  0.172  0.229  0.000  0.000  0.000  0.000  0.000  0.401
 
band     4 # energy    4.46865090 # occ.  2.00000000
 
ion      s     py     pz     px    dxy    dyz    dz2    dxz  x2-y2    tot
    1  0.000  0.000  0.131  0.070  0.000  0.000  0.000  0.000  0.000  0.200
    2  0.000  0.000  0.098  0.102  0.000  0.000  0.000  0.000  0.000  0.200
tot    0.000  0.000  0.229  0.172  0.000  0.000  0.000  0.000  0.000  0.401
 
band     5 # energy    7.39757820 # occ.  0.00000000
 
ion      s     py     pz     px    dxy    dyz    dz2    dxz  x2-y2    tot
    1  0.033  0.096  0.000  0.000  0.000  0.000  0.000  0.000  0.000  0.129
    2  0.033  0.096  0.000  0.000  0.000  0.000  0.000  0.000  0.000  0.129
tot    0.066  0.193  0.000  0.000  0.000  0.000  0.000  0.000  0.000  0.259
 
band     6 # energy    9.92035401 # occ.  0.00000000
 
ion      s     py     pz     px    dxy    dyz    dz2    dxz  x2-y2    tot
    1  0.086  0.055  0.000  0.000  0.000  0.000  0.000  0.000  0.000  0.141
    2  0.086  0.055  0.000  0.000  0.000  0.000  0.000  0.000  0.000  0.141
tot    0.172  0.111  0.000  0.000  0.000  0.000  0.000  0.000  0.000  0.282
 
band     7 # energy   10.48958552 # occ.  0.00000000
 
ion      s     py     pz     px    dxy    dyz    dz2    dxz  x2-y2    tot
    1  0.000  0.000  0.126  0.040  0.000  0.000  0.000  0.000  0.000  0.167
    2  0.000  0.000  0.033  0.134  0.000  0.000  0.000  0.000  0.000  0.167
tot    0.000  0.000  0.159  0.174  0.000  0.000  0.000  0.000  0.000  0.333
 
band     8 # energy   10.48958557 # occ.  0.00000000
 
ion      s     py     pz     px    dxy    dyz    dz2    dxz  x2-y2    tot
    1  0.000  0.000  0.040  0.126  0.000  0.000  0.000  0.000  0.000  0.167
    2  0.000  0.000  0.134  0.033  0.000  0.000  0.000  0.000  0.000  0.167
tot    0.000  0.000  0.174  0.159  0.000  0.000  0.000  0.000  0.000  0.333
 
band     9 # energy   12.69940106 # occ.  0.00000000
 
ion      s     py     pz     px    dxy    dyz    dz2    dxz  x2-y2    tot
    1  0.141  0.054  0.000  0.000  0.000  0.000  0.000  0.000  0.000  0.195
    2  0.141  0.054  0.000  0.000  0.000  0.000  0.000  0.000  0.000  0.195
tot    0.282  0.107  0.000  0.000  0.000  0.000  0.000  0.000  0.000  0.389
 
band    10 # energy   14.22147752 # occ.  0.00000000
 
ion      s     py     pz     px    dxy    dyz    dz2    dxz  x2-y2    tot
    1  0.000  0.000  0.000  0.000  0.000  0.000  0.000  0.000  0.000  0.000
    2  0.000  0.000  0.000  0.000  0.000  0.000  0.000  0.000  0.000  0.000
tot    0.000  0.000  0.000  0.000  0.000  0.000  0.000  0.000  0.000  0.000
 
band    11 # energy   15.95719318 # occ.  0.00000000
 
ion      s     py     pz     px    dxy    dyz    dz2    dxz  x2-y2    tot
    1  0.056  0.068  0.000  0.000  0.000  0.000  0.000  0.000  0.000  0.125
    2  0.056  0.068  0.000  0.000  0.000  0.000  0.000  0.000  0.000  0.125
tot    0.112  0.137  0.000  0.000  0.000  0.000  0.000  0.000  0.000  0.249
 
band    12 # energy   18.11349234 # occ.  0.00000000
 
ion      s     py     pz     px    dxy    dyz    dz2    dxz  x2-y2    tot
    1  0.000  0.000  0.029  0.004  0.000  0.000  0.000  0.000  0.000  0.033
    2  0.000  0.000  0.032  0.001  0.000  0.000  0.000  0.000  0.000  0.033
tot    0.000  0.000  0.061  0.005  0.000  0.000  0.000  0.000  0.000  0.066
 

 k-point    51 :    0.20000000 0.00000000 0.20000000     weight = 0.00555556

band     1 # energy   -5.43315549 # occ.  2.00000000
 
ion      s     py     pz     px    dxy    dyz    dz2    dxz  x2-y2    tot
    1  0.210  0.008  0.000  0.000  0.000  0.000  0.000  0.000  0.000  0.217
    2  0.210  0.008  0.000  0.000  0.000  0.000  0.000  0.000  0.000  0.217
tot    0.420  0.015  0.000  0.000  0.000  0.000  0.000  0.000  0.000  0.435
 
band     2 # energy    3.21113335 # occ.  2.00000000
 
ion      s     py     pz     px    dxy    dyz    dz2    dxz  x2-y2    tot
    1  0.137  0.116  0.000  0.000  0.000  0.000  0.000  0.000  0.000  0.253
    2  0.137  0.116  0.000  0.000  0.000  0.000  0.000  0.000  0.000  0.253
tot    0.275  0.232  0.000  0.000  0.000  0.000  0.000  0.000  0.000  0.507
 
band     3 # energy    4.34441437 # occ.  2.00000000
 
ion      s     py     pz     px    dxy    dyz    dz2    dxz  x2-y2    tot
    1  0.000  0.000  0.040  0.160  0.000  0.000  0.000  0.000  0.000  0.200
    2  0.000  0.000  0.194  0.006  0.000  0.000  0.000  0.000  0.000  0.200
tot    0.000  0.000  0.234  0.166  0.000  0.000  0.000  0.000  0.000  0.400
 
band     4 # energy    4.34441443 # occ.  2.00000000
 
ion      s     py     pz     px    dxy    dyz    dz2    dxz  x2-y2    tot
    1  0.000  0.000  0.160  0.040  0.000  0.000  0.000  0.000  0.000  0.200
    2  0.000  0.000  0.006  0.194  0.000  0.000  0.000  0.000  0.000  0.200
tot    0.000  0.000  0.166  0.234  0.000  0.000  0.000  0.000  0.000  0.400
 
band     5 # energy    7.29471202 # occ.  0.00000000
 
ion      s     py     pz     px    dxy    dyz    dz2    dxz  x2-y2    tot
    1  0.035  0.092  0.000  0.000  0.000  0.000  0.000  0.000  0.000  0.127
    2  0.035  0.092  0.000  0.000  0.000  0.000  0.000  0.000  0.000  0.127
tot    0.071  0.183  0.000  0.000  0.000  0.000  0.000  0.000  0.000  0.254
 
band     6 # energy    9.72313637 # occ.  0.00000000
 
ion      s     py     pz     px    dxy    dyz    dz2    dxz  x2-y2    tot
    1  0.071  0.050  0.000  0.000  0.000  0.000  0.000  0.000  0.000  0.121
    2  0.071  0.050  0.000  0.000  0.000  0.000  0.000  0.000  0.000  0.121
tot    0.143  0.099  0.000  0.000  0.000  0.000  0.000  0.000  0.000  0.242
 
band     7 # energy   10.72804273 # occ.  0.00000000
 
ion      s     py     pz     px    dxy    dyz    dz2    dxz  x2-y2    tot
    1  0.000  0.000  0.086  0.081  0.000  0.000  0.000  0.000  0.000  0.167
    2  0.000  0.000  0.081  0.086  0.000  0.000  0.000  0.000  0.000  0.167
tot    0.000  0.000  0.167  0.167  0.000  0.000  0.000  0.000  0.000  0.334
 
band     8 # energy   10.72804280 # occ.  0.00000000
 
ion      s     py     pz     px    dxy    dyz    dz2    dxz  x2-y2    tot
    1  0.000  0.000  0.081  0.086  0.000  0.000  0.000  0.000  0.000  0.167
    2  0.000  0.000  0.086  0.081  0.000  0.000  0.000  0.000  0.000  0.167
tot    0.000  0.000  0.167  0.167  0.000  0.000  0.000  0.000  0.000  0.334
 
band     9 # energy   12.93308834 # occ.  0.00000000
 
ion      s     py     pz     px    dxy    dyz    dz2    dxz  x2-y2    tot
    1  0.150  0.065  0.000  0.000  0.000  0.000  0.000  0.000  0.000  0.215
    2  0.150  0.065  0.000  0.000  0.000  0.000  0.000  0.000  0.000  0.215
tot    0.299  0.131  0.000  0.000  0.000  0.000  0.000  0.000  0.000  0.430
 
band    10 # energy   14.32804221 # occ.  0.00000000
 
ion      s     py     pz     px    dxy    dyz    dz2    dxz  x2-y2    tot
    1  0.000  0.000  0.000  0.000  0.000  0.000  0.000  0.000  0.000  0.000
    2  0.000  0.000  0.000  0.000  0.000  0.000  0.000  0.000  0.000  0.000
tot    0.000  0.000  0.000  0.000  0.000  0.000  0.000  0.000  0.000  0.000
 
band    11 # energy   16.23916607 # occ.  0.00000000
 
ion      s     py     pz     px    dxy    dyz    dz2    dxz  x2-y2    tot
    1  0.051  0.076  0.000  0.000  0.000  0.000  0.000  0.000  0.000  0.127
    2  0.051  0.076  0.000  0.000  0.000  0.000  0.000  0.000  0.000  0.127
tot    0.103  0.152  0.000  0.000  0.000  0.000  0.000  0.000  0.000  0.254
 
band    12 # energy   25.03292540 # occ.  0.00000000
 
ion      s     py     pz     px    dxy    dyz    dz2    dxz  x2-y2    tot
    1  0.003  0.031  0.037  0.002  0.000  0.000  0.000  0.000  0.000  0.073
    2  0.008  0.009  0.033  0.008  0.000  0.000  0.000  0.000  0.000  0.057
tot    0.011  0.040  0.070  0.010  0.000  0.000  0.000  0.000  0.000  0.130
 

 k-point    52 :    0.21428571 0.00000000 0.21428571     weight = 0.00555556

band     1 # energy   -5.33111993 # occ.  2.00000000
 
ion      s     py     pz     px    dxy    dyz    dz2    dxz  x2-y2    tot
    1  0.209  0.009  0.000  0.000  0.000  0.000  0.000  0.000  0.000  0.218
    2  0.209  0.009  0.000  0.000  0.000  0.000  0.000  0.000  0.000  0.218
tot    0.419  0.018  0.000  0.000  0.000  0.000  0.000  0.000  0.000  0.436
 
band     2 # energy    2.95714202 # occ.  2.00000000
 
ion      s     py     pz     px    dxy    dyz    dz2    dxz  x2-y2    tot
    1  0.143  0.111  0.000  0.000  0.000  0.000  0.000  0.000  0.000  0.254
    2  0.143  0.111  0.000  0.000  0.000  0.000  0.000  0.000  0.000  0.254
tot    0.286  0.222  0.000  0.000  0.000  0.000  0.000  0.000  0.000  0.508
 
band     3 # energy    4.22407935 # occ.  2.00000000
 
ion      s     py     pz     px    dxy    dyz    dz2    dxz  x2-y2    tot
    1  0.000  0.000  0.142  0.058  0.000  0.000  0.000  0.000  0.000  0.199
    2  0.000  0.000  0.083  0.116  0.000  0.000  0.000  0.000  0.000  0.199
tot    0.000  0.000  0.225  0.174  0.000  0.000  0.000  0.000  0.000  0.399
 
band     4 # energy    4.22407945 # occ.  2.00000000
 
ion      s     py     pz     px    dxy    dyz    dz2    dxz  x2-y2    tot
    1  0.000  0.000  0.058  0.142  0.000  0.000  0.000  0.000  0.000  0.199
    2  0.000  0.000  0.116  0.083  0.000  0.000  0.000  0.000  0.000  0.199
tot    0.000  0.000  0.174  0.225  0.000  0.000  0.000  0.000  0.000  0.399
 
band     5 # energy    7.19481675 # occ.  0.00000000
 
ion      s     py     pz     px    dxy    dyz    dz2    dxz  x2-y2    tot
    1  0.038  0.087  0.000  0.000  0.000  0.000  0.000  0.000  0.000  0.125
    2  0.038  0.087  0.000  0.000  0.000  0.000  0.000  0.000  0.000  0.125
tot    0.076  0.175  0.000  0.000  0.000  0.000  0.000  0.000  0.000  0.250
 
band     6 # energy    9.51125867 # occ.  0.00000000
 
ion      s     py     pz     px    dxy    dyz    dz2    dxz  x2-y2    tot
    1  0.062  0.045  0.000  0.000  0.000  0.000  0.000  0.000  0.000  0.107
    2  0.062  0.045  0.000  0.000  0.000  0.000  0.000  0.000  0.000  0.107
tot    0.123  0.090  0.000  0.000  0.000  0.000  0.000  0.000  0.000  0.214
 
band     7 # energy   10.97045956 # occ.  0.00000000
 
ion      s     py     pz     px    dxy    dyz    dz2    dxz  x2-y2    tot
    1  0.000  0.000  0.082  0.085  0.000  0.000  0.000  0.000  0.000  0.167
    2  0.000  0.000  0.085  0.082  0.000  0.000  0.000  0.000  0.000  0.167
tot    0.000  0.000  0.167  0.167  0.000  0.000  0.000  0.000  0.000  0.334
 
band     8 # energy   10.97045964 # occ.  0.00000000
 
ion      s     py     pz     px    dxy    dyz    dz2    dxz  x2-y2    tot
    1  0.000  0.000  0.085  0.082  0.000  0.000  0.000  0.000  0.000  0.167
    2  0.000  0.000  0.082  0.085  0.000  0.000  0.000  0.000  0.000  0.167
tot    0.000  0.000  0.167  0.167  0.000  0.000  0.000  0.000  0.000  0.334
 
band     9 # energy   13.19237165 # occ.  0.00000000
 
ion      s     py     pz     px    dxy    dyz    dz2    dxz  x2-y2    tot
    1  0.154  0.076  0.000  0.000  0.000  0.000  0.000  0.000  0.000  0.230
    2  0.154  0.076  0.000  0.000  0.000  0.000  0.000  0.000  0.000  0.230
tot    0.307  0.152  0.000  0.000  0.000  0.000  0.000  0.000  0.000  0.459
 
band    10 # energy   14.44246258 # occ.  0.00000000
 
ion      s     py     pz     px    dxy    dyz    dz2    dxz  x2-y2    tot
    1  0.000  0.000  0.000  0.000  0.000  0.000  0.000  0.000  0.000  0.000
    2  0.000  0.000  0.000  0.000  0.000  0.000  0.000  0.000  0.000  0.000
tot    0.000  0.000  0.000  0.000  0.000  0.000  0.000  0.000  0.000  0.000
 
band    11 # energy   16.52864278 # occ.  0.00000000
 
ion      s     py     pz     px    dxy    dyz    dz2    dxz  x2-y2    tot
    1  0.047  0.083  0.000  0.000  0.000  0.000  0.000  0.000  0.000  0.130
    2  0.047  0.083  0.000  0.000  0.000  0.000  0.000  0.000  0.000  0.130
tot    0.093  0.167  0.000  0.000  0.000  0.000  0.000  0.000  0.000  0.260
 
band    12 # energy   24.64064604 # occ.  0.00000000
 
ion      s     py     pz     px    dxy    dyz    dz2    dxz  x2-y2    tot
    1  0.001  0.013  0.042  0.010  0.000  0.000  0.000  0.000  0.000  0.066
    2  0.004  0.004  0.022  0.032  0.000  0.000  0.000  0.000  0.000  0.061
tot    0.005  0.016  0.064  0.042  0.000  0.000  0.000  0.000  0.000  0.128
 

 k-point    53 :    0.22857143 0.00000000 0.22857143     weight = 0.00555556

band     1 # energy   -5.22231271 # occ.  2.00000000
 
ion      s     py     pz     px    dxy    dyz    dz2    dxz  x2-y2    tot
    1  0.209  0.010  0.000  0.000  0.000  0.000  0.000  0.000  0.000  0.219
    2  0.209  0.010  0.000  0.000  0.000  0.000  0.000  0.000  0.000  0.219
tot    0.418  0.020  0.000  0.000  0.000  0.000  0.000  0.000  0.000  0.437
 
band     2 # energy    2.70190270 # occ.  2.00000000
 
ion      s     py     pz     px    dxy    dyz    dz2    dxz  x2-y2    tot
    1  0.148  0.107  0.000  0.000  0.000  0.000  0.000  0.000  0.000  0.255
    2  0.148  0.107  0.000  0.000  0.000  0.000  0.000  0.000  0.000  0.255
tot    0.296  0.213  0.000  0.000  0.000  0.000  0.000  0.000  0.000  0.510
 
band     3 # energy    4.10808020 # occ.  2.00000000
 
ion      s     py     pz     px    dxy    dyz    dz2    dxz  x2-y2    tot
    1  0.000  0.000  0.059  0.140  0.000  0.000  0.000  0.000  0.000  0.199
    2  0.000  0.000  0.093  0.106  0.000  0.000  0.000  0.000  0.000  0.199
tot    0.000  0.000  0.152  0.246  0.000  0.000  0.000  0.000  0.000  0.398
 
band     4 # energy    4.10808029 # occ.  2.00000000
 
ion      s     py     pz     px    dxy    dyz    dz2    dxz  x2-y2    tot
    1  0.000  0.000  0.140  0.059  0.000  0.000  0.000  0.000  0.000  0.199
    2  0.000  0.000  0.106  0.093  0.000  0.000  0.000  0.000  0.000  0.199
tot    0.000  0.000  0.246  0.152  0.000  0.000  0.000  0.000  0.000  0.398
 
band     5 # energy    7.09866140 # occ.  0.00000000
 
ion      s     py     pz     px    dxy    dyz    dz2    dxz  x2-y2    tot
    1  0.040  0.083  0.000  0.000  0.000  0.000  0.000  0.000  0.000  0.123
    2  0.040  0.083  0.000  0.000  0.000  0.000  0.000  0.000  0.000  0.123
tot    0.080  0.166  0.000  0.000  0.000  0.000  0.000  0.000  0.000  0.246
 
band     6 # energy    9.29312097 # occ.  0.00000000
 
ion      s     py     pz     px    dxy    dyz    dz2    dxz  x2-y2    tot
    1  0.055  0.042  0.000  0.000  0.000  0.000  0.000  0.000  0.000  0.097
    2  0.055  0.042  0.000  0.000  0.000  0.000  0.000  0.000  0.000  0.097
tot    0.110  0.084  0.000  0.000  0.000  0.000  0.000  0.000  0.000  0.193
 
band     7 # energy   11.21637594 # occ.  0.00000000
 
ion      s     py     pz     px    dxy    dyz    dz2    dxz  x2-y2    tot
    1  0.000  0.000  0.079  0.089  0.000  0.000  0.000  0.000  0.000  0.167
    2  0.000  0.000  0.090  0.077  0.000  0.000  0.000  0.000  0.000  0.167
tot    0.000  0.000  0.169  0.165  0.000  0.000  0.000  0.000  0.000  0.334
 
band     8 # energy   11.21637602 # occ.  0.00000000
 
ion      s     py     pz     px    dxy    dyz    dz2    dxz  x2-y2    tot
    1  0.000  0.000  0.089  0.079  0.000  0.000  0.000  0.000  0.000  0.167
    2  0.000  0.000  0.077  0.090  0.000  0.000  0.000  0.000  0.000  0.167
tot    0.000  0.000  0.165  0.169  0.000  0.000  0.000  0.000  0.000  0.334
 
band     9 # energy   13.46894526 # occ.  0.00000000
 
ion      s     py     pz     px    dxy    dyz    dz2    dxz  x2-y2    tot
    1  0.155  0.085  0.000  0.000  0.000  0.000  0.000  0.000  0.000  0.240
    2  0.155  0.085  0.000  0.000  0.000  0.000  0.000  0.000  0.000  0.240
tot    0.310  0.171  0.000  0.000  0.000  0.000  0.000  0.000  0.000  0.481
 
band    10 # energy   14.56472968 # occ.  0.00000000
 
ion      s     py     pz     px    dxy    dyz    dz2    dxz  x2-y2    tot
    1  0.000  0.000  0.000  0.000  0.000  0.000  0.000  0.000  0.000  0.000
    2  0.000  0.000  0.000  0.000  0.000  0.000  0.000  0.000  0.000  0.000
tot    0.000  0.000  0.000  0.000  0.000  0.000  0.000  0.000  0.000  0.000
 
band    11 # energy   16.82391754 # occ.  0.00000000
 
ion      s     py     pz     px    dxy    dyz    dz2    dxz  x2-y2    tot
    1  0.042  0.091  0.000  0.000  0.000  0.000  0.000  0.000  0.000  0.133
    2  0.042  0.091  0.000  0.000  0.000  0.000  0.000  0.000  0.000  0.133
tot    0.084  0.182  0.000  0.000  0.000  0.000  0.000  0.000  0.000  0.266
 
band    12 # energy   18.60195133 # occ.  0.00000000
 
ion      s     py     pz     px    dxy    dyz    dz2    dxz  x2-y2    tot
    1  0.000  0.000  0.026  0.005  0.000  0.000  0.000  0.000  0.000  0.030
    2  0.000  0.000  0.025  0.006  0.000  0.000  0.000  0.000  0.000  0.030
tot    0.000  0.000  0.050  0.010  0.000  0.000  0.000  0.000  0.000  0.061
 

 k-point    54 :    0.24285714 0.00000000 0.24285714     weight = 0.00555556

band     1 # energy   -5.10679300 # occ.  2.00000000
 
ion      s     py     pz     px    dxy    dyz    dz2    dxz  x2-y2    tot
    1  0.208  0.011  0.000  0.000  0.000  0.000  0.000  0.000  0.000  0.219
    2  0.208  0.011  0.000  0.000  0.000  0.000  0.000  0.000  0.000  0.219
tot    0.416  0.022  0.000  0.000  0.000  0.000  0.000  0.000  0.000  0.439
 
band     2 # energy    2.44578250 # occ.  2.00000000
 
ion      s     py     pz     px    dxy    dyz    dz2    dxz  x2-y2    tot
    1  0.153  0.102  0.000  0.000  0.000  0.000  0.000  0.000  0.000  0.255
    2  0.153  0.102  0.000  0.000  0.000  0.000  0.000  0.000  0.000  0.255
tot    0.306  0.205  0.000  0.000  0.000  0.000  0.000  0.000  0.000  0.510
 
band     3 # energy    3.99673423 # occ.  2.00000000
 
ion      s     py     pz     px    dxy    dyz    dz2    dxz  x2-y2    tot
    1  0.000  0.000  0.110  0.089  0.000  0.000  0.000  0.000  0.000  0.199
    2  0.000  0.000  0.108  0.091  0.000  0.000  0.000  0.000  0.000  0.199
tot    0.000  0.000  0.218  0.179  0.000  0.000  0.000  0.000  0.000  0.398
 
band     4 # energy    3.99673432 # occ.  2.00000000
 
ion      s     py     pz     px    dxy    dyz    dz2    dxz  x2-y2    tot
    1  0.000  0.000  0.089  0.110  0.000  0.000  0.000  0.000  0.000  0.199
    2  0.000  0.000  0.091  0.108  0.000  0.000  0.000  0.000  0.000  0.199
tot    0.000  0.000  0.179  0.218  0.000  0.000  0.000  0.000  0.000  0.398
 
band     5 # energy    7.00683065 # occ.  0.00000000
 
ion      s     py     pz     px    dxy    dyz    dz2    dxz  x2-y2    tot
    1  0.042  0.079  0.000  0.000  0.000  0.000  0.000  0.000  0.000  0.121
    2  0.042  0.079  0.000  0.000  0.000  0.000  0.000  0.000  0.000  0.121
tot    0.084  0.158  0.000  0.000  0.000  0.000  0.000  0.000  0.000  0.242
 
band     6 # energy    9.07409133 # occ.  0.00000000
 
ion      s     py     pz     px    dxy    dyz    dz2    dxz  x2-y2    tot
    1  0.050  0.039  0.000  0.000  0.000  0.000  0.000  0.000  0.000  0.089
    2  0.050  0.039  0.000  0.000  0.000  0.000  0.000  0.000  0.000  0.089
tot    0.101  0.078  0.000  0.000  0.000  0.000  0.000  0.000  0.000  0.179
 
band     7 # energy   11.46535507 # occ.  0.00000000
 
ion      s     py     pz     px    dxy    dyz    dz2    dxz  x2-y2    tot
    1  0.000  0.000  0.075  0.092  0.000  0.000  0.000  0.000  0.000  0.167
    2  0.000  0.000  0.091  0.076  0.000  0.000  0.000  0.000  0.000  0.167
tot    0.000  0.000  0.166  0.168  0.000  0.000  0.000  0.000  0.000  0.334
 
band     8 # energy   11.46535516 # occ.  0.00000000
 
ion      s     py     pz     px    dxy    dyz    dz2    dxz  x2-y2    tot
    1  0.000  0.000  0.092  0.075  0.000  0.000  0.000  0.000  0.000  0.167
    2  0.000  0.000  0.076  0.091  0.000  0.000  0.000  0.000  0.000  0.167
tot    0.000  0.000  0.168  0.166  0.000  0.000  0.000  0.000  0.000  0.334
 
band     9 # energy   13.75732574 # occ.  0.00000000
 
ion      s     py     pz     px    dxy    dyz    dz2    dxz  x2-y2    tot
    1  0.155  0.094  0.000  0.000  0.000  0.000  0.000  0.000  0.000  0.249
    2  0.155  0.094  0.000  0.000  0.000  0.000  0.000  0.000  0.000  0.249
tot    0.309  0.188  0.000  0.000  0.000  0.000  0.000  0.000  0.000  0.497
 
band    10 # energy   14.69472272 # occ.  0.00000000
 
ion      s     py     pz     px    dxy    dyz    dz2    dxz  x2-y2    tot
    1  0.000  0.000  0.000  0.000  0.000  0.000  0.000  0.000  0.000  0.000
    2  0.000  0.000  0.000  0.000  0.000  0.000  0.000  0.000  0.000  0.000
tot    0.000  0.000  0.000  0.000  0.000  0.000  0.000  0.000  0.000  0.000
 
band    11 # energy   17.12312817 # occ.  0.00000000
 
ion      s     py     pz     px    dxy    dyz    dz2    dxz  x2-y2    tot
    1  0.037  0.099  0.000  0.000  0.000  0.000  0.000  0.000  0.000  0.136
    2  0.037  0.099  0.000  0.000  0.000  0.000  0.000  0.000  0.000  0.136
tot    0.074  0.199  0.000  0.000  0.000  0.000  0.000  0.000  0.000  0.273
 
band    12 # energy   18.76719932 # occ.  0.00000000
 
ion      s     py     pz     px    dxy    dyz    dz2    dxz  x2-y2    tot
    1  0.000  0.000  0.019  0.010  0.000  0.000  0.000  0.000  0.000  0.030
    2  0.000  0.000  0.018  0.012  0.000  0.000  0.000  0.000  0.000  0.030
tot    0.000  0.000  0.037  0.022  0.000  0.000  0.000  0.000  0.000  0.059
 

 k-point    55 :    0.25714286 0.00000000 0.25714286     weight = 0.00555556

band     1 # energy   -4.98462153 # occ.  2.00000000
 
ion      s     py     pz     px    dxy    dyz    dz2    dxz  x2-y2    tot
    1  0.208  0.013  0.000  0.000  0.000  0.000  0.000  0.000  0.000  0.220
    2  0.208  0.013  0.000  0.000  0.000  0.000  0.000  0.000  0.000  0.220
tot    0.415  0.025  0.000  0.000  0.000  0.000  0.000  0.000  0.000  0.440
 
band     2 # energy    2.18914183 # occ.  2.00000000
 
ion      s     py     pz     px    dxy    dyz    dz2    dxz  x2-y2    tot
    1  0.157  0.098  0.000  0.000  0.000  0.000  0.000  0.000  0.000  0.255
    2  0.157  0.098  0.000  0.000  0.000  0.000  0.000  0.000  0.000  0.255
tot    0.314  0.197  0.000  0.000  0.000  0.000  0.000  0.000  0.000  0.511
 
band     3 # energy    3.89040176 # occ.  2.00000000
 
ion      s     py     pz     px    dxy    dyz    dz2    dxz  x2-y2    tot
    1  0.000  0.000  0.045  0.154  0.000  0.000  0.000  0.000  0.000  0.199
    2  0.000  0.000  0.173  0.026  0.000  0.000  0.000  0.000  0.000  0.199
tot    0.000  0.000  0.217  0.180  0.000  0.000  0.000  0.000  0.000  0.397
 
band     4 # energy    3.89040185 # occ.  2.00000000
 
ion      s     py     pz     px    dxy    dyz    dz2    dxz  x2-y2    tot
    1  0.000  0.000  0.154  0.045  0.000  0.000  0.000  0.000  0.000  0.199
    2  0.000  0.000  0.026  0.173  0.000  0.000  0.000  0.000  0.000  0.199
tot    0.000  0.000  0.180  0.217  0.000  0.000  0.000  0.000  0.000  0.397
 
band     5 # energy    6.92004133 # occ.  0.00000000
 
ion      s     py     pz     px    dxy    dyz    dz2    dxz  x2-y2    tot
    1  0.044  0.075  0.000  0.000  0.000  0.000  0.000  0.000  0.000  0.119
    2  0.044  0.075  0.000  0.000  0.000  0.000  0.000  0.000  0.000  0.119
tot    0.087  0.150  0.000  0.000  0.000  0.000  0.000  0.000  0.000  0.238
 
band     6 # energy    8.85784765 # occ.  0.00000000
 
ion      s     py     pz     px    dxy    dyz    dz2    dxz  x2-y2    tot
    1  0.047  0.037  0.000  0.000  0.000  0.000  0.000  0.000  0.000  0.084
    2  0.047  0.037  0.000  0.000  0.000  0.000  0.000  0.000  0.000  0.084
tot    0.095  0.074  0.000  0.000  0.000  0.000  0.000  0.000  0.000  0.168
 
band     7 # energy   11.71719487 # occ.  0.00000000
 
ion      s     py     pz     px    dxy    dyz    dz2    dxz  x2-y2    tot
    1  0.000  0.000  0.092  0.075  0.000  0.000  0.000  0.000  0.000  0.167
    2  0.000  0.000  0.076  0.091  0.000  0.000  0.000  0.000  0.000  0.167
tot    0.000  0.000  0.168  0.166  0.000  0.000  0.000  0.000  0.000  0.334
 
band     8 # energy   11.71719495 # occ.  0.00000000
 
ion      s     py     pz     px    dxy    dyz    dz2    dxz  x2-y2    tot
    1  0.000  0.000  0.075  0.092  0.000  0.000  0.000  0.000  0.000  0.167
    2  0.000  0.000  0.091  0.076  0.000  0.000  0.000  0.000  0.000  0.167
tot    0.000  0.000  0.166  0.168  0.000  0.000  0.000  0.000  0.000  0.334
 
band     9 # energy   14.05384202 # occ.  0.00000000
 
ion      s     py     pz     px    dxy    dyz    dz2    dxz  x2-y2    tot
    1  0.153  0.102  0.000  0.000  0.000  0.000  0.000  0.000  0.000  0.255
    2  0.153  0.102  0.000  0.000  0.000  0.000  0.000  0.000  0.000  0.255
tot    0.306  0.204  0.000  0.000  0.000  0.000  0.000  0.000  0.000  0.510
 
band    10 # energy   14.83264914 # occ.  0.00000000
 
ion      s     py     pz     px    dxy    dyz    dz2    dxz  x2-y2    tot
    1  0.000  0.000  0.000  0.000  0.000  0.000  0.000  0.000  0.000  0.000
    2  0.000  0.000  0.000  0.000  0.000  0.000  0.000  0.000  0.000  0.000
tot    0.000  0.000  0.000  0.000  0.000  0.000  0.000  0.000  0.000  0.000
 
band    11 # energy   17.42420975 # occ.  0.00000000
 
ion      s     py     pz     px    dxy    dyz    dz2    dxz  x2-y2    tot
    1  0.032  0.108  0.000  0.000  0.000  0.000  0.000  0.000  0.000  0.140
    2  0.032  0.108  0.000  0.000  0.000  0.000  0.000  0.000  0.000  0.140
tot    0.064  0.216  0.000  0.000  0.000  0.000  0.000  0.000  0.000  0.280
 
band    12 # energy   18.93141355 # occ.  0.00000000
 
ion      s     py     pz     px    dxy    dyz    dz2    dxz  x2-y2    tot
    1  0.000  0.000  0.022  0.007  0.000  0.000  0.000  0.000  0.000  0.029
    2  0.000  0.000  0.022  0.007  0.000  0.000  0.000  0.000  0.000  0.029
tot    0.000  0.000  0.045  0.013  0.000  0.000  0.000  0.000  0.000  0.058
 

 k-point    56 :    0.27142857 0.00000000 0.27142857     weight = 0.00555556

band     1 # energy   -4.85589020 # occ.  2.00000000
 
ion      s     py     pz     px    dxy    dyz    dz2    dxz  x2-y2    tot
    1  0.207  0.014  0.000  0.000  0.000  0.000  0.000  0.000  0.000  0.221
    2  0.207  0.014  0.000  0.000  0.000  0.000  0.000  0.000  0.000  0.221
tot    0.414  0.028  0.000  0.000  0.000  0.000  0.000  0.000  0.000  0.442
 
band     2 # energy    1.93228544 # occ.  2.00000000
 
ion      s     py     pz     px    dxy    dyz    dz2    dxz  x2-y2    tot
    1  0.161  0.094  0.000  0.000  0.000  0.000  0.000  0.000  0.000  0.255
    2  0.161  0.094  0.000  0.000  0.000  0.000  0.000  0.000  0.000  0.255
tot    0.322  0.189  0.000  0.000  0.000  0.000  0.000  0.000  0.000  0.510
 
band     3 # energy    3.78926135 # occ.  2.00000000
 
ion      s     py     pz     px    dxy    dyz    dz2    dxz  x2-y2    tot
    1  0.000  0.000  0.169  0.030  0.000  0.000  0.000  0.000  0.000  0.198
    2  0.000  0.000  0.005  0.193  0.000  0.000  0.000  0.000  0.000  0.198
tot    0.000  0.000  0.174  0.223  0.000  0.000  0.000  0.000  0.000  0.397
 
band     4 # energy    3.78926141 # occ.  2.00000000
 
ion      s     py     pz     px    dxy    dyz    dz2    dxz  x2-y2    tot
    1  0.000  0.000  0.030  0.169  0.000  0.000  0.000  0.000  0.000  0.198
    2  0.000  0.000  0.193  0.005  0.000  0.000  0.000  0.000  0.000  0.198
tot    0.000  0.000  0.223  0.174  0.000  0.000  0.000  0.000  0.000  0.397
 
band     5 # energy    6.83878575 # occ.  0.00000000
 
ion      s     py     pz     px    dxy    dyz    dz2    dxz  x2-y2    tot
    1  0.045  0.071  0.000  0.000  0.000  0.000  0.000  0.000  0.000  0.117
    2  0.045  0.071  0.000  0.000  0.000  0.000  0.000  0.000  0.000  0.117
tot    0.091  0.143  0.000  0.000  0.000  0.000  0.000  0.000  0.000  0.234
 
band     6 # energy    8.64676941 # occ.  0.00000000
 
ion      s     py     pz     px    dxy    dyz    dz2    dxz  x2-y2    tot
    1  0.046  0.035  0.000  0.000  0.000  0.000  0.000  0.000  0.000  0.081
    2  0.046  0.035  0.000  0.000  0.000  0.000  0.000  0.000  0.000  0.081
tot    0.091  0.070  0.000  0.000  0.000  0.000  0.000  0.000  0.000  0.161
 
band     7 # energy   11.97153312 # occ.  0.00000000
 
ion      s     py     pz     px    dxy    dyz    dz2    dxz  x2-y2    tot
    1  0.000  0.000  0.089  0.077  0.000  0.000  0.000  0.000  0.000  0.167
    2  0.000  0.000  0.076  0.090  0.000  0.000  0.000  0.000  0.000  0.167
tot    0.000  0.000  0.166  0.167  0.000  0.000  0.000  0.000  0.000  0.333
 
band     8 # energy   11.97153320 # occ.  0.00000000
 
ion      s     py     pz     px    dxy    dyz    dz2    dxz  x2-y2    tot
    1  0.000  0.000  0.077  0.089  0.000  0.000  0.000  0.000  0.000  0.167
    2  0.000  0.000  0.090  0.076  0.000  0.000  0.000  0.000  0.000  0.167
tot    0.000  0.000  0.167  0.166  0.000  0.000  0.000  0.000  0.000  0.333
 
band     9 # energy   14.35583414 # occ.  0.00000000
 
ion      s     py     pz     px    dxy    dyz    dz2    dxz  x2-y2    tot
    1  0.151  0.109  0.000  0.000  0.000  0.000  0.000  0.000  0.000  0.260
    2  0.151  0.109  0.000  0.000  0.000  0.000  0.000  0.000  0.000  0.260
tot    0.301  0.219  0.000  0.000  0.000  0.000  0.000  0.000  0.000  0.520
 
band    10 # energy   14.97838995 # occ.  0.00000000
 
ion      s     py     pz     px    dxy    dyz    dz2    dxz  x2-y2    tot
    1  0.000  0.000  0.000  0.000  0.000  0.000  0.000  0.000  0.000  0.000
    2  0.000  0.000  0.000  0.000  0.000  0.000  0.000  0.000  0.000  0.000
tot    0.000  0.000  0.000  0.000  0.000  0.000  0.000  0.000  0.000  0.000
 
band    11 # energy   17.72463003 # occ.  0.00000000
 
ion      s     py     pz     px    dxy    dyz    dz2    dxz  x2-y2    tot
    1  0.027  0.117  0.000  0.000  0.000  0.000  0.000  0.000  0.000  0.144
    2  0.027  0.117  0.000  0.000  0.000  0.000  0.000  0.000  0.000  0.144
tot    0.054  0.234  0.000  0.000  0.000  0.000  0.000  0.000  0.000  0.289
 
band    12 # energy   19.11194280 # occ.  0.00000000
 
ion      s     py     pz     px    dxy    dyz    dz2    dxz  x2-y2    tot
    1  0.000  0.000  0.028  0.000  0.000  0.000  0.000  0.000  0.000  0.029
    2  0.000  0.000  0.027  0.001  0.000  0.000  0.000  0.000  0.000  0.029
tot    0.001  0.000  0.055  0.001  0.000  0.000  0.000  0.000  0.000  0.057
 

 k-point    57 :    0.28571429 0.00000000 0.28571429     weight = 0.00555556

band     1 # energy   -4.72065199 # occ.  2.00000000
 
ion      s     py     pz     px    dxy    dyz    dz2    dxz  x2-y2    tot
    1  0.206  0.015  0.000  0.000  0.000  0.000  0.000  0.000  0.000  0.222
    2  0.206  0.015  0.000  0.000  0.000  0.000  0.000  0.000  0.000  0.222
tot    0.413  0.031  0.000  0.000  0.000  0.000  0.000  0.000  0.000  0.443
 
band     2 # energy    1.67549693 # occ.  2.00000000
 
ion      s     py     pz     px    dxy    dyz    dz2    dxz  x2-y2    tot
    1  0.164  0.091  0.000  0.000  0.000  0.000  0.000  0.000  0.000  0.255
    2  0.164  0.091  0.000  0.000  0.000  0.000  0.000  0.000  0.000  0.255
tot    0.329  0.181  0.000  0.000  0.000  0.000  0.000  0.000  0.000  0.510
 
band     3 # energy    3.69353241 # occ.  2.00000000
 
ion      s     py     pz     px    dxy    dyz    dz2    dxz  x2-y2    tot
    1  0.000  0.000  0.158  0.040  0.000  0.000  0.000  0.000  0.000  0.198
    2  0.000  0.000  0.059  0.139  0.000  0.000  0.000  0.000  0.000  0.198
tot    0.000  0.000  0.217  0.179  0.000  0.000  0.000  0.000  0.000  0.396
 
band     4 # energy    3.69353249 # occ.  2.00000000
 
ion      s     py     pz     px    dxy    dyz    dz2    dxz  x2-y2    tot
    1  0.000  0.000  0.040  0.158  0.000  0.000  0.000  0.000  0.000  0.198
    2  0.000  0.000  0.139  0.059  0.000  0.000  0.000  0.000  0.000  0.198
tot    0.000  0.000  0.179  0.217  0.000  0.000  0.000  0.000  0.000  0.396
 
band     5 # energy    6.76335457 # occ.  0.00000000
 
ion      s     py     pz     px    dxy    dyz    dz2    dxz  x2-y2    tot
    1  0.047  0.068  0.000  0.000  0.000  0.000  0.000  0.000  0.000  0.115
    2  0.047  0.068  0.000  0.000  0.000  0.000  0.000  0.000  0.000  0.115
tot    0.094  0.136  0.000  0.000  0.000  0.000  0.000  0.000  0.000  0.230
 
band     6 # energy    8.44248980 # occ.  0.00000000
 
ion      s     py     pz     px    dxy    dyz    dz2    dxz  x2-y2    tot
    1  0.044  0.034  0.000  0.000  0.000  0.000  0.000  0.000  0.000  0.078
    2  0.044  0.034  0.000  0.000  0.000  0.000  0.000  0.000  0.000  0.078
tot    0.089  0.067  0.000  0.000  0.000  0.000  0.000  0.000  0.000  0.156
 
band     7 # energy   12.22816094 # occ.  0.00000000
 
ion      s     py     pz     px    dxy    dyz    dz2    dxz  x2-y2    tot
    1  0.000  0.000  0.084  0.082  0.000  0.000  0.000  0.000  0.000  0.166
    2  0.000  0.000  0.082  0.084  0.000  0.000  0.000  0.000  0.000  0.166
tot    0.000  0.000  0.167  0.166  0.000  0.000  0.000  0.000  0.000  0.333
 
band     8 # energy   12.22816102 # occ.  0.00000000
 
ion      s     py     pz     px    dxy    dyz    dz2    dxz  x2-y2    tot
    1  0.000  0.000  0.082  0.084  0.000  0.000  0.000  0.000  0.000  0.166
    2  0.000  0.000  0.084  0.082  0.000  0.000  0.000  0.000  0.000  0.166
tot    0.000  0.000  0.166  0.167  0.000  0.000  0.000  0.000  0.000  0.333
 
band     9 # energy   14.66129803 # occ.  0.00000000
 
ion      s     py     pz     px    dxy    dyz    dz2    dxz  x2-y2    tot
    1  0.148  0.117  0.000  0.000  0.000  0.000  0.000  0.000  0.000  0.264
    2  0.148  0.117  0.000  0.000  0.000  0.000  0.000  0.000  0.000  0.264
tot    0.295  0.233  0.000  0.000  0.000  0.000  0.000  0.000  0.000  0.528
 
band    10 # energy   15.13193275 # occ.  0.00000000
 
ion      s     py     pz     px    dxy    dyz    dz2    dxz  x2-y2    tot
    1  0.000  0.000  0.000  0.000  0.000  0.000  0.000  0.000  0.000  0.000
    2  0.000  0.000  0.000  0.000  0.000  0.000  0.000  0.000  0.000  0.000
tot    0.000  0.000  0.000  0.000  0.000  0.000  0.000  0.000  0.000  0.000
 
band    11 # energy   18.02152435 # occ.  0.00000000
 
ion      s     py     pz     px    dxy    dyz    dz2    dxz  x2-y2    tot
    1  0.022  0.127  0.000  0.000  0.000  0.000  0.000  0.000  0.000  0.149
    2  0.022  0.127  0.000  0.000  0.000  0.000  0.000  0.000  0.000  0.149
tot    0.044  0.254  0.000  0.000  0.000  0.000  0.000  0.000  0.000  0.298
 
band    12 # energy   19.21838391 # occ.  0.00000000
 
ion      s     py     pz     px    dxy    dyz    dz2    dxz  x2-y2    tot
    1  0.000  0.000  0.023  0.007  0.000  0.000  0.000  0.000  0.000  0.030
    2  0.000  0.000  0.012  0.018  0.000  0.000  0.000  0.000  0.000  0.030
tot    0.000  0.000  0.035  0.026  0.000  0.000  0.000  0.000  0.000  0.060
 

 k-point    58 :    0.30000000 0.00000000 0.30000000     weight = 0.00555556

band     1 # energy   -4.57898544 # occ.  2.00000000
 
ion      s     py     pz     px    dxy    dyz    dz2    dxz  x2-y2    tot
    1  0.206  0.017  0.000  0.000  0.000  0.000  0.000  0.000  0.000  0.223
    2  0.206  0.017  0.000  0.000  0.000  0.000  0.000  0.000  0.000  0.223
tot    0.411  0.034  0.000  0.000  0.000  0.000  0.000  0.000  0.000  0.445
 
band     2 # energy    1.41905353 # occ.  2.00000000
 
ion      s     py     pz     px    dxy    dyz    dz2    dxz  x2-y2    tot
    1  0.168  0.087  0.000  0.000  0.000  0.000  0.000  0.000  0.000  0.255
    2  0.168  0.087  0.000  0.000  0.000  0.000  0.000  0.000  0.000  0.255
tot    0.335  0.174  0.000  0.000  0.000  0.000  0.000  0.000  0.000  0.509
 
band     3 # energy    3.60338609 # occ.  2.00000000
 
ion      s     py     pz     px    dxy    dyz    dz2    dxz  x2-y2    tot
    1  0.000  0.000  0.053  0.145  0.000  0.000  0.000  0.000  0.000  0.198
    2  0.000  0.000  0.170  0.028  0.000  0.000  0.000  0.000  0.000  0.198
tot    0.000  0.000  0.223  0.173  0.000  0.000  0.000  0.000  0.000  0.396
 
band     4 # energy    3.60338618 # occ.  2.00000000
 
ion      s     py     pz     px    dxy    dyz    dz2    dxz  x2-y2    tot
    1  0.000  0.000  0.145  0.053  0.000  0.000  0.000  0.000  0.000  0.198
    2  0.000  0.000  0.028  0.170  0.000  0.000  0.000  0.000  0.000  0.198
tot    0.000  0.000  0.173  0.223  0.000  0.000  0.000  0.000  0.000  0.396
 
band     5 # energy    6.69422056 # occ.  0.00000000
 
ion      s     py     pz     px    dxy    dyz    dz2    dxz  x2-y2    tot
    1  0.048  0.065  0.000  0.000  0.000  0.000  0.000  0.000  0.000  0.113
    2  0.048  0.065  0.000  0.000  0.000  0.000  0.000  0.000  0.000  0.113
tot    0.096  0.129  0.000  0.000  0.000  0.000  0.000  0.000  0.000  0.226
 
band     6 # energy    8.24620289 # occ.  0.00000000
 
ion      s     py     pz     px    dxy    dyz    dz2    dxz  x2-y2    tot
    1  0.044  0.032  0.000  0.000  0.000  0.000  0.000  0.000  0.000  0.076
    2  0.044  0.032  0.000  0.000  0.000  0.000  0.000  0.000  0.000  0.076
tot    0.087  0.065  0.000  0.000  0.000  0.000  0.000  0.000  0.000  0.152
 
band     7 # energy   12.48693278 # occ.  0.00000000
 
ion      s     py     pz     px    dxy    dyz    dz2    dxz  x2-y2    tot
    1  0.000  0.000  0.092  0.074  0.000  0.000  0.000  0.000  0.000  0.166
    2  0.000  0.000  0.080  0.086  0.000  0.000  0.000  0.000  0.000  0.166
tot    0.000  0.000  0.172  0.160  0.000  0.000  0.000  0.000  0.000  0.332
 
band     8 # energy   12.48693286 # occ.  0.00000000
 
ion      s     py     pz     px    dxy    dyz    dz2    dxz  x2-y2    tot
    1  0.000  0.000  0.074  0.092  0.000  0.000  0.000  0.000  0.000  0.166
    2  0.000  0.000  0.086  0.080  0.000  0.000  0.000  0.000  0.000  0.166
tot    0.000  0.000  0.160  0.172  0.000  0.000  0.000  0.000  0.000  0.332
 
band     9 # energy   14.96866793 # occ.  0.00000000
 
ion      s     py     pz     px    dxy    dyz    dz2    dxz  x2-y2    tot
    1  0.144  0.123  0.000  0.000  0.000  0.000  0.000  0.000  0.000  0.267
    2  0.144  0.123  0.000  0.000  0.000  0.000  0.000  0.000  0.000  0.267
tot    0.288  0.247  0.000  0.000  0.000  0.000  0.000  0.000  0.000  0.535
 
band    10 # energy   15.29326366 # occ.  0.00000000
 
ion      s     py     pz     px    dxy    dyz    dz2    dxz  x2-y2    tot
    1  0.000  0.000  0.000  0.000  0.000  0.000  0.000  0.000  0.000  0.000
    2  0.000  0.000  0.000  0.000  0.000  0.000  0.000  0.000  0.000  0.000
tot    0.000  0.000  0.000  0.000  0.000  0.000  0.000  0.000  0.000  0.000
 
band    11 # energy   18.31123068 # occ.  0.00000000
 
ion      s     py     pz     px    dxy    dyz    dz2    dxz  x2-y2    tot
    1  0.017  0.137  0.000  0.000  0.000  0.000  0.000  0.000  0.000  0.155
    2  0.017  0.137  0.000  0.000  0.000  0.000  0.000  0.000  0.000  0.155
tot    0.035  0.275  0.000  0.000  0.000  0.000  0.000  0.000  0.000  0.309
 
band    12 # energy   19.31608210 # occ.  0.00000000
 
ion      s     py     pz     px    dxy    dyz    dz2    dxz  x2-y2    tot
    1  0.000  0.000  0.027  0.006  0.000  0.000  0.000  0.000  0.000  0.033
    2  0.000  0.000  0.030  0.002  0.000  0.000  0.000  0.000  0.000  0.033
tot    0.000  0.000  0.057  0.008  0.000  0.000  0.000  0.000  0.000  0.065
 

 k-point    59 :    0.31428571 0.00000000 0.31428571     weight = 0.00555556

band     1 # energy   -4.43097659 # occ.  2.00000000
 
ion      s     py     pz     px    dxy    dyz    dz2    dxz  x2-y2    tot
    1  0.205  0.019  0.000  0.000  0.000  0.000  0.000  0.000  0.000  0.223
    2  0.205  0.019  0.000  0.000  0.000  0.000  0.000  0.000  0.000  0.223
tot    0.410  0.037  0.000  0.000  0.000  0.000  0.000  0.000  0.000  0.447
 
band     2 # energy    1.16322904 # occ.  2.00000000
 
ion      s     py     pz     px    dxy    dyz    dz2    dxz  x2-y2    tot
    1  0.171  0.083  0.000  0.000  0.000  0.000  0.000  0.000  0.000  0.254
    2  0.171  0.083  0.000  0.000  0.000  0.000  0.000  0.000  0.000  0.254
tot    0.341  0.167  0.000  0.000  0.000  0.000  0.000  0.000  0.000  0.508
 
band     3 # energy    3.51896841 # occ.  2.00000000
 
ion      s     py     pz     px    dxy    dyz    dz2    dxz  x2-y2    tot
    1  0.000  0.000  0.190  0.008  0.000  0.000  0.000  0.000  0.000  0.198
    2  0.000  0.000  0.020  0.178  0.000  0.000  0.000  0.000  0.000  0.198
tot    0.000  0.000  0.210  0.186  0.000  0.000  0.000  0.000  0.000  0.396
 
band     4 # energy    3.51896842 # occ.  2.00000000
 
ion      s     py     pz     px    dxy    dyz    dz2    dxz  x2-y2    tot
    1  0.000  0.000  0.008  0.190  0.000  0.000  0.000  0.000  0.000  0.198
    2  0.000  0.000  0.178  0.020  0.000  0.000  0.000  0.000  0.000  0.198
tot    0.000  0.000  0.186  0.210  0.000  0.000  0.000  0.000  0.000  0.396
 
band     5 # energy    6.63173635 # occ.  0.00000000
 
ion      s     py     pz     px    dxy    dyz    dz2    dxz  x2-y2    tot
    1  0.049  0.062  0.000  0.000  0.000  0.000  0.000  0.000  0.000  0.111
    2  0.049  0.062  0.000  0.000  0.000  0.000  0.000  0.000  0.000  0.111
tot    0.099  0.123  0.000  0.000  0.000  0.000  0.000  0.000  0.000  0.222
 
band     6 # energy    8.05886889 # occ.  0.00000000
 
ion      s     py     pz     px    dxy    dyz    dz2    dxz  x2-y2    tot
    1  0.043  0.032  0.000  0.000  0.000  0.000  0.000  0.000  0.000  0.075
    2  0.043  0.032  0.000  0.000  0.000  0.000  0.000  0.000  0.000  0.075
tot    0.087  0.063  0.000  0.000  0.000  0.000  0.000  0.000  0.000  0.150
 
band     7 # energy   12.74774013 # occ.  0.00000000
 
ion      s     py     pz     px    dxy    dyz    dz2    dxz  x2-y2    tot
    1  0.000  0.000  0.081  0.084  0.000  0.000  0.000  0.000  0.000  0.166
    2  0.000  0.000  0.084  0.082  0.000  0.000  0.000  0.000  0.000  0.166
tot    0.000  0.000  0.165  0.166  0.000  0.000  0.000  0.000  0.000  0.331
 
band     8 # energy   12.74774021 # occ.  0.00000000
 
ion      s     py     pz     px    dxy    dyz    dz2    dxz  x2-y2    tot
    1  0.000  0.000  0.084  0.081  0.000  0.000  0.000  0.000  0.000  0.166
    2  0.000  0.000  0.082  0.084  0.000  0.000  0.000  0.000  0.000  0.166
tot    0.000  0.000  0.166  0.165  0.000  0.000  0.000  0.000  0.000  0.331
 
band     9 # energy   15.27672526 # occ.  0.00000000
 
ion      s     py     pz     px    dxy    dyz    dz2    dxz  x2-y2    tot
    1  0.140  0.130  0.000  0.000  0.000  0.000  0.000  0.000  0.000  0.270
    2  0.140  0.130  0.000  0.000  0.000  0.000  0.000  0.000  0.000  0.270
tot    0.280  0.260  0.000  0.000  0.000  0.000  0.000  0.000  0.000  0.540
 
band    10 # energy   15.46237151 # occ.  0.00000000
 
ion      s     py     pz     px    dxy    dyz    dz2    dxz  x2-y2    tot
    1  0.000  0.000  0.000  0.000  0.000  0.000  0.000  0.000  0.000  0.000
    2  0.000  0.000  0.000  0.000  0.000  0.000  0.000  0.000  0.000  0.000
tot    0.000  0.000  0.000  0.000  0.000  0.000  0.000  0.000  0.000  0.000
 
band    11 # energy   18.58947296 # occ.  0.00000000
 
ion      s     py     pz     px    dxy    dyz    dz2    dxz  x2-y2    tot
    1  0.013  0.148  0.000  0.000  0.000  0.000  0.000  0.000  0.000  0.161
    2  0.013  0.149  0.000  0.000  0.000  0.000  0.000  0.000  0.000  0.161
tot    0.025  0.297  0.000  0.000  0.000  0.000  0.000  0.000  0.000  0.322
 
band    12 # energy   19.35957052 # occ.  0.00000000
 
ion      s     py     pz     px    dxy    dyz    dz2    dxz  x2-y2    tot
    1  0.000  0.000  0.032  0.006  0.000  0.000  0.000  0.000  0.000  0.037
    2  0.000  0.000  0.026  0.012  0.000  0.000  0.000  0.000  0.000  0.037
tot    0.000  0.000  0.057  0.017  0.000  0.000  0.000  0.000  0.000  0.075
 

 k-point    60 :    0.32857143 0.00000000 0.32857143     weight = 0.00555556

band     1 # energy   -4.27671856 # occ.  2.00000000
 
ion      s     py     pz     px    dxy    dyz    dz2    dxz  x2-y2    tot
    1  0.204  0.020  0.000  0.000  0.000  0.000  0.000  0.000  0.000  0.224
    2  0.204  0.020  0.000  0.000  0.000  0.000  0.000  0.000  0.000  0.224
tot    0.408  0.041  0.000  0.000  0.000  0.000  0.000  0.000  0.000  0.449
 
band     2 # energy    0.90827432 # occ.  2.00000000
 
ion      s     py     pz     px    dxy    dyz    dz2    dxz  x2-y2    tot
    1  0.173  0.080  0.000  0.000  0.000  0.000  0.000  0.000  0.000  0.253
    2  0.173  0.080  0.000  0.000  0.000  0.000  0.000  0.000  0.000  0.253
tot    0.347  0.160  0.000  0.000  0.000  0.000  0.000  0.000  0.000  0.507
 
band     3 # energy    3.44040321 # occ.  2.00000000
 
ion      s     py     pz     px    dxy    dyz    dz2    dxz  x2-y2    tot
    1  0.000  0.000  0.040  0.158  0.000  0.000  0.000  0.000  0.000  0.198
    2  0.000  0.000  0.169  0.029  0.000  0.000  0.000  0.000  0.000  0.198
tot    0.000  0.000  0.209  0.187  0.000  0.000  0.000  0.000  0.000  0.396
 
band     4 # energy    3.44040336 # occ.  2.00000000
 
ion      s     py     pz     px    dxy    dyz    dz2    dxz  x2-y2    tot
    1  0.000  0.000  0.158  0.040  0.000  0.000  0.000  0.000  0.000  0.198
    2  0.000  0.000  0.029  0.169  0.000  0.000  0.000  0.000  0.000  0.198
tot    0.000  0.000  0.187  0.209  0.000  0.000  0.000  0.000  0.000  0.396
 
band     5 # energy    6.57621900 # occ.  0.00000000
 
ion      s     py     pz     px    dxy    dyz    dz2    dxz  x2-y2    tot
    1  0.050  0.059  0.000  0.000  0.000  0.000  0.000  0.000  0.000  0.109
    2  0.050  0.059  0.000  0.000  0.000  0.000  0.000  0.000  0.000  0.109
tot    0.101  0.117  0.000  0.000  0.000  0.000  0.000  0.000  0.000  0.218
 
band     6 # energy    7.88082200 # occ.  0.00000000
 
ion      s     py     pz     px    dxy    dyz    dz2    dxz  x2-y2    tot
    1  0.044  0.031  0.000  0.000  0.000  0.000  0.000  0.000  0.000  0.074
    2  0.044  0.031  0.000  0.000  0.000  0.000  0.000  0.000  0.000  0.074
tot    0.087  0.062  0.000  0.000  0.000  0.000  0.000  0.000  0.000  0.149
 
band     7 # energy   13.01040769 # occ.  0.00000000
 
ion      s     py     pz     px    dxy    dyz    dz2    dxz  x2-y2    tot
    1  0.000  0.000  0.084  0.081  0.000  0.000  0.000  0.000  0.000  0.165
    2  0.000  0.000  0.081  0.084  0.000  0.000  0.000  0.000  0.000  0.165
tot    0.000  0.000  0.165  0.165  0.000  0.000  0.000  0.000  0.000  0.331
 
band     8 # energy   13.01040776 # occ.  0.00000000
 
ion      s     py     pz     px    dxy    dyz    dz2    dxz  x2-y2    tot
    1  0.000  0.000  0.081  0.084  0.000  0.000  0.000  0.000  0.000  0.165
    2  0.000  0.000  0.084  0.081  0.000  0.000  0.000  0.000  0.000  0.165
tot    0.000  0.000  0.165  0.165  0.000  0.000  0.000  0.000  0.000  0.331
 
band     9 # energy   15.58419539 # occ.  0.00000000
 
ion      s     py     pz     px    dxy    dyz    dz2    dxz  x2-y2    tot
    1  0.136  0.137  0.000  0.000  0.000  0.000  0.000  0.000  0.000  0.272
    2  0.136  0.137  0.000  0.000  0.000  0.000  0.000  0.000  0.000  0.272
tot    0.271  0.273  0.000  0.000  0.000  0.000  0.000  0.000  0.000  0.545
 
band    10 # energy   15.63923397 # occ.  0.00000000
 
ion      s     py     pz     px    dxy    dyz    dz2    dxz  x2-y2    tot
    1  0.000  0.000  0.000  0.000  0.000  0.000  0.000  0.000  0.000  0.000
    2  0.000  0.000  0.000  0.000  0.000  0.000  0.000  0.000  0.000  0.000
tot    0.000  0.000  0.000  0.000  0.000  0.000  0.000  0.000  0.000  0.000
 
band    11 # energy   18.85053414 # occ.  0.00000000
 
ion      s     py     pz     px    dxy    dyz    dz2    dxz  x2-y2    tot
    1  0.008  0.161  0.000  0.000  0.000  0.000  0.000  0.000  0.000  0.169
    2  0.008  0.161  0.000  0.000  0.000  0.000  0.000  0.000  0.000  0.169
tot    0.016  0.321  0.000  0.000  0.000  0.000  0.000  0.000  0.000  0.337
 
band    12 # energy   19.34024938 # occ.  0.00000000
 
ion      s     py     pz     px    dxy    dyz    dz2    dxz  x2-y2    tot
    1  0.000  0.000  0.009  0.035  0.000  0.000  0.000  0.000  0.000  0.044
    2  0.000  0.000  0.042  0.002  0.000  0.000  0.000  0.000  0.000  0.044
tot    0.000  0.000  0.051  0.037  0.000  0.000  0.000  0.000  0.000  0.088
 

 k-point    61 :    0.34285714 0.00000000 0.34285714     weight = 0.00555556

band     1 # energy   -4.11631207 # occ.  2.00000000
 
ion      s     py     pz     px    dxy    dyz    dz2    dxz  x2-y2    tot
    1  0.203  0.022  0.000  0.000  0.000  0.000  0.000  0.000  0.000  0.225
    2  0.203  0.022  0.000  0.000  0.000  0.000  0.000  0.000  0.000  0.225
tot    0.407  0.044  0.000  0.000  0.000  0.000  0.000  0.000  0.000  0.451
 
band     2 # energy    0.65447877 # occ.  2.00000000
 
ion      s     py     pz     px    dxy    dyz    dz2    dxz  x2-y2    tot
    1  0.176  0.077  0.000  0.000  0.000  0.000  0.000  0.000  0.000  0.252
    2  0.176  0.077  0.000  0.000  0.000  0.000  0.000  0.000  0.000  0.252
tot    0.351  0.154  0.000  0.000  0.000  0.000  0.000  0.000  0.000  0.505
 
band     3 # energy    3.36779719 # occ.  2.00000000
 
ion      s     py     pz     px    dxy    dyz    dz2    dxz  x2-y2    tot
    1  0.000  0.000  0.152  0.046  0.000  0.000  0.000  0.000  0.000  0.198
    2  0.000  0.000  0.050  0.148  0.000  0.000  0.000  0.000  0.000  0.198
tot    0.000  0.000  0.202  0.194  0.000  0.000  0.000  0.000  0.000  0.396
 
band     4 # energy    3.36779728 # occ.  2.00000000
 
ion      s     py     pz     px    dxy    dyz    dz2    dxz  x2-y2    tot
    1  0.000  0.000  0.046  0.152  0.000  0.000  0.000  0.000  0.000  0.198
    2  0.000  0.000  0.148  0.050  0.000  0.000  0.000  0.000  0.000  0.198
tot    0.000  0.000  0.194  0.202  0.000  0.000  0.000  0.000  0.000  0.396
 
band     5 # energy    6.52795645 # occ.  0.00000000
 
ion      s     py     pz     px    dxy    dyz    dz2    dxz  x2-y2    tot
    1  0.051  0.056  0.000  0.000  0.000  0.000  0.000  0.000  0.000  0.107
    2  0.051  0.056  0.000  0.000  0.000  0.000  0.000  0.000  0.000  0.107
tot    0.102  0.112  0.000  0.000  0.000  0.000  0.000  0.000  0.000  0.214
 
band     6 # energy    7.71261176 # occ.  0.00000000
 
ion      s     py     pz     px    dxy    dyz    dz2    dxz  x2-y2    tot
    1  0.044  0.030  0.000  0.000  0.000  0.000  0.000  0.000  0.000  0.074
    2  0.044  0.030  0.000  0.000  0.000  0.000  0.000  0.000  0.000  0.074
tot    0.088  0.061  0.000  0.000  0.000  0.000  0.000  0.000  0.000  0.148
 
band     7 # energy   13.27485643 # occ.  0.00000000
 
ion      s     py     pz     px    dxy    dyz    dz2    dxz  x2-y2    tot
    1  0.000  0.000  0.081  0.084  0.000  0.000  0.000  0.000  0.000  0.165
    2  0.000  0.000  0.083  0.082  0.000  0.000  0.000  0.000  0.000  0.165
tot    0.000  0.000  0.164  0.166  0.000  0.000  0.000  0.000  0.000  0.330
 
band     8 # energy   13.27485652 # occ.  0.00000000
 
ion      s     py     pz     px    dxy    dyz    dz2    dxz  x2-y2    tot
    1  0.000  0.000  0.084  0.081  0.000  0.000  0.000  0.000  0.000  0.165
    2  0.000  0.000  0.082  0.083  0.000  0.000  0.000  0.000  0.000  0.165
tot    0.000  0.000  0.166  0.164  0.000  0.000  0.000  0.000  0.000  0.330
 
band     9 # energy   15.82383738 # occ.  0.00000000
 
ion      s     py     pz     px    dxy    dyz    dz2    dxz  x2-y2    tot
    1  0.000  0.000  0.000  0.000  0.000  0.000  0.000  0.000  0.000  0.000
    2  0.000  0.000  0.000  0.000  0.000  0.000  0.000  0.000  0.000  0.000
tot    0.000  0.000  0.000  0.000  0.000  0.000  0.000  0.000  0.000  0.000
 
band    10 # energy   15.89018764 # occ.  0.00000000
 
ion      s     py     pz     px    dxy    dyz    dz2    dxz  x2-y2    tot
    1  0.131  0.143  0.000  0.000  0.000  0.000  0.000  0.000  0.000  0.274
    2  0.131  0.143  0.000  0.000  0.000  0.000  0.000  0.000  0.000  0.274
tot    0.262  0.286  0.000  0.000  0.000  0.000  0.000  0.000  0.000  0.548
 
band    11 # energy   19.10382492 # occ.  0.00000000
 
ion      s     py     pz     px    dxy    dyz    dz2    dxz  x2-y2    tot
    1  0.004  0.157  0.003  0.002  0.000  0.000  0.000  0.000  0.000  0.165
    2  0.004  0.157  0.002  0.002  0.000  0.000  0.000  0.000  0.000  0.166
tot    0.008  0.313  0.005  0.005  0.000  0.000  0.000  0.000  0.000  0.331
 
band    12 # energy   22.18804393 # occ.  0.00000000
 
ion      s     py     pz     px    dxy    dyz    dz2    dxz  x2-y2    tot
    1  0.002  0.002  0.007  0.088  0.000  0.000  0.000  0.000  0.000  0.100
    2  0.001  0.004  0.004  0.063  0.000  0.000  0.000  0.000  0.000  0.072
tot    0.003  0.006  0.011  0.151  0.000  0.000  0.000  0.000  0.000  0.172
 

 k-point    62 :    0.35714286 0.00000000 0.35714286     weight = 0.00555556

band     1 # energy   -3.94988432 # occ.  2.00000000
 
ion      s     py     pz     px    dxy    dyz    dz2    dxz  x2-y2    tot
    1  0.203  0.024  0.000  0.000  0.000  0.000  0.000  0.000  0.000  0.226
    2  0.203  0.024  0.000  0.000  0.000  0.000  0.000  0.000  0.000  0.226
tot    0.405  0.048  0.000  0.000  0.000  0.000  0.000  0.000  0.000  0.453
 
band     2 # energy    0.40211750 # occ.  2.00000000
 
ion      s     py     pz     px    dxy    dyz    dz2    dxz  x2-y2    tot
    1  0.178  0.074  0.000  0.000  0.000  0.000  0.000  0.000  0.000  0.252
    2  0.178  0.074  0.000  0.000  0.000  0.000  0.000  0.000  0.000  0.252
tot    0.356  0.147  0.000  0.000  0.000  0.000  0.000  0.000  0.000  0.503
 
band     3 # energy    3.30124206 # occ.  2.00000000
 
ion      s     py     pz     px    dxy    dyz    dz2    dxz  x2-y2    tot
    1  0.000  0.000  0.084  0.114  0.000  0.000  0.000  0.000  0.000  0.198
    2  0.000  0.000  0.104  0.093  0.000  0.000  0.000  0.000  0.000  0.198
tot    0.000  0.000  0.188  0.207  0.000  0.000  0.000  0.000  0.000  0.395
 
band     4 # energy    3.30124214 # occ.  2.00000000
 
ion      s     py     pz     px    dxy    dyz    dz2    dxz  x2-y2    tot
    1  0.000  0.000  0.114  0.084  0.000  0.000  0.000  0.000  0.000  0.198
    2  0.000  0.000  0.093  0.104  0.000  0.000  0.000  0.000  0.000  0.198
tot    0.000  0.000  0.207  0.188  0.000  0.000  0.000  0.000  0.000  0.395
 
band     5 # energy    6.48721626 # occ.  0.00000000
 
ion      s     py     pz     px    dxy    dyz    dz2    dxz  x2-y2    tot
    1  0.052  0.053  0.000  0.000  0.000  0.000  0.000  0.000  0.000  0.105
    2  0.052  0.053  0.000  0.000  0.000  0.000  0.000  0.000  0.000  0.105
tot    0.104  0.106  0.000  0.000  0.000  0.000  0.000  0.000  0.000  0.210
 
band     6 # energy    7.55452309 # occ.  0.00000000
 
ion      s     py     pz     px    dxy    dyz    dz2    dxz  x2-y2    tot
    1  0.044  0.030  0.000  0.000  0.000  0.000  0.000  0.000  0.000  0.074
    2  0.044  0.030  0.000  0.000  0.000  0.000  0.000  0.000  0.000  0.074
tot    0.089  0.060  0.000  0.000  0.000  0.000  0.000  0.000  0.000  0.149
 
band     7 # energy   13.54097078 # occ.  0.00000000
 
ion      s     py     pz     px    dxy    dyz    dz2    dxz  x2-y2    tot
    1  0.000  0.000  0.085  0.079  0.000  0.000  0.000  0.000  0.000  0.165
    2  0.000  0.000  0.079  0.085  0.000  0.000  0.000  0.000  0.000  0.165
tot    0.000  0.000  0.165  0.165  0.000  0.000  0.000  0.000  0.000  0.330
 
band     8 # energy   13.54097086 # occ.  0.00000000
 
ion      s     py     pz     px    dxy    dyz    dz2    dxz  x2-y2    tot
    1  0.000  0.000  0.079  0.085  0.000  0.000  0.000  0.000  0.000  0.165
    2  0.000  0.000  0.085  0.079  0.000  0.000  0.000  0.000  0.000  0.165
tot    0.000  0.000  0.165  0.165  0.000  0.000  0.000  0.000  0.000  0.330
 
band     9 # energy   16.01616849 # occ.  0.00000000
 
ion      s     py     pz     px    dxy    dyz    dz2    dxz  x2-y2    tot
    1  0.000  0.000  0.000  0.000  0.000  0.000  0.000  0.000  0.000  0.000
    2  0.000  0.000  0.000  0.000  0.000  0.000  0.000  0.000  0.000  0.000
tot    0.000  0.000  0.000  0.000  0.000  0.000  0.000  0.000  0.000  0.000
 
band    10 # energy   16.19381159 # occ.  0.00000000
 
ion      s     py     pz     px    dxy    dyz    dz2    dxz  x2-y2    tot
    1  0.126  0.149  0.000  0.000  0.000  0.000  0.000  0.000  0.000  0.275
    2  0.126  0.149  0.000  0.000  0.000  0.000  0.000  0.000  0.000  0.275
tot    0.252  0.299  0.000  0.000  0.000  0.000  0.000  0.000  0.000  0.551
 
band    11 # energy   19.10354167 # occ.  0.00000000
 
ion      s     py     pz     px    dxy    dyz    dz2    dxz  x2-y2    tot
    1  0.000  0.000  0.009  0.050  0.000  0.000  0.000  0.000  0.000  0.060
    2  0.000  0.000  0.045  0.015  0.000  0.000  0.000  0.000  0.000  0.060
tot    0.000  0.000  0.054  0.065  0.000  0.000  0.000  0.000  0.000  0.119
 
band    12 # energy   19.28788637 # occ.  0.00000000
 
ion      s     py     pz     px    dxy    dyz    dz2    dxz  x2-y2    tot
    1  0.001  0.179  0.002  0.000  0.000  0.000  0.000  0.000  0.000  0.182
    2  0.001  0.179  0.001  0.002  0.000  0.000  0.000  0.000  0.000  0.183
tot    0.003  0.358  0.002  0.002  0.000  0.000  0.000  0.000  0.000  0.365
 

 k-point    63 :    0.37142857 0.00000000 0.37142857     weight = 0.00555556

band     1 # energy   -3.77753516 # occ.  2.00000000
 
ion      s     py     pz     px    dxy    dyz    dz2    dxz  x2-y2    tot
    1  0.202  0.026  0.000  0.000  0.000  0.000  0.000  0.000  0.000  0.228
    2  0.202  0.026  0.000  0.000  0.000  0.000  0.000  0.000  0.000  0.228
tot    0.404  0.051  0.000  0.000  0.000  0.000  0.000  0.000  0.000  0.455
 
band     2 # energy    0.15146240 # occ.  2.00000000
 
ion      s     py     pz     px    dxy    dyz    dz2    dxz  x2-y2    tot
    1  0.180  0.070  0.000  0.000  0.000  0.000  0.000  0.000  0.000  0.250
    2  0.180  0.070  0.000  0.000  0.000  0.000  0.000  0.000  0.000  0.250
tot    0.360  0.141  0.000  0.000  0.000  0.000  0.000  0.000  0.000  0.501
 
band     3 # energy    3.24081362 # occ.  2.00000000
 
ion      s     py     pz     px    dxy    dyz    dz2    dxz  x2-y2    tot
    1  0.000  0.000  0.122  0.076  0.000  0.000  0.000  0.000  0.000  0.198
    2  0.000  0.000  0.094  0.103  0.000  0.000  0.000  0.000  0.000  0.198
tot    0.000  0.000  0.216  0.179  0.000  0.000  0.000  0.000  0.000  0.395
 
band     4 # energy    3.24081358 # occ.  2.00000000
 
ion      s     py     pz     px    dxy    dyz    dz2    dxz  x2-y2    tot
    1  0.000  0.000  0.076  0.122  0.000  0.000  0.000  0.000  0.000  0.198
    2  0.000  0.000  0.103  0.094  0.000  0.000  0.000  0.000  0.000  0.198
tot    0.000  0.000  0.179  0.216  0.000  0.000  0.000  0.000  0.000  0.395
 
band     5 # energy    6.45418029 # occ.  0.00000000
 
ion      s     py     pz     px    dxy    dyz    dz2    dxz  x2-y2    tot
    1  0.052  0.051  0.000  0.000  0.000  0.000  0.000  0.000  0.000  0.103
    2  0.052  0.051  0.000  0.000  0.000  0.000  0.000  0.000  0.000  0.103
tot    0.105  0.101  0.000  0.000  0.000  0.000  0.000  0.000  0.000  0.206
 
band     6 # energy    7.40658547 # occ.  0.00000000
 
ion      s     py     pz     px    dxy    dyz    dz2    dxz  x2-y2    tot
    1  0.045  0.030  0.000  0.000  0.000  0.000  0.000  0.000  0.000  0.075
    2  0.045  0.030  0.000  0.000  0.000  0.000  0.000  0.000  0.000  0.075
tot    0.090  0.060  0.000  0.000  0.000  0.000  0.000  0.000  0.000  0.150
 
band     7 # energy   13.80852511 # occ.  0.00000000
 
ion      s     py     pz     px    dxy    dyz    dz2    dxz  x2-y2    tot
    1  0.000  0.000  0.058  0.107  0.000  0.000  0.000  0.000  0.000  0.165
    2  0.000  0.000  0.106  0.059  0.000  0.000  0.000  0.000  0.000  0.165
tot    0.000  0.000  0.164  0.166  0.000  0.000  0.000  0.000  0.000  0.330
 
band     8 # energy   13.80852520 # occ.  0.00000000
 
ion      s     py     pz     px    dxy    dyz    dz2    dxz  x2-y2    tot
    1  0.000  0.000  0.107  0.058  0.000  0.000  0.000  0.000  0.000  0.165
    2  0.000  0.000  0.059  0.106  0.000  0.000  0.000  0.000  0.000  0.165
tot    0.000  0.000  0.166  0.164  0.000  0.000  0.000  0.000  0.000  0.330
 
band     9 # energy   16.21618867 # occ.  0.00000000
 
ion      s     py     pz     px    dxy    dyz    dz2    dxz  x2-y2    tot
    1  0.000  0.000  0.000  0.000  0.000  0.000  0.000  0.000  0.000  0.000
    2  0.000  0.000  0.000  0.000  0.000  0.000  0.000  0.000  0.000  0.000
tot    0.000  0.000  0.000  0.000  0.000  0.000  0.000  0.000  0.000  0.000
 
band    10 # energy   16.49418438 # occ.  0.00000000
 
ion      s     py     pz     px    dxy    dyz    dz2    dxz  x2-y2    tot
    1  0.121  0.156  0.000  0.000  0.000  0.000  0.000  0.000  0.000  0.276
    2  0.121  0.156  0.000  0.000  0.000  0.000  0.000  0.000  0.000  0.276
tot    0.241  0.311  0.000  0.000  0.000  0.000  0.000  0.000  0.000  0.552
 
band    11 # energy   18.91040998 # occ.  0.00000000
 
ion      s     py     pz     px    dxy    dyz    dz2    dxz  x2-y2    tot
    1  0.000  0.001  0.010  0.056  0.000  0.000  0.000  0.000  0.000  0.067
    2  0.000  0.001  0.047  0.019  0.000  0.000  0.000  0.000  0.000  0.067
tot    0.000  0.002  0.057  0.075  0.000  0.000  0.000  0.000  0.000  0.134
 
band    12 # energy   22.32369244 # occ.  0.00000000
 
ion      s     py     pz     px    dxy    dyz    dz2    dxz  x2-y2    tot
    1  0.003  0.017  0.000  0.051  0.000  0.000  0.000  0.000  0.000  0.071
    2  0.002  0.016  0.003  0.052  0.000  0.000  0.000  0.000  0.000  0.072
tot    0.005  0.032  0.003  0.103  0.000  0.000  0.000  0.000  0.000  0.144
 

 k-point    64 :    0.38571429 0.00000000 0.38571429     weight = 0.00555556

band     1 # energy   -3.59937844 # occ.  2.00000000
 
ion      s     py     pz     px    dxy    dyz    dz2    dxz  x2-y2    tot
    1  0.201  0.028  0.000  0.000  0.000  0.000  0.000  0.000  0.000  0.229
    2  0.201  0.028  0.000  0.000  0.000  0.000  0.000  0.000  0.000  0.229
tot    0.402  0.055  0.000  0.000  0.000  0.000  0.000  0.000  0.000  0.457
 
band     2 # energy   -0.09720630 # occ.  2.00000000
 
ion      s     py     pz     px    dxy    dyz    dz2    dxz  x2-y2    tot
    1  0.182  0.067  0.000  0.000  0.000  0.000  0.000  0.000  0.000  0.249
    2  0.182  0.067  0.000  0.000  0.000  0.000  0.000  0.000  0.000  0.249
tot    0.364  0.135  0.000  0.000  0.000  0.000  0.000  0.000  0.000  0.499
 
band     3 # energy    3.18658632 # occ.  2.00000000
 
ion      s     py     pz     px    dxy    dyz    dz2    dxz  x2-y2    tot
    1  0.000  0.000  0.010  0.188  0.000  0.000  0.000  0.000  0.000  0.198
    2  0.000  0.000  0.194  0.004  0.000  0.000  0.000  0.000  0.000  0.198
tot    0.000  0.000  0.204  0.192  0.000  0.000  0.000  0.000  0.000  0.395
 
band     4 # energy    3.18658647 # occ.  2.00000000
 
ion      s     py     pz     px    dxy    dyz    dz2    dxz  x2-y2    tot
    1  0.000  0.000  0.188  0.010  0.000  0.000  0.000  0.000  0.000  0.198
    2  0.000  0.000  0.004  0.194  0.000  0.000  0.000  0.000  0.000  0.198
tot    0.000  0.000  0.192  0.204  0.000  0.000  0.000  0.000  0.000  0.395
 
band     5 # energy    6.42919936 # occ.  0.00000000
 
ion      s     py     pz     px    dxy    dyz    dz2    dxz  x2-y2    tot
    1  0.053  0.048  0.000  0.000  0.000  0.000  0.000  0.000  0.000  0.101
    2  0.053  0.048  0.000  0.000  0.000  0.000  0.000  0.000  0.000  0.101
tot    0.106  0.097  0.000  0.000  0.000  0.000  0.000  0.000  0.000  0.203
 
band     6 # energy    7.26920028 # occ.  0.00000000
 
ion      s     py     pz     px    dxy    dyz    dz2    dxz  x2-y2    tot
    1  0.046  0.030  0.000  0.000  0.000  0.000  0.000  0.000  0.000  0.076
    2  0.046  0.030  0.000  0.000  0.000  0.000  0.000  0.000  0.000  0.076
tot    0.092  0.060  0.000  0.000  0.000  0.000  0.000  0.000  0.000  0.151
 
band     7 # energy   14.07746200 # occ.  0.00000000
 
ion      s     py     pz     px    dxy    dyz    dz2    dxz  x2-y2    tot
    1  0.000  0.000  0.014  0.152  0.000  0.000  0.000  0.000  0.000  0.165
    2  0.000  0.000  0.151  0.014  0.000  0.000  0.000  0.000  0.000  0.165
tot    0.000  0.000  0.165  0.165  0.000  0.000  0.000  0.000  0.000  0.330
 
band     8 # energy   14.07746205 # occ.  0.00000000
 
ion      s     py     pz     px    dxy    dyz    dz2    dxz  x2-y2    tot
    1  0.000  0.000  0.151  0.014  0.000  0.000  0.000  0.000  0.000  0.165
    2  0.000  0.000  0.014  0.151  0.000  0.000  0.000  0.000  0.000  0.165
tot    0.000  0.000  0.165  0.165  0.000  0.000  0.000  0.000  0.000  0.330
 
band     9 # energy   16.42389860 # occ.  0.00000000
 
ion      s     py     pz     px    dxy    dyz    dz2    dxz  x2-y2    tot
    1  0.000  0.000  0.000  0.000  0.000  0.000  0.000  0.000  0.000  0.000
    2  0.000  0.000  0.000  0.000  0.000  0.000  0.000  0.000  0.000  0.000
tot    0.000  0.000  0.000  0.000  0.000  0.000  0.000  0.000  0.000  0.000
 
band    10 # energy   16.79059774 # occ.  0.00000000
 
ion      s     py     pz     px    dxy    dyz    dz2    dxz  x2-y2    tot
    1  0.115  0.162  0.000  0.000  0.000  0.000  0.000  0.000  0.000  0.277
    2  0.115  0.162  0.000  0.000  0.000  0.000  0.000  0.000  0.000  0.277
tot    0.230  0.323  0.000  0.000  0.000  0.000  0.000  0.000  0.000  0.553
 
band    11 # energy   18.67753038 # occ.  0.00000000
 
ion      s     py     pz     px    dxy    dyz    dz2    dxz  x2-y2    tot
    1  0.000  0.000  0.034  0.038  0.000  0.000  0.000  0.000  0.000  0.071
    2  0.000  0.000  0.016  0.055  0.000  0.000  0.000  0.000  0.000  0.071
tot    0.000  0.000  0.050  0.092  0.000  0.000  0.000  0.000  0.000  0.143
 
band    12 # energy   19.55679247 # occ.  0.00000000
 
ion      s     py     pz     px    dxy    dyz    dz2    dxz  x2-y2    tot
    1  0.001  0.202  0.001  0.001  0.000  0.000  0.000  0.000  0.000  0.205
    2  0.001  0.201  0.002  0.001  0.000  0.000  0.000  0.000  0.000  0.204
tot    0.001  0.403  0.003  0.002  0.000  0.000  0.000  0.000  0.000  0.409
 

 k-point    65 :    0.40000000 0.00000000 0.40000000     weight = 0.00555556

band     1 # energy   -3.41555094 # occ.  2.00000000
 
ion      s     py     pz     px    dxy    dyz    dz2    dxz  x2-y2    tot
    1  0.200  0.030  0.000  0.000  0.000  0.000  0.000  0.000  0.000  0.230
    2  0.200  0.030  0.000  0.000  0.000  0.000  0.000  0.000  0.000  0.230
tot    0.400  0.059  0.000  0.000  0.000  0.000  0.000  0.000  0.000  0.460
 
band     2 # energy   -0.34362681 # occ.  2.00000000
 
ion      s     py     pz     px    dxy    dyz    dz2    dxz  x2-y2    tot
    1  0.184  0.064  0.000  0.000  0.000  0.000  0.000  0.000  0.000  0.248
    2  0.184  0.064  0.000  0.000  0.000  0.000  0.000  0.000  0.000  0.248
tot    0.367  0.129  0.000  0.000  0.000  0.000  0.000  0.000  0.000  0.496
 
band     3 # energy    3.13861733 # occ.  2.00000000
 
ion      s     py     pz     px    dxy    dyz    dz2    dxz  x2-y2    tot
    1  0.000  0.000  0.196  0.001  0.000  0.000  0.000  0.000  0.000  0.198
    2  0.000  0.000  0.000  0.197  0.000  0.000  0.000  0.000  0.000  0.198
tot    0.000  0.000  0.196  0.199  0.000  0.000  0.000  0.000  0.000  0.395
 
band     4 # energy    3.13861740 # occ.  2.00000000
 
ion      s     py     pz     px    dxy    dyz    dz2    dxz  x2-y2    tot
    1  0.000  0.000  0.001  0.196  0.000  0.000  0.000  0.000  0.000  0.198
    2  0.000  0.000  0.197  0.000  0.000  0.000  0.000  0.000  0.000  0.198
tot    0.000  0.000  0.199  0.196  0.000  0.000  0.000  0.000  0.000  0.395
 
band     5 # energy    6.41240095 # occ.  0.00000000
 
ion      s     py     pz     px    dxy    dyz    dz2    dxz  x2-y2    tot
    1  0.053  0.046  0.000  0.000  0.000  0.000  0.000  0.000  0.000  0.099
    2  0.053  0.046  0.000  0.000  0.000  0.000  0.000  0.000  0.000  0.099
tot    0.106  0.092  0.000  0.000  0.000  0.000  0.000  0.000  0.000  0.199
 
band     6 # energy    7.14225638 # occ.  0.00000000
 
ion      s     py     pz     px    dxy    dyz    dz2    dxz  x2-y2    tot
    1  0.047  0.030  0.000  0.000  0.000  0.000  0.000  0.000  0.000  0.077
    2  0.047  0.030  0.000  0.000  0.000  0.000  0.000  0.000  0.000  0.077
tot    0.093  0.060  0.000  0.000  0.000  0.000  0.000  0.000  0.000  0.153
 
band     7 # energy   14.34728646 # occ.  0.00000000
 
ion      s     py     pz     px    dxy    dyz    dz2    dxz  x2-y2    tot
    1  0.000  0.000  0.084  0.082  0.000  0.000  0.000  0.000  0.000  0.166
    2  0.000  0.000  0.129  0.037  0.000  0.000  0.000  0.000  0.000  0.166
tot    0.000  0.000  0.212  0.120  0.000  0.000  0.000  0.000  0.000  0.332
 
band     8 # energy   14.34728654 # occ.  0.00000000
 
ion      s     py     pz     px    dxy    dyz    dz2    dxz  x2-y2    tot
    1  0.000  0.000  0.082  0.084  0.000  0.000  0.000  0.000  0.000  0.166
    2  0.000  0.000  0.037  0.129  0.000  0.000  0.000  0.000  0.000  0.166
tot    0.000  0.000  0.120  0.212  0.000  0.000  0.000  0.000  0.000  0.332
 
band     9 # energy   16.63862034 # occ.  0.00000000
 
ion      s     py     pz     px    dxy    dyz    dz2    dxz  x2-y2    tot
    1  0.000  0.000  0.000  0.000  0.000  0.000  0.000  0.000  0.000  0.000
    2  0.000  0.000  0.000  0.000  0.000  0.000  0.000  0.000  0.000  0.000
tot    0.000  0.000  0.000  0.000  0.000  0.000  0.000  0.000  0.000  0.000
 
band    10 # energy   17.08219650 # occ.  0.00000000
 
ion      s     py     pz     px    dxy    dyz    dz2    dxz  x2-y2    tot
    1  0.109  0.168  0.000  0.000  0.000  0.000  0.000  0.000  0.000  0.277
    2  0.109  0.168  0.000  0.000  0.000  0.000  0.000  0.000  0.000  0.277
tot    0.218  0.335  0.000  0.000  0.000  0.000  0.000  0.000  0.000  0.554
 
band    11 # energy   18.42658486 # occ.  0.00000000
 
ion      s     py     pz     px    dxy    dyz    dz2    dxz  x2-y2    tot
    1  0.000  0.000  0.021  0.054  0.000  0.000  0.000  0.000  0.000  0.075
    2  0.000  0.000  0.023  0.052  0.000  0.000  0.000  0.000  0.000  0.075
tot    0.000  0.000  0.044  0.105  0.000  0.000  0.000  0.000  0.000  0.150
 
band    12 # energy   22.74960473 # occ.  0.00000000
 
ion      s     py     pz     px    dxy    dyz    dz2    dxz  x2-y2    tot
    1  0.003  0.008  0.006  0.018  0.000  0.000  0.000  0.000  0.000  0.035
    2  0.009  0.000  0.002  0.021  0.000  0.000  0.000  0.000  0.000  0.033
tot    0.012  0.008  0.008  0.040  0.000  0.000  0.000  0.000  0.000  0.068
 

 k-point    66 :    0.41428571 0.00000000 0.41428571     weight = 0.00555556

band     1 # energy   -3.22619050 # occ.  2.00000000
 
ion      s     py     pz     px    dxy    dyz    dz2    dxz  x2-y2    tot
    1  0.199  0.032  0.000  0.000  0.000  0.000  0.000  0.000  0.000  0.231
    2  0.199  0.032  0.000  0.000  0.000  0.000  0.000  0.000  0.000  0.231
tot    0.399  0.063  0.000  0.000  0.000  0.000  0.000  0.000  0.000  0.462
 
band     2 # energy   -0.58751988 # occ.  2.00000000
 
ion      s     py     pz     px    dxy    dyz    dz2    dxz  x2-y2    tot
    1  0.185  0.062  0.000  0.000  0.000  0.000  0.000  0.000  0.000  0.247
    2  0.185  0.062  0.000  0.000  0.000  0.000  0.000  0.000  0.000  0.247
tot    0.371  0.123  0.000  0.000  0.000  0.000  0.000  0.000  0.000  0.494
 
band     3 # energy    3.09694946 # occ.  2.00000000
 
ion      s     py     pz     px    dxy    dyz    dz2    dxz  x2-y2    tot
    1  0.000  0.000  0.065  0.132  0.000  0.000  0.000  0.000  0.000  0.198
    2  0.000  0.000  0.129  0.068  0.000  0.000  0.000  0.000  0.000  0.198
tot    0.000  0.000  0.195  0.201  0.000  0.000  0.000  0.000  0.000  0.395
 
band     4 # energy    3.09694958 # occ.  2.00000000
 
ion      s     py     pz     px    dxy    dyz    dz2    dxz  x2-y2    tot
    1  0.000  0.000  0.132  0.065  0.000  0.000  0.000  0.000  0.000  0.198
    2  0.000  0.000  0.068  0.129  0.000  0.000  0.000  0.000  0.000  0.198
tot    0.000  0.000  0.201  0.195  0.000  0.000  0.000  0.000  0.000  0.395
 
band     5 # energy    6.40407080 # occ.  0.00000000
 
ion      s     py     pz     px    dxy    dyz    dz2    dxz  x2-y2    tot
    1  0.053  0.044  0.000  0.000  0.000  0.000  0.000  0.000  0.000  0.097
    2  0.053  0.044  0.000  0.000  0.000  0.000  0.000  0.000  0.000  0.097
tot    0.107  0.088  0.000  0.000  0.000  0.000  0.000  0.000  0.000  0.195
 
band     6 # energy    7.02576683 # occ.  0.00000000
 
ion      s     py     pz     px    dxy    dyz    dz2    dxz  x2-y2    tot
    1  0.047  0.030  0.000  0.000  0.000  0.000  0.000  0.000  0.000  0.078
    2  0.047  0.030  0.000  0.000  0.000  0.000  0.000  0.000  0.000  0.078
tot    0.095  0.061  0.000  0.000  0.000  0.000  0.000  0.000  0.000  0.155
 
band     7 # energy   14.61783381 # occ.  0.00000000
 
ion      s     py     pz     px    dxy    dyz    dz2    dxz  x2-y2    tot
    1  0.000  0.000  0.071  0.096  0.000  0.000  0.000  0.000  0.000  0.168
    2  0.000  0.000  0.115  0.053  0.000  0.000  0.000  0.000  0.000  0.168
tot    0.000  0.000  0.186  0.149  0.000  0.000  0.000  0.000  0.000  0.335
 
band     8 # energy   14.61783391 # occ.  0.00000000
 
ion      s     py     pz     px    dxy    dyz    dz2    dxz  x2-y2    tot
    1  0.000  0.000  0.096  0.071  0.000  0.000  0.000  0.000  0.000  0.168
    2  0.000  0.000  0.053  0.115  0.000  0.000  0.000  0.000  0.000  0.168
tot    0.000  0.000  0.149  0.186  0.000  0.000  0.000  0.000  0.000  0.335
 
band     9 # energy   16.86160479 # occ.  0.00000000
 
ion      s     py     pz     px    dxy    dyz    dz2    dxz  x2-y2    tot
    1  0.000  0.000  0.000  0.000  0.000  0.000  0.000  0.000  0.000  0.000
    2  0.000  0.000  0.000  0.000  0.000  0.000  0.000  0.000  0.000  0.000
tot    0.000  0.000  0.000  0.000  0.000  0.000  0.000  0.000  0.000  0.000
 
band    10 # energy   17.36820553 # occ.  0.00000000
 
ion      s     py     pz     px    dxy    dyz    dz2    dxz  x2-y2    tot
    1  0.103  0.174  0.000  0.000  0.000  0.000  0.000  0.000  0.000  0.277
    2  0.103  0.174  0.000  0.000  0.000  0.000  0.000  0.000  0.000  0.277
tot    0.206  0.348  0.000  0.000  0.000  0.000  0.000  0.000  0.000  0.553
 
band    11 # energy   18.16228089 # occ.  0.00000000
 
ion      s     py     pz     px    dxy    dyz    dz2    dxz  x2-y2    tot
    1  0.000  0.000  0.025  0.052  0.000  0.000  0.000  0.000  0.000  0.076
    2  0.000  0.000  0.017  0.060  0.000  0.000  0.000  0.000  0.000  0.076
tot    0.000  0.000  0.041  0.111  0.000  0.000  0.000  0.000  0.000  0.153
 
band    12 # energy   19.52778256 # occ.  0.00000000
 
ion      s     py     pz     px    dxy    dyz    dz2    dxz  x2-y2    tot
    1  0.006  0.180  0.007  0.005  0.000  0.000  0.000  0.000  0.000  0.198
    2  0.006  0.182  0.007  0.001  0.000  0.000  0.000  0.000  0.000  0.197
tot    0.013  0.362  0.014  0.006  0.000  0.000  0.000  0.000  0.000  0.395
 

 k-point    67 :    0.42857143 0.00000000 0.42857143     weight = 0.00555556

band     1 # energy   -3.03144937 # occ.  2.00000000
 
ion      s     py     pz     px    dxy    dyz    dz2    dxz  x2-y2    tot
    1  0.198  0.034  0.000  0.000  0.000  0.000  0.000  0.000  0.000  0.232
    2  0.198  0.034  0.000  0.000  0.000  0.000  0.000  0.000  0.000  0.232
tot    0.397  0.068  0.000  0.000  0.000  0.000  0.000  0.000  0.000  0.464
 
band     2 # energy   -0.82861312 # occ.  2.00000000
 
ion      s     py     pz     px    dxy    dyz    dz2    dxz  x2-y2    tot
    1  0.187  0.059  0.000  0.000  0.000  0.000  0.000  0.000  0.000  0.246
    2  0.187  0.059  0.000  0.000  0.000  0.000  0.000  0.000  0.000  0.246
tot    0.374  0.117  0.000  0.000  0.000  0.000  0.000  0.000  0.000  0.491
 
band     3 # energy    3.06162691 # occ.  2.00000000
 
ion      s     py     pz     px    dxy    dyz    dz2    dxz  x2-y2    tot
    1  0.000  0.000  0.130  0.068  0.000  0.000  0.000  0.000  0.000  0.198
    2  0.000  0.000  0.066  0.132  0.000  0.000  0.000  0.000  0.000  0.198
tot    0.000  0.000  0.195  0.200  0.000  0.000  0.000  0.000  0.000  0.395
 
band     4 # energy    3.06162699 # occ.  2.00000000
 
ion      s     py     pz     px    dxy    dyz    dz2    dxz  x2-y2    tot
    1  0.000  0.000  0.068  0.130  0.000  0.000  0.000  0.000  0.000  0.198
    2  0.000  0.000  0.132  0.066  0.000  0.000  0.000  0.000  0.000  0.198
tot    0.000  0.000  0.200  0.195  0.000  0.000  0.000  0.000  0.000  0.395
 
band     5 # energy    6.40435581 # occ.  0.00000000
 
ion      s     py     pz     px    dxy    dyz    dz2    dxz  x2-y2    tot
    1  0.053  0.042  0.000  0.000  0.000  0.000  0.000  0.000  0.000  0.096
    2  0.053  0.042  0.000  0.000  0.000  0.000  0.000  0.000  0.000  0.096
tot    0.107  0.085  0.000  0.000  0.000  0.000  0.000  0.000  0.000  0.191
 
band     6 # energy    6.91964572 # occ.  0.00000000
 
ion      s     py     pz     px    dxy    dyz    dz2    dxz  x2-y2    tot
    1  0.048  0.031  0.000  0.000  0.000  0.000  0.000  0.000  0.000  0.079
    2  0.048  0.031  0.000  0.000  0.000  0.000  0.000  0.000  0.000  0.079
tot    0.096  0.062  0.000  0.000  0.000  0.000  0.000  0.000  0.000  0.158
 
band     7 # energy   14.88763836 # occ.  0.00000000
 
ion      s     py     pz     px    dxy    dyz    dz2    dxz  x2-y2    tot
    1  0.000  0.000  0.050  0.121  0.000  0.000  0.000  0.000  0.000  0.170
    2  0.000  0.000  0.156  0.014  0.000  0.000  0.000  0.000  0.000  0.170
tot    0.000  0.000  0.206  0.135  0.000  0.000  0.000  0.000  0.000  0.341
 
band     8 # energy   14.88763942 # occ.  0.00000000
 
ion      s     py     pz     px    dxy    dyz    dz2    dxz  x2-y2    tot
    1  0.000  0.000  0.120  0.050  0.000  0.000  0.000  0.000  0.000  0.170
    2  0.000  0.000  0.014  0.156  0.000  0.000  0.000  0.000  0.000  0.170
tot    0.000  0.000  0.135  0.206  0.000  0.000  0.000  0.000  0.000  0.340
 
band     9 # energy   17.09252947 # occ.  0.00000000
 
ion      s     py     pz     px    dxy    dyz    dz2    dxz  x2-y2    tot
    1  0.000  0.000  0.000  0.000  0.000  0.000  0.000  0.000  0.000  0.000
    2  0.000  0.000  0.000  0.000  0.000  0.000  0.000  0.000  0.000  0.000
tot    0.000  0.000  0.000  0.000  0.000  0.000  0.000  0.000  0.000  0.000
 
band    10 # energy   17.64772814 # occ.  0.00000000
 
ion      s     py     pz     px    dxy    dyz    dz2    dxz  x2-y2    tot
    1  0.096  0.179  0.000  0.000  0.000  0.000  0.000  0.000  0.000  0.276
    2  0.096  0.180  0.000  0.000  0.000  0.000  0.000  0.000  0.000  0.276
tot    0.192  0.360  0.000  0.000  0.000  0.000  0.000  0.000  0.000  0.552
 
band    11 # energy   17.89256835 # occ.  0.00000000
 
ion      s     py     pz     px    dxy    dyz    dz2    dxz  x2-y2    tot
    1  0.000  0.000  0.069  0.007  0.000  0.000  0.000  0.000  0.000  0.076
    2  0.000  0.000  0.005  0.072  0.000  0.000  0.000  0.000  0.000  0.076
tot    0.000  0.000  0.074  0.078  0.000  0.000  0.000  0.000  0.000  0.153
 
band    12 # energy   23.90381094 # occ.  0.00000000
 
ion      s     py     pz     px    dxy    dyz    dz2    dxz  x2-y2    tot
    1  0.009  0.001  0.002  0.037  0.000  0.000  0.000  0.000  0.000  0.049
    2  0.009  0.000  0.000  0.040  0.000  0.000  0.000  0.000  0.000  0.050
tot    0.018  0.001  0.002  0.077  0.000  0.000  0.000  0.000  0.000  0.098
 

 k-point    68 :    0.44285714 0.00000000 0.44285714     weight = 0.00555556

band     1 # energy   -2.83151165 # occ.  2.00000000
 
ion      s     py     pz     px    dxy    dyz    dz2    dxz  x2-y2    tot
    1  0.197  0.036  0.000  0.000  0.000  0.000  0.000  0.000  0.000  0.233
    2  0.197  0.036  0.000  0.000  0.000  0.000  0.000  0.000  0.000  0.233
tot    0.395  0.072  0.000  0.000  0.000  0.000  0.000  0.000  0.000  0.467
 
band     2 # energy   -1.06664577 # occ.  2.00000000
 
ion      s     py     pz     px    dxy    dyz    dz2    dxz  x2-y2    tot
    1  0.188  0.056  0.000  0.000  0.000  0.000  0.000  0.000  0.000  0.244
    2  0.188  0.056  0.000  0.000  0.000  0.000  0.000  0.000  0.000  0.244
tot    0.377  0.112  0.000  0.000  0.000  0.000  0.000  0.000  0.000  0.488
 
band     3 # energy    3.03267401 # occ.  2.00000000
 
ion      s     py     pz     px    dxy    dyz    dz2    dxz  x2-y2    tot
    1  0.000  0.000  0.001  0.197  0.000  0.000  0.000  0.000  0.000  0.198
    2  0.000  0.000  0.194  0.003  0.000  0.000  0.000  0.000  0.000  0.198
tot    0.000  0.000  0.195  0.200  0.000  0.000  0.000  0.000  0.000  0.395
 
band     4 # energy    3.03267405 # occ.  2.00000000
 
ion      s     py     pz     px    dxy    dyz    dz2    dxz  x2-y2    tot
    1  0.000  0.000  0.197  0.001  0.000  0.000  0.000  0.000  0.000  0.198
    2  0.000  0.000  0.003  0.194  0.000  0.000  0.000  0.000  0.000  0.198
tot    0.000  0.000  0.200  0.195  0.000  0.000  0.000  0.000  0.000  0.395
 
band     5 # energy    6.41343076 # occ.  0.00000000
 
ion      s     py     pz     px    dxy    dyz    dz2    dxz  x2-y2    tot
    1  0.053  0.041  0.000  0.000  0.000  0.000  0.000  0.000  0.000  0.094
    2  0.053  0.041  0.000  0.000  0.000  0.000  0.000  0.000  0.000  0.094
tot    0.106  0.081  0.000  0.000  0.000  0.000  0.000  0.000  0.000  0.188
 
band     6 # energy    6.82374893 # occ.  0.00000000
 
ion      s     py     pz     px    dxy    dyz    dz2    dxz  x2-y2    tot
    1  0.049  0.031  0.000  0.000  0.000  0.000  0.000  0.000  0.000  0.080
    2  0.049  0.031  0.000  0.000  0.000  0.000  0.000  0.000  0.000  0.080
tot    0.098  0.063  0.000  0.000  0.000  0.000  0.000  0.000  0.000  0.161
 
band     7 # energy   15.15500270 # occ.  0.00000000
 
ion      s     py     pz     px    dxy    dyz    dz2    dxz  x2-y2    tot
    1  0.000  0.000  0.093  0.082  0.000  0.000  0.000  0.000  0.000  0.175
    2  0.000  0.000  0.127  0.048  0.000  0.000  0.000  0.000  0.000  0.175
tot    0.000  0.000  0.221  0.129  0.000  0.000  0.000  0.000  0.000  0.350
 
band     8 # energy   15.15500277 # occ.  0.00000000
 
ion      s     py     pz     px    dxy    dyz    dz2    dxz  x2-y2    tot
    1  0.000  0.000  0.082  0.093  0.000  0.000  0.000  0.000  0.000  0.175
    2  0.000  0.000  0.048  0.127  0.000  0.000  0.000  0.000  0.000  0.175
tot    0.000  0.000  0.129  0.221  0.000  0.000  0.000  0.000  0.000  0.350
 
band     9 # energy   17.33506030 # occ.  0.00000000
 
ion      s     py     pz     px    dxy    dyz    dz2    dxz  x2-y2    tot
    1  0.000  0.000  0.001  0.001  0.000  0.000  0.000  0.000  0.000  0.001
    2  0.000  0.000  0.001  0.000  0.000  0.000  0.000  0.000  0.000  0.001
tot    0.000  0.000  0.002  0.001  0.000  0.000  0.000  0.000  0.000  0.002
 
band    10 # energy   17.61877210 # occ.  0.00000000
 
ion      s     py     pz     px    dxy    dyz    dz2    dxz  x2-y2    tot
    1  0.000  0.000  0.033  0.040  0.000  0.000  0.000  0.000  0.000  0.073
    2  0.000  0.000  0.004  0.069  0.000  0.000  0.000  0.000  0.000  0.073
tot    0.000  0.000  0.038  0.109  0.000  0.000  0.000  0.000  0.000  0.146
 
band    11 # energy   17.91104321 # occ.  0.00000000
 
ion      s     py     pz     px    dxy    dyz    dz2    dxz  x2-y2    tot
    1  0.087  0.177  0.001  0.001  0.000  0.000  0.000  0.000  0.000  0.266
    2  0.086  0.185  0.002  0.000  0.000  0.000  0.000  0.000  0.000  0.272
tot    0.173  0.361  0.003  0.001  0.000  0.000  0.000  0.000  0.000  0.539
 
band    12 # energy   24.45399338 # occ.  0.00000000
 
ion      s     py     pz     px    dxy    dyz    dz2    dxz  x2-y2    tot
    1  0.025  0.002  0.010  0.029  0.000  0.000  0.000  0.000  0.000  0.066
    2  0.026  0.002  0.012  0.010  0.000  0.000  0.000  0.000  0.000  0.051
tot    0.052  0.004  0.022  0.039  0.000  0.000  0.000  0.000  0.000  0.116
 

 k-point    69 :    0.45714286 0.00000000 0.45714286     weight = 0.00555556

band     1 # energy   -2.62651900 # occ.  2.00000000
 
ion      s     py     pz     px    dxy    dyz    dz2    dxz  x2-y2    tot
    1  0.196  0.038  0.000  0.000  0.000  0.000  0.000  0.000  0.000  0.235
    2  0.196  0.038  0.000  0.000  0.000  0.000  0.000  0.000  0.000  0.235
tot    0.393  0.077  0.000  0.000  0.000  0.000  0.000  0.000  0.000  0.469
 
band     2 # energy   -1.30134954 # occ.  2.00000000
 
ion      s     py     pz     px    dxy    dyz    dz2    dxz  x2-y2    tot
    1  0.190  0.053  0.000  0.000  0.000  0.000  0.000  0.000  0.000  0.243
    2  0.190  0.053  0.000  0.000  0.000  0.000  0.000  0.000  0.000  0.243
tot    0.379  0.106  0.000  0.000  0.000  0.000  0.000  0.000  0.000  0.486
 
band     3 # energy    3.01012623 # occ.  2.00000000
 
ion      s     py     pz     px    dxy    dyz    dz2    dxz  x2-y2    tot
    1  0.000  0.000  0.126  0.072  0.000  0.000  0.000  0.000  0.000  0.198
    2  0.000  0.000  0.064  0.134  0.000  0.000  0.000  0.000  0.000  0.198
tot    0.000  0.000  0.190  0.206  0.000  0.000  0.000  0.000  0.000  0.395
 
band     4 # energy    3.01012630 # occ.  2.00000000
 
ion      s     py     pz     px    dxy    dyz    dz2    dxz  x2-y2    tot
    1  0.000  0.000  0.072  0.126  0.000  0.000  0.000  0.000  0.000  0.198
    2  0.000  0.000  0.134  0.064  0.000  0.000  0.000  0.000  0.000  0.198
tot    0.000  0.000  0.206  0.190  0.000  0.000  0.000  0.000  0.000  0.395
 
band     5 # energy    6.43133676 # occ.  0.00000000
 
ion      s     py     pz     px    dxy    dyz    dz2    dxz  x2-y2    tot
    1  0.053  0.039  0.000  0.000  0.000  0.000  0.000  0.000  0.000  0.092
    2  0.053  0.039  0.000  0.000  0.000  0.000  0.000  0.000  0.000  0.092
tot    0.106  0.078  0.000  0.000  0.000  0.000  0.000  0.000  0.000  0.184
 
band     6 # energy    6.73798898 # occ.  0.00000000
 
ion      s     py     pz     px    dxy    dyz    dz2    dxz  x2-y2    tot
    1  0.050  0.032  0.000  0.000  0.000  0.000  0.000  0.000  0.000  0.082
    2  0.050  0.032  0.000  0.000  0.000  0.000  0.000  0.000  0.000  0.082
tot    0.100  0.064  0.000  0.000  0.000  0.000  0.000  0.000  0.000  0.164
 
band     7 # energy   15.41589030 # occ.  0.00000000
 
ion      s     py     pz     px    dxy    dyz    dz2    dxz  x2-y2    tot
    1  0.000  0.000  0.088  0.095  0.000  0.000  0.000  0.000  0.000  0.183
    2  0.000  0.000  0.138  0.045  0.000  0.000  0.000  0.000  0.000  0.183
tot    0.000  0.000  0.226  0.140  0.000  0.000  0.000  0.000  0.000  0.366
 
band     8 # energy   15.41589099 # occ.  0.00000000
 
ion      s     py     pz     px    dxy    dyz    dz2    dxz  x2-y2    tot
    1  0.000  0.000  0.095  0.088  0.000  0.000  0.000  0.000  0.000  0.183
    2  0.000  0.000  0.045  0.138  0.000  0.000  0.000  0.000  0.000  0.183
tot    0.000  0.000  0.140  0.226  0.000  0.000  0.000  0.000  0.000  0.366
 
band     9 # energy   17.54001442 # occ.  0.00000000
 
ion      s     py     pz     px    dxy    dyz    dz2    dxz  x2-y2    tot
    1  0.000  0.000  0.008  0.003  0.000  0.000  0.000  0.000  0.000  0.011
    2  0.000  0.000  0.009  0.002  0.000  0.000  0.000  0.000  0.000  0.011
tot    0.000  0.000  0.017  0.005  0.000  0.000  0.000  0.000  0.000  0.022
 
band    10 # energy   18.13560481 # occ.  0.00000000
 
ion      s     py     pz     px    dxy    dyz    dz2    dxz  x2-y2    tot
    1  0.085  0.131  0.003  0.003  0.000  0.000  0.000  0.000  0.000  0.222
    2  0.063  0.222  0.000  0.005  0.000  0.000  0.000  0.000  0.000  0.291
tot    0.149  0.354  0.003  0.008  0.000  0.000  0.000  0.000  0.000  0.513
 
band    11 # energy   24.82529621 # occ.  0.00000000
 
ion      s     py     pz     px    dxy    dyz    dz2    dxz  x2-y2    tot
    1  0.007  0.002  0.005  0.027  0.000  0.000  0.000  0.000  0.000  0.042
    2  0.010  0.002  0.000  0.050  0.000  0.000  0.000  0.000  0.000  0.061
tot    0.016  0.004  0.005  0.077  0.000  0.000  0.000  0.000  0.000  0.103
 
band    12 # energy   26.98079702 # occ.  0.00000000
 
ion      s     py     pz     px    dxy    dyz    dz2    dxz  x2-y2    tot
    1  0.097  0.003  0.012  0.000  0.000  0.000  0.000  0.000  0.000  0.112
    2  0.012  0.019  0.006  0.002  0.000  0.000  0.000  0.000  0.000  0.038
tot    0.108  0.022  0.018  0.002  0.000  0.000  0.000  0.000  0.000  0.151
 

 k-point    70 :    0.47142857 0.00000000 0.47142857     weight = 0.00555556

band     1 # energy   -2.41665522 # occ.  2.00000000
 
ion      s     py     pz     px    dxy    dyz    dz2    dxz  x2-y2    tot
    1  0.195  0.041  0.000  0.000  0.000  0.000  0.000  0.000  0.000  0.236
    2  0.195  0.041  0.000  0.000  0.000  0.000  0.000  0.000  0.000  0.236
tot    0.391  0.081  0.000  0.000  0.000  0.000  0.000  0.000  0.000  0.472
 
band     2 # energy   -1.53247998 # occ.  2.00000000
 
ion      s     py     pz     px    dxy    dyz    dz2    dxz  x2-y2    tot
    1  0.191  0.051  0.000  0.000  0.000  0.000  0.000  0.000  0.000  0.241
    2  0.191  0.051  0.000  0.000  0.000  0.000  0.000  0.000  0.000  0.242
tot    0.382  0.101  0.000  0.000  0.000  0.000  0.000  0.000  0.000  0.483
 
band     3 # energy    2.99401412 # occ.  2.00000000
 
ion      s     py     pz     px    dxy    dyz    dz2    dxz  x2-y2    tot
    1  0.000  0.000  0.004  0.194  0.000  0.000  0.000  0.000  0.000  0.198
    2  0.000  0.000  0.194  0.004  0.000  0.000  0.000  0.000  0.000  0.198
tot    0.000  0.000  0.197  0.198  0.000  0.000  0.000  0.000  0.000  0.395
 
band     4 # energy    2.99401423 # occ.  2.00000000
 
ion      s     py     pz     px    dxy    dyz    dz2    dxz  x2-y2    tot
    1  0.000  0.000  0.194  0.004  0.000  0.000  0.000  0.000  0.000  0.198
    2  0.000  0.000  0.004  0.194  0.000  0.000  0.000  0.000  0.000  0.198
tot    0.000  0.000  0.198  0.197  0.000  0.000  0.000  0.000  0.000  0.395
 
band     5 # energy    6.45856400 # occ.  0.00000000
 
ion      s     py     pz     px    dxy    dyz    dz2    dxz  x2-y2    tot
    1  0.053  0.037  0.000  0.000  0.000  0.000  0.000  0.000  0.000  0.090
    2  0.053  0.037  0.000  0.000  0.000  0.000  0.000  0.000  0.000  0.090
tot    0.105  0.075  0.000  0.000  0.000  0.000  0.000  0.000  0.000  0.180
 
band     6 # energy    6.66247908 # occ.  0.00000000
 
ion      s     py     pz     px    dxy    dyz    dz2    dxz  x2-y2    tot
    1  0.050  0.033  0.000  0.000  0.000  0.000  0.000  0.000  0.000  0.083
    2  0.050  0.033  0.000  0.000  0.000  0.000  0.000  0.000  0.000  0.083
tot    0.101  0.066  0.000  0.000  0.000  0.000  0.000  0.000  0.000  0.167
 
band     7 # energy   15.66072684 # occ.  0.00000000
 
ion      s     py     pz     px    dxy    dyz    dz2    dxz  x2-y2    tot
    1  0.000  0.000  0.075  0.123  0.000  0.000  0.000  0.000  0.000  0.198
    2  0.000  0.000  0.134  0.064  0.000  0.000  0.000  0.000  0.000  0.198
tot    0.000  0.000  0.209  0.187  0.000  0.000  0.000  0.000  0.000  0.396
 
band     8 # energy   15.66072763 # occ.  0.00000000
 
ion      s     py     pz     px    dxy    dyz    dz2    dxz  x2-y2    tot
    1  0.000  0.000  0.123  0.075  0.000  0.000  0.000  0.000  0.000  0.198
    2  0.000  0.000  0.063  0.134  0.000  0.000  0.000  0.000  0.000  0.198
tot    0.000  0.000  0.186  0.209  0.000  0.000  0.000  0.000  0.000  0.396
 
band     9 # energy   17.76322655 # occ.  0.00000000
 
ion      s     py     pz     px    dxy    dyz    dz2    dxz  x2-y2    tot
    1  0.001  0.001  0.005  0.001  0.000  0.000  0.000  0.000  0.000  0.008
    2  0.000  0.003  0.005  0.001  0.000  0.000  0.000  0.000  0.000  0.010
tot    0.001  0.004  0.011  0.002  0.000  0.000  0.000  0.000  0.000  0.018
 
band    10 # energy   18.46275721 # occ.  0.00000000
 
ion      s     py     pz     px    dxy    dyz    dz2    dxz  x2-y2    tot
    1  0.056  0.208  0.000  0.001  0.000  0.000  0.000  0.000  0.000  0.264
    2  0.074  0.141  0.001  0.000  0.000  0.000  0.000  0.000  0.000  0.215
tot    0.129  0.348  0.001  0.001  0.000  0.000  0.000  0.000  0.000  0.480
 
band    11 # energy   24.44377678 # occ.  0.00000000
 
ion      s     py     pz     px    dxy    dyz    dz2    dxz  x2-y2    tot
    1  0.004  0.001  0.013  0.011  0.000  0.000  0.000  0.000  0.000  0.029
    2  0.000  0.006  0.010  0.004  0.000  0.000  0.000  0.000  0.000  0.020
tot    0.005  0.007  0.023  0.015  0.000  0.000  0.000  0.000  0.000  0.049
 
band    12 # energy   25.49502975 # occ.  0.00000000
 
ion      s     py     pz     px    dxy    dyz    dz2    dxz  x2-y2    tot
    1  0.013  0.003  0.016  0.025  0.000  0.000  0.000  0.000  0.000  0.057
    2  0.030  0.001  0.012  0.022  0.000  0.000  0.000  0.000  0.000  0.064
tot    0.043  0.003  0.028  0.047  0.000  0.000  0.000  0.000  0.000  0.122
 

 k-point    71 :    0.48571429 0.00000000 0.48571429     weight = 0.00555556

band     1 # energy   -2.20211146 # occ.  2.00000000
 
ion      s     py     pz     px    dxy    dyz    dz2    dxz  x2-y2    tot
    1  0.194  0.043  0.000  0.000  0.000  0.000  0.000  0.000  0.000  0.237
    2  0.194  0.043  0.000  0.000  0.000  0.000  0.000  0.000  0.000  0.237
tot    0.389  0.086  0.000  0.000  0.000  0.000  0.000  0.000  0.000  0.475
 
band     2 # energy   -1.75979691 # occ.  2.00000000
 
ion      s     py     pz     px    dxy    dyz    dz2    dxz  x2-y2    tot
    1  0.192  0.048  0.000  0.000  0.000  0.000  0.000  0.000  0.000  0.240
    2  0.192  0.048  0.000  0.000  0.000  0.000  0.000  0.000  0.000  0.240
tot    0.384  0.096  0.000  0.000  0.000  0.000  0.000  0.000  0.000  0.480
 
band     3 # energy    2.98434178 # occ.  2.00000000
 
ion      s     py     pz     px    dxy    dyz    dz2    dxz  x2-y2    tot
    1  0.000  0.000  0.009  0.188  0.000  0.000  0.000  0.000  0.000  0.198
    2  0.000  0.000  0.188  0.009  0.000  0.000  0.000  0.000  0.000  0.198
tot    0.000  0.000  0.197  0.198  0.000  0.000  0.000  0.000  0.000  0.395
 
band     4 # energy    2.98434198 # occ.  2.00000000
 
ion      s     py     pz     px    dxy    dyz    dz2    dxz  x2-y2    tot
    1  0.000  0.000  0.188  0.009  0.000  0.000  0.000  0.000  0.000  0.198
    2  0.000  0.000  0.009  0.188  0.000  0.000  0.000  0.000  0.000  0.198
tot    0.000  0.000  0.198  0.197  0.000  0.000  0.000  0.000  0.000  0.395
 
band     5 # energy    6.49512925 # occ.  0.00000000
 
ion      s     py     pz     px    dxy    dyz    dz2    dxz  x2-y2    tot
    1  0.052  0.036  0.000  0.000  0.000  0.000  0.000  0.000  0.000  0.088
    2  0.052  0.036  0.000  0.000  0.000  0.000  0.000  0.000  0.000  0.088
tot    0.105  0.072  0.000  0.000  0.000  0.000  0.000  0.000  0.000  0.177
 
band     6 # energy    6.59692949 # occ.  0.00000000
 
ion      s     py     pz     px    dxy    dyz    dz2    dxz  x2-y2    tot
    1  0.051  0.034  0.000  0.000  0.000  0.000  0.000  0.000  0.000  0.085
    2  0.051  0.034  0.000  0.000  0.000  0.000  0.000  0.000  0.000  0.085
tot    0.102  0.068  0.000  0.000  0.000  0.000  0.000  0.000  0.000  0.170
 
band     7 # energy   15.86245975 # occ.  0.00000000
 
ion      s     py     pz     px    dxy    dyz    dz2    dxz  x2-y2    tot
    1  0.000  0.000  0.130  0.092  0.000  0.000  0.000  0.000  0.000  0.221
    2  0.000  0.000  0.121  0.100  0.000  0.000  0.000  0.000  0.000  0.221
tot    0.000  0.000  0.251  0.192  0.000  0.000  0.000  0.000  0.000  0.442
 
band     8 # energy   15.86255901 # occ.  0.00000000
 
ion      s     py     pz     px    dxy    dyz    dz2    dxz  x2-y2    tot
    1  0.000  0.000  0.091  0.130  0.000  0.000  0.000  0.000  0.000  0.221
    2  0.000  0.000  0.099  0.121  0.000  0.000  0.000  0.000  0.000  0.220
tot    0.000  0.000  0.190  0.251  0.000  0.000  0.000  0.000  0.000  0.441
 
band     9 # energy   18.03314915 # occ.  0.00000000
 
ion      s     py     pz     px    dxy    dyz    dz2    dxz  x2-y2    tot
    1  0.000  0.001  0.000  0.001  0.000  0.000  0.000  0.000  0.000  0.002
    2  0.000  0.001  0.000  0.001  0.000  0.000  0.000  0.000  0.000  0.003
tot    0.001  0.002  0.000  0.002  0.000  0.000  0.000  0.000  0.000  0.005
 
band    10 # energy   18.63186789 # occ.  0.00000000
 
ion      s     py     pz     px    dxy    dyz    dz2    dxz  x2-y2    tot
    1  0.076  0.150  0.000  0.001  0.000  0.000  0.000  0.000  0.000  0.227
    2  0.050  0.238  0.000  0.000  0.000  0.000  0.000  0.000  0.000  0.289
tot    0.127  0.388  0.000  0.001  0.000  0.000  0.000  0.000  0.000  0.516
 
band    11 # energy   19.02300144 # occ.  0.00000000
 
ion      s     py     pz     px    dxy    dyz    dz2    dxz  x2-y2    tot
    1  0.026  0.253  0.000  0.000  0.000  0.000  0.000  0.000  0.000  0.279
    2  0.061  0.126  0.000  0.000  0.000  0.000  0.000  0.000  0.000  0.187
tot    0.087  0.379  0.001  0.000  0.000  0.000  0.000  0.000  0.000  0.466
 
band    12 # energy   25.53186504 # occ.  0.00000000
 
ion      s     py     pz     px    dxy    dyz    dz2    dxz  x2-y2    tot
    1  0.005  0.002  0.000  0.001  0.000  0.000  0.000  0.000  0.000  0.008
    2  0.006  0.004  0.007  0.039  0.000  0.000  0.000  0.000  0.000  0.056
tot    0.011  0.006  0.007  0.041  0.000  0.000  0.000  0.000  0.000  0.064
 

 k-point    72 :    0.50000000 0.00000000 0.50000000     weight = 0.00555556

band     1 # energy   -1.98308806 # occ.  2.00000000
 
ion      s     py     pz     px    dxy    dyz    dz2    dxz  x2-y2    tot
    1  0.224  0.038  0.000  0.000  0.000  0.000  0.000  0.000  0.000  0.262
    2  0.162  0.053  0.000  0.000  0.000  0.000  0.000  0.000  0.000  0.215
tot    0.387  0.091  0.000  0.000  0.000  0.000  0.000  0.000  0.000  0.477
 
band     2 # energy   -1.98308799 # occ.  2.00000000
 
ion      s     py     pz     px    dxy    dyz    dz2    dxz  x2-y2    tot
    1  0.162  0.053  0.000  0.000  0.000  0.000  0.000  0.000  0.000  0.215
    2  0.224  0.038  0.000  0.000  0.000  0.000  0.000  0.000  0.000  0.262
tot    0.387  0.091  0.000  0.000  0.000  0.000  0.000  0.000  0.000  0.478
 
band     3 # energy    2.98111694 # occ.  2.00000000
 
ion      s     py     pz     px    dxy    dyz    dz2    dxz  x2-y2    tot
    1  0.000  0.000  0.000  0.197  0.000  0.000  0.000  0.000  0.000  0.198
    2  0.000  0.000  0.197  0.000  0.000  0.000  0.000  0.000  0.000  0.198
tot    0.000  0.000  0.198  0.198  0.000  0.000  0.000  0.000  0.000  0.395
 
band     4 # energy    2.98111714 # occ.  2.00000000
 
ion      s     py     pz     px    dxy    dyz    dz2    dxz  x2-y2    tot
    1  0.000  0.000  0.197  0.000  0.000  0.000  0.000  0.000  0.000  0.198
    2  0.000  0.000  0.000  0.197  0.000  0.000  0.000  0.000  0.000  0.198
tot    0.000  0.000  0.198  0.198  0.000  0.000  0.000  0.000  0.000  0.395
 
band     5 # energy    6.54119723 # occ.  0.00000000
 
ion      s     py     pz     px    dxy    dyz    dz2    dxz  x2-y2    tot
    1  0.091  0.008  0.000  0.000  0.000  0.000  0.000  0.000  0.000  0.100
    2  0.012  0.062  0.000  0.000  0.000  0.000  0.000  0.000  0.000  0.074
tot    0.104  0.070  0.000  0.000  0.000  0.000  0.000  0.000  0.000  0.173
 
band     6 # energy    6.54119839 # occ.  0.00000000
 
ion      s     py     pz     px    dxy    dyz    dz2    dxz  x2-y2    tot
    1  0.012  0.062  0.000  0.000  0.000  0.000  0.000  0.000  0.000  0.074
    2  0.091  0.008  0.000  0.000  0.000  0.000  0.000  0.000  0.000  0.100
tot    0.104  0.070  0.000  0.000  0.000  0.000  0.000  0.000  0.000  0.173
 
band     7 # energy   15.95078051 # occ.  0.00000000
 
ion      s     py     pz     px    dxy    dyz    dz2    dxz  x2-y2    tot
    1  0.000  0.000  0.193  0.047  0.000  0.000  0.000  0.000  0.000  0.240
    2  0.000  0.000  0.047  0.193  0.000  0.000  0.000  0.000  0.000  0.240
tot    0.000  0.000  0.240  0.240  0.000  0.000  0.000  0.000  0.000  0.480
 
band     8 # energy   15.95143012 # occ.  0.00000000
 
ion      s     py     pz     px    dxy    dyz    dz2    dxz  x2-y2    tot
    1  0.000  0.000  0.046  0.193  0.000  0.000  0.000  0.000  0.000  0.239
    2  0.000  0.000  0.192  0.048  0.000  0.000  0.000  0.000  0.000  0.240
tot    0.000  0.000  0.238  0.241  0.000  0.000  0.000  0.000  0.000  0.479
 
band     9 # energy   16.80785139 # occ.  0.00000000
 
ion      s     py     pz     px    dxy    dyz    dz2    dxz  x2-y2    tot
    1  0.000  0.000  0.002  0.009  0.000  0.000  0.000  0.000  0.000  0.011
    2  0.000  0.000  0.009  0.002  0.000  0.000  0.000  0.000  0.000  0.011
tot    0.000  0.000  0.011  0.011  0.000  0.000  0.000  0.000  0.000  0.023
 
band    10 # energy   18.77914070 # occ.  0.00000000
 
ion      s     py     pz     px    dxy    dyz    dz2    dxz  x2-y2    tot
    1  0.059  0.135  0.000  0.000  0.000  0.000  0.000  0.000  0.000  0.194
    2  0.038  0.211  0.000  0.000  0.000  0.000  0.000  0.000  0.000  0.249
tot    0.097  0.346  0.000  0.000  0.000  0.000  0.000  0.000  0.000  0.443
 
band    11 # energy   25.69598545 # occ.  0.00000000
 
ion      s     py     pz     px    dxy    dyz    dz2    dxz  x2-y2    tot
    1  0.009  0.012  0.003  0.009  0.000  0.000  0.000  0.000  0.000  0.032
    2  0.007  0.000  0.035  0.014  0.000  0.000  0.000  0.000  0.000  0.057
tot    0.016  0.012  0.037  0.023  0.000  0.000  0.000  0.000  0.000  0.088
 
band    12 # energy   26.87341354 # occ.  0.00000000
 
ion      s     py     pz     px    dxy    dyz    dz2    dxz  x2-y2    tot
    1  0.071  0.002  0.007  0.006  0.000  0.000  0.000  0.000  0.000  0.086
    2  0.022  0.030  0.005  0.002  0.000  0.000  0.000  0.000  0.000  0.058
tot    0.093  0.032  0.012  0.008  0.000  0.000  0.000  0.000  0.000  0.144
 

 k-point    73 :    0.50000000 0.00000000 0.50000000     weight = 0.00555556

band     1 # energy   -1.98308804 # occ.  2.00000000
 
ion      s     py     pz     px    dxy    dyz    dz2    dxz  x2-y2    tot
    1  0.341  0.011  0.000  0.000  0.000  0.000  0.000  0.000  0.000  0.351
    2  0.046  0.080  0.000  0.000  0.000  0.000  0.000  0.000  0.000  0.126
tot    0.387  0.091  0.000  0.000  0.000  0.000  0.000  0.000  0.000  0.477
 
band     2 # energy   -1.98308799 # occ.  2.00000000
 
ion      s     py     pz     px    dxy    dyz    dz2    dxz  x2-y2    tot
    1  0.046  0.080  0.000  0.000  0.000  0.000  0.000  0.000  0.000  0.126
    2  0.341  0.011  0.000  0.000  0.000  0.000  0.000  0.000  0.000  0.351
tot    0.387  0.091  0.000  0.000  0.000  0.000  0.000  0.000  0.000  0.478
 
band     3 # energy    2.98111687 # occ.  2.00000000
 
ion      s     py     pz     px    dxy    dyz    dz2    dxz  x2-y2    tot
    1  0.000  0.000  0.106  0.092  0.000  0.000  0.000  0.000  0.000  0.198
    2  0.000  0.000  0.092  0.106  0.000  0.000  0.000  0.000  0.000  0.198
tot    0.000  0.000  0.198  0.198  0.000  0.000  0.000  0.000  0.000  0.395
 
band     4 # energy    2.98111696 # occ.  2.00000000
 
ion      s     py     pz     px    dxy    dyz    dz2    dxz  x2-y2    tot
    1  0.000  0.000  0.092  0.106  0.000  0.000  0.000  0.000  0.000  0.198
    2  0.000  0.000  0.106  0.092  0.000  0.000  0.000  0.000  0.000  0.198
tot    0.000  0.000  0.198  0.198  0.000  0.000  0.000  0.000  0.000  0.395
 
band     5 # energy    6.54119723 # occ.  0.00000000
 
ion      s     py     pz     px    dxy    dyz    dz2    dxz  x2-y2    tot
    1  0.059  0.030  0.000  0.000  0.000  0.000  0.000  0.000  0.000  0.089
    2  0.044  0.040  0.000  0.000  0.000  0.000  0.000  0.000  0.000  0.084
tot    0.104  0.070  0.000  0.000  0.000  0.000  0.000  0.000  0.000  0.173
 
band     6 # energy    6.54119730 # occ.  0.00000000
 
ion      s     py     pz     px    dxy    dyz    dz2    dxz  x2-y2    tot
    1  0.044  0.040  0.000  0.000  0.000  0.000  0.000  0.000  0.000  0.084
    2  0.059  0.030  0.000  0.000  0.000  0.000  0.000  0.000  0.000  0.089
tot    0.104  0.070  0.000  0.000  0.000  0.000  0.000  0.000  0.000  0.173
 
band     7 # energy   15.95077984 # occ.  0.00000000
 
ion      s     py     pz     px    dxy    dyz    dz2    dxz  x2-y2    tot
    1  0.000  0.000  0.070  0.170  0.000  0.000  0.000  0.000  0.000  0.240
    2  0.000  0.000  0.170  0.070  0.000  0.000  0.000  0.000  0.000  0.240
tot    0.000  0.000  0.240  0.240  0.000  0.000  0.000  0.000  0.000  0.480
 
band     8 # energy   15.95078164 # occ.  0.00000000
 
ion      s     py     pz     px    dxy    dyz    dz2    dxz  x2-y2    tot
    1  0.000  0.000  0.170  0.070  0.000  0.000  0.000  0.000  0.000  0.240
    2  0.000  0.000  0.070  0.170  0.000  0.000  0.000  0.000  0.000  0.240
tot    0.000  0.000  0.240  0.240  0.000  0.000  0.000  0.000  0.000  0.480
 
band     9 # energy   16.80777983 # occ.  0.00000000
 
ion      s     py     pz     px    dxy    dyz    dz2    dxz  x2-y2    tot
    1  0.000  0.000  0.005  0.006  0.000  0.000  0.000  0.000  0.000  0.011
    2  0.000  0.000  0.006  0.005  0.000  0.000  0.000  0.000  0.000  0.011
tot    0.000  0.000  0.011  0.011  0.000  0.000  0.000  0.000  0.000  0.023
 
band    10 # energy   16.80777761 # occ.  0.00000000
 
ion      s     py     pz     px    dxy    dyz    dz2    dxz  x2-y2    tot
    1  0.000  0.000  0.006  0.005  0.000  0.000  0.000  0.000  0.000  0.011
    2  0.000  0.000  0.005  0.006  0.000  0.000  0.000  0.000  0.000  0.011
tot    0.000  0.000  0.011  0.011  0.000  0.000  0.000  0.000  0.000  0.023
 
band    11 # energy   18.84772674 # occ.  0.00000000
 
ion      s     py     pz     px    dxy    dyz    dz2    dxz  x2-y2    tot
    1  0.075  0.109  0.000  0.000  0.000  0.000  0.000  0.000  0.000  0.184
    2  0.030  0.271  0.000  0.000  0.000  0.000  0.000  0.000  0.000  0.301
tot    0.105  0.380  0.000  0.000  0.000  0.000  0.000  0.000  0.000  0.485
 
band    12 # energy   25.73467526 # occ.  0.00000000
 
ion      s     py     pz     px    dxy    dyz    dz2    dxz  x2-y2    tot
    1  0.025  0.004  0.002  0.011  0.000  0.000  0.000  0.000  0.000  0.041
    2  0.012  0.008  0.007  0.021  0.000  0.000  0.000  0.000  0.000  0.048
tot    0.037  0.012  0.009  0.031  0.000  0.000  0.000  0.000  0.000  0.090
 

 k-point    74 :    0.50000000 0.00714286 0.50714286     weight = 0.00555556

band     1 # energy   -1.98278727 # occ.  2.00000000
 
ion      s     py     pz     px    dxy    dyz    dz2    dxz  x2-y2    tot
    1  0.229  0.037  0.000  0.000  0.000  0.000  0.000  0.000  0.000  0.266
    2  0.158  0.054  0.000  0.000  0.000  0.000  0.000  0.000  0.000  0.212
tot    0.387  0.091  0.000  0.000  0.000  0.000  0.000  0.000  0.000  0.478
 
band     2 # energy   -1.98278722 # occ.  2.00000000
 
ion      s     py     pz     px    dxy    dyz    dz2    dxz  x2-y2    tot
    1  0.158  0.054  0.000  0.000  0.000  0.000  0.000  0.000  0.000  0.212
    2  0.229  0.037  0.000  0.000  0.000  0.000  0.000  0.000  0.000  0.266
tot    0.387  0.091  0.000  0.000  0.000  0.000  0.000  0.000  0.000  0.478
 
band     3 # energy    2.97836771 # occ.  2.00000000
 
ion      s     py     pz     px    dxy    dyz    dz2    dxz  x2-y2    tot
    1  0.000  0.000  0.033  0.164  0.000  0.000  0.000  0.000  0.000  0.197
    2  0.000  0.000  0.164  0.033  0.000  0.000  0.000  0.000  0.000  0.197
tot    0.000  0.000  0.197  0.197  0.000  0.000  0.000  0.000  0.000  0.395
 
band     4 # energy    2.97836784 # occ.  2.00000000
 
ion      s     py     pz     px    dxy    dyz    dz2    dxz  x2-y2    tot
    1  0.000  0.000  0.164  0.033  0.000  0.000  0.000  0.000  0.000  0.197
    2  0.000  0.000  0.033  0.164  0.000  0.000  0.000  0.000  0.000  0.197
tot    0.000  0.000  0.197  0.197  0.000  0.000  0.000  0.000  0.000  0.395
 
band     5 # energy    6.54619352 # occ.  0.00000000
 
ion      s     py     pz     px    dxy    dyz    dz2    dxz  x2-y2    tot
    1  0.074  0.020  0.000  0.000  0.000  0.000  0.000  0.000  0.000  0.094
    2  0.030  0.050  0.000  0.000  0.000  0.000  0.000  0.000  0.000  0.080
tot    0.103  0.070  0.000  0.000  0.000  0.000  0.000  0.000  0.000  0.174
 
band     6 # energy    6.54619407 # occ.  0.00000000
 
ion      s     py     pz     px    dxy    dyz    dz2    dxz  x2-y2    tot
    1  0.030  0.050  0.000  0.000  0.000  0.000  0.000  0.000  0.000  0.080
    2  0.074  0.020  0.000  0.000  0.000  0.000  0.000  0.000  0.000  0.094
tot    0.103  0.070  0.000  0.000  0.000  0.000  0.000  0.000  0.000  0.174
 
band     7 # energy   15.94280107 # occ.  0.00000000
 
ion      s     py     pz     px    dxy    dyz    dz2    dxz  x2-y2    tot
    1  0.000  0.000  0.116  0.123  0.000  0.000  0.000  0.000  0.000  0.239
    2  0.000  0.000  0.122  0.117  0.000  0.000  0.000  0.000  0.000  0.239
tot    0.000  0.000  0.238  0.240  0.000  0.000  0.000  0.000  0.000  0.479
 
band     8 # energy   15.94381896 # occ.  0.00000000
 
ion      s     py     pz     px    dxy    dyz    dz2    dxz  x2-y2    tot
    1  0.000  0.000  0.120  0.118  0.000  0.000  0.000  0.000  0.000  0.239
    2  0.000  0.000  0.115  0.124  0.000  0.000  0.000  0.000  0.000  0.239
tot    0.000  0.000  0.235  0.242  0.000  0.000  0.000  0.000  0.000  0.478
 
band     9 # energy   16.79502406 # occ.  0.00000000
 
ion      s     py     pz     px    dxy    dyz    dz2    dxz  x2-y2    tot
    1  0.000  0.001  0.005  0.006  0.000  0.000  0.000  0.000  0.000  0.012
    2  0.000  0.001  0.008  0.003  0.000  0.000  0.000  0.000  0.000  0.013
tot    0.000  0.002  0.013  0.010  0.000  0.000  0.000  0.000  0.000  0.025
 
band    10 # energy   18.36365994 # occ.  0.00000000
 
ion      s     py     pz     px    dxy    dyz    dz2    dxz  x2-y2    tot
    1  0.001  0.013  0.000  0.001  0.000  0.000  0.000  0.000  0.000  0.015
    2  0.004  0.003  0.000  0.001  0.000  0.000  0.000  0.000  0.000  0.008
tot    0.005  0.017  0.000  0.001  0.000  0.000  0.000  0.000  0.000  0.022
 
band    11 # energy   18.88673086 # occ.  0.00000000
 
ion      s     py     pz     px    dxy    dyz    dz2    dxz  x2-y2    tot
    1  0.071  0.148  0.000  0.000  0.000  0.000  0.000  0.000  0.000  0.219
    2  0.041  0.255  0.000  0.000  0.000  0.000  0.000  0.000  0.000  0.297
tot    0.112  0.404  0.000  0.001  0.000  0.000  0.000  0.000  0.000  0.516
 
band    12 # energy   25.53717914 # occ.  0.00000000
 
ion      s     py     pz     px    dxy    dyz    dz2    dxz  x2-y2    tot
    1  0.007  0.001  0.002  0.005  0.000  0.000  0.000  0.000  0.000  0.016
    2  0.000  0.007  0.015  0.030  0.000  0.000  0.000  0.000  0.000  0.051
tot    0.007  0.008  0.017  0.035  0.000  0.000  0.000  0.000  0.000  0.067
 

 k-point    75 :    0.50000000 0.01428571 0.51428571     weight = 0.00555556

band     1 # energy   -1.98188682 # occ.  2.00000000
 
ion      s     py     pz     px    dxy    dyz    dz2    dxz  x2-y2    tot
    1  0.237  0.035  0.000  0.000  0.000  0.000  0.000  0.000  0.000  0.272
    2  0.149  0.056  0.000  0.000  0.000  0.000  0.000  0.000  0.000  0.205
tot    0.387  0.091  0.000  0.000  0.000  0.000  0.000  0.000  0.000  0.478
 
band     2 # energy   -1.98188677 # occ.  2.00000000
 
ion      s     py     pz     px    dxy    dyz    dz2    dxz  x2-y2    tot
    1  0.149  0.056  0.000  0.000  0.000  0.000  0.000  0.000  0.000  0.205
    2  0.237  0.035  0.000  0.000  0.000  0.000  0.000  0.000  0.000  0.272
tot    0.387  0.091  0.000  0.000  0.000  0.000  0.000  0.000  0.000  0.478
 
band     3 # energy    2.97017599 # occ.  2.00000000
 
ion      s     py     pz     px    dxy    dyz    dz2    dxz  x2-y2    tot
    1  0.000  0.001  0.158  0.038  0.000  0.000  0.000  0.000  0.000  0.197
    2  0.000  0.000  0.038  0.158  0.000  0.000  0.000  0.000  0.000  0.197
tot    0.000  0.001  0.197  0.197  0.000  0.000  0.000  0.000  0.000  0.394
 
band     4 # energy    2.97017623 # occ.  2.00000000
 
ion      s     py     pz     px    dxy    dyz    dz2    dxz  x2-y2    tot
    1  0.000  0.000  0.038  0.158  0.000  0.000  0.000  0.000  0.000  0.197
    2  0.000  0.001  0.158  0.038  0.000  0.000  0.000  0.000  0.000  0.197
tot    0.000  0.001  0.197  0.197  0.000  0.000  0.000  0.000  0.000  0.394
 
band     5 # energy    6.56112780 # occ.  0.00000000
 
ion      s     py     pz     px    dxy    dyz    dz2    dxz  x2-y2    tot
    1  0.018  0.057  0.001  0.000  0.000  0.000  0.000  0.000  0.000  0.076
    2  0.085  0.012  0.000  0.001  0.000  0.000  0.000  0.000  0.000  0.098
tot    0.103  0.069  0.001  0.001  0.000  0.000  0.000  0.000  0.000  0.174
 
band     6 # energy    6.56112938 # occ.  0.00000000
 
ion      s     py     pz     px    dxy    dyz    dz2    dxz  x2-y2    tot
    1  0.085  0.012  0.000  0.001  0.000  0.000  0.000  0.000  0.000  0.098
    2  0.018  0.057  0.001  0.000  0.000  0.000  0.000  0.000  0.000  0.076
tot    0.103  0.069  0.001  0.001  0.000  0.000  0.000  0.000  0.000  0.174
 
band     7 # energy   15.91821061 # occ.  0.00000000
 
ion      s     py     pz     px    dxy    dyz    dz2    dxz  x2-y2    tot
    1  0.001  0.000  0.083  0.155  0.000  0.000  0.000  0.000  0.000  0.238
    2  0.000  0.001  0.149  0.086  0.000  0.000  0.000  0.000  0.000  0.236
tot    0.001  0.001  0.232  0.240  0.000  0.000  0.000  0.000  0.000  0.475
 
band     8 # energy   15.92051552 # occ.  0.00000000
 
ion      s     py     pz     px    dxy    dyz    dz2    dxz  x2-y2    tot
    1  0.000  0.001  0.147  0.087  0.000  0.000  0.000  0.000  0.000  0.236
    2  0.001  0.001  0.079  0.155  0.000  0.000  0.000  0.000  0.000  0.236
tot    0.001  0.001  0.227  0.242  0.000  0.000  0.000  0.000  0.000  0.472
 
band     9 # energy   16.75987091 # occ.  0.00000000
 
ion      s     py     pz     px    dxy    dyz    dz2    dxz  x2-y2    tot
    1  0.000  0.005  0.016  0.001  0.000  0.000  0.000  0.000  0.000  0.022
    2  0.001  0.001  0.002  0.005  0.000  0.000  0.000  0.000  0.000  0.009
tot    0.002  0.006  0.018  0.006  0.000  0.000  0.000  0.000  0.000  0.031
 
band    10 # energy   18.42017390 # occ.  0.00000000
 
ion      s     py     pz     px    dxy    dyz    dz2    dxz  x2-y2    tot
    1  0.009  0.013  0.000  0.001  0.000  0.000  0.000  0.000  0.000  0.024
    2  0.004  0.033  0.001  0.002  0.000  0.000  0.000  0.000  0.000  0.039
tot    0.013  0.046  0.001  0.002  0.000  0.000  0.000  0.000  0.000  0.063
 
band    11 # energy   18.92442129 # occ.  0.00000000
 
ion      s     py     pz     px    dxy    dyz    dz2    dxz  x2-y2    tot
    1  0.072  0.155  0.000  0.001  0.000  0.000  0.000  0.000  0.000  0.228
    2  0.043  0.258  0.001  0.001  0.000  0.000  0.000  0.000  0.000  0.303
tot    0.115  0.413  0.001  0.002  0.000  0.000  0.000  0.000  0.000  0.530
 
band    12 # energy   25.78285481 # occ.  0.00000000
 
ion      s     py     pz     px    dxy    dyz    dz2    dxz  x2-y2    tot
    1  0.010  0.004  0.020  0.013  0.000  0.000  0.000  0.000  0.000  0.048
    2  0.013  0.002  0.044  0.000  0.000  0.000  0.000  0.000  0.000  0.058
tot    0.023  0.006  0.064  0.013  0.000  0.000  0.000  0.000  0.000  0.106
 

 k-point    76 :    0.50000000 0.02142857 0.52142857     weight = 0.00555556

band     1 # energy   -1.98039186 # occ.  2.00000000
 
ion      s     py     pz     px    dxy    dyz    dz2    dxz  x2-y2    tot
    1  0.148  0.056  0.000  0.000  0.000  0.000  0.000  0.000  0.000  0.204
    2  0.239  0.035  0.000  0.000  0.000  0.000  0.000  0.000  0.000  0.274
tot    0.387  0.091  0.000  0.000  0.000  0.000  0.000  0.000  0.000  0.478
 
band     2 # energy   -1.98039175 # occ.  2.00000000
 
ion      s     py     pz     px    dxy    dyz    dz2    dxz  x2-y2    tot
    1  0.239  0.035  0.000  0.000  0.000  0.000  0.000  0.000  0.000  0.274
    2  0.148  0.056  0.000  0.000  0.000  0.000  0.000  0.000  0.000  0.204
tot    0.387  0.091  0.000  0.000  0.000  0.000  0.000  0.000  0.000  0.478
 
band     3 # energy    2.95670995 # occ.  2.00000000
 
ion      s     py     pz     px    dxy    dyz    dz2    dxz  x2-y2    tot
    1  0.000  0.001  0.079  0.116  0.000  0.000  0.000  0.000  0.000  0.196
    2  0.000  0.001  0.116  0.079  0.000  0.000  0.000  0.000  0.000  0.196
tot    0.001  0.001  0.195  0.195  0.000  0.000  0.000  0.000  0.000  0.393
 
band     4 # energy    2.95670989 # occ.  2.00000000
 
ion      s     py     pz     px    dxy    dyz    dz2    dxz  x2-y2    tot
    1  0.000  0.001  0.116  0.079  0.000  0.000  0.000  0.000  0.000  0.196
    2  0.000  0.001  0.079  0.116  0.000  0.000  0.000  0.000  0.000  0.196
tot    0.001  0.001  0.195  0.195  0.000  0.000  0.000  0.000  0.000  0.393
 
band     5 # energy    6.58600173 # occ.  0.00000000
 
ion      s     py     pz     px    dxy    dyz    dz2    dxz  x2-y2    tot
    1  0.038  0.043  0.001  0.001  0.000  0.000  0.000  0.000  0.000  0.083
    2  0.064  0.026  0.001  0.002  0.000  0.000  0.000  0.000  0.000  0.092
tot    0.102  0.069  0.002  0.003  0.000  0.000  0.000  0.000  0.000  0.176
 
band     6 # energy    6.58600227 # occ.  0.00000000
 
ion      s     py     pz     px    dxy    dyz    dz2    dxz  x2-y2    tot
    1  0.064  0.026  0.001  0.002  0.000  0.000  0.000  0.000  0.000  0.092
    2  0.038  0.043  0.001  0.001  0.000  0.000  0.000  0.000  0.000  0.083
tot    0.102  0.069  0.002  0.003  0.000  0.000  0.000  0.000  0.000  0.176
 
band     7 # energy   15.87569453 # occ.  0.00000000
 
ion      s     py     pz     px    dxy    dyz    dz2    dxz  x2-y2    tot
    1  0.002  0.001  0.075  0.158  0.000  0.000  0.000  0.000  0.000  0.235
    2  0.001  0.002  0.144  0.082  0.000  0.000  0.000  0.000  0.000  0.229
tot    0.003  0.003  0.219  0.240  0.000  0.000  0.000  0.000  0.000  0.465
 
band     8 # energy   15.87720828 # occ.  0.00000000
 
ion      s     py     pz     px    dxy    dyz    dz2    dxz  x2-y2    tot
    1  0.001  0.002  0.148  0.081  0.000  0.000  0.000  0.000  0.000  0.232
    2  0.002  0.001  0.078  0.156  0.000  0.000  0.000  0.000  0.000  0.237
tot    0.002  0.003  0.226  0.238  0.000  0.000  0.000  0.000  0.000  0.469
 
band     9 # energy   18.41934865 # occ.  0.00000000
 
ion      s     py     pz     px    dxy    dyz    dz2    dxz  x2-y2    tot
    1  0.001  0.040  0.001  0.002  0.000  0.000  0.000  0.000  0.000  0.044
    2  0.011  0.003  0.000  0.001  0.000  0.000  0.000  0.000  0.000  0.016
tot    0.012  0.043  0.001  0.003  0.000  0.000  0.000  0.000  0.000  0.060
 
band    10 # energy   18.97924386 # occ.  0.00000000
 
ion      s     py     pz     px    dxy    dyz    dz2    dxz  x2-y2    tot
    1  0.098  0.031  0.000  0.006  0.000  0.000  0.000  0.000  0.000  0.135
    2  0.009  0.353  0.000  0.000  0.000  0.000  0.000  0.000  0.000  0.362
tot    0.106  0.383  0.001  0.006  0.000  0.000  0.000  0.000  0.000  0.496
 
band    11 # energy   25.05689212 # occ.  0.00000000
 
ion      s     py     pz     px    dxy    dyz    dz2    dxz  x2-y2    tot
    1  0.001  0.025  0.010  0.001  0.000  0.000  0.000  0.000  0.000  0.038
    2  0.008  0.001  0.006  0.002  0.000  0.000  0.000  0.000  0.000  0.017
tot    0.010  0.026  0.016  0.003  0.000  0.000  0.000  0.000  0.000  0.055
 
band    12 # energy   26.93743970 # occ.  0.00000000
 
ion      s     py     pz     px    dxy    dyz    dz2    dxz  x2-y2    tot
    1  0.074  0.000  0.003  0.022  0.000  0.000  0.000  0.000  0.000  0.099
    2  0.002  0.025  0.003  0.017  0.000  0.000  0.000  0.000  0.000  0.047
tot    0.075  0.025  0.006  0.040  0.000  0.000  0.000  0.000  0.000  0.146
 

 k-point    77 :    0.50000000 0.02857143 0.52857143     weight = 0.00555556

band     1 # energy   -1.97831195 # occ.  2.00000000
 
ion      s     py     pz     px    dxy    dyz    dz2    dxz  x2-y2    tot
    1  0.220  0.039  0.000  0.000  0.000  0.000  0.000  0.000  0.000  0.259
    2  0.167  0.051  0.000  0.000  0.000  0.000  0.000  0.000  0.000  0.219
tot    0.387  0.090  0.000  0.000  0.000  0.000  0.000  0.000  0.000  0.478
 
band     2 # energy   -1.97831182 # occ.  2.00000000
 
ion      s     py     pz     px    dxy    dyz    dz2    dxz  x2-y2    tot
    1  0.167  0.051  0.000  0.000  0.000  0.000  0.000  0.000  0.000  0.219
    2  0.220  0.039  0.000  0.000  0.000  0.000  0.000  0.000  0.000  0.259
tot    0.387  0.090  0.000  0.000  0.000  0.000  0.000  0.000  0.000  0.478
 
band     3 # energy    2.93822095 # occ.  2.00000000
 
ion      s     py     pz     px    dxy    dyz    dz2    dxz  x2-y2    tot
    1  0.000  0.002  0.134  0.060  0.000  0.000  0.000  0.000  0.000  0.196
    2  0.001  0.001  0.060  0.134  0.000  0.000  0.000  0.000  0.000  0.195
tot    0.001  0.003  0.194  0.194  0.000  0.000  0.000  0.000  0.000  0.391
 
band     4 # energy    2.93822103 # occ.  2.00000000
 
ion      s     py     pz     px    dxy    dyz    dz2    dxz  x2-y2    tot
    1  0.001  0.001  0.060  0.134  0.000  0.000  0.000  0.000  0.000  0.195
    2  0.000  0.002  0.134  0.060  0.000  0.000  0.000  0.000  0.000  0.196
tot    0.001  0.003  0.194  0.194  0.000  0.000  0.000  0.000  0.000  0.391
 
band     5 # energy    6.62023624 # occ.  0.00000000
 
ion      s     py     pz     px    dxy    dyz    dz2    dxz  x2-y2    tot
    1  0.024  0.052  0.002  0.001  0.000  0.000  0.000  0.000  0.000  0.079
    2  0.078  0.016  0.001  0.003  0.000  0.000  0.000  0.000  0.000  0.098
tot    0.102  0.068  0.003  0.004  0.000  0.000  0.000  0.000  0.000  0.177
 
band     6 # energy    6.62023636 # occ.  0.00000000
 
ion      s     py     pz     px    dxy    dyz    dz2    dxz  x2-y2    tot
    1  0.078  0.016  0.001  0.003  0.000  0.000  0.000  0.000  0.000  0.098
    2  0.024  0.052  0.002  0.001  0.000  0.000  0.000  0.000  0.000  0.079
tot    0.102  0.068  0.003  0.004  0.000  0.000  0.000  0.000  0.000  0.177
 
band     7 # energy   15.81189589 # occ.  0.00000000
 
ion      s     py     pz     px    dxy    dyz    dz2    dxz  x2-y2    tot
    1  0.002  0.003  0.111  0.109  0.000  0.000  0.000  0.000  0.000  0.225
    2  0.002  0.003  0.095  0.127  0.000  0.000  0.000  0.000  0.000  0.228
tot    0.005  0.006  0.207  0.236  0.000  0.000  0.000  0.000  0.000  0.453
 
band     8 # energy   15.81226584 # occ.  0.00000000
 
ion      s     py     pz     px    dxy    dyz    dz2    dxz  x2-y2    tot
    1  0.003  0.003  0.093  0.127  0.000  0.000  0.000  0.000  0.000  0.226
    2  0.002  0.003  0.110  0.109  0.000  0.000  0.000  0.000  0.000  0.224
tot    0.005  0.006  0.203  0.236  0.000  0.000  0.000  0.000  0.000  0.450
 
band     9 # energy   16.65497217 # occ.  0.00000000
 
ion      s     py     pz     px    dxy    dyz    dz2    dxz  x2-y2    tot
    1  0.002  0.006  0.016  0.000  0.000  0.000  0.000  0.000  0.000  0.025
    2  0.002  0.010  0.023  0.000  0.000  0.000  0.000  0.000  0.000  0.035
tot    0.004  0.016  0.039  0.000  0.000  0.000  0.000  0.000  0.000  0.059
 
band    10 # energy   18.49200105 # occ.  0.00000000
 
ion      s     py     pz     px    dxy    dyz    dz2    dxz  x2-y2    tot
    1  0.004  0.071  0.000  0.002  0.000  0.000  0.000  0.000  0.000  0.077
    2  0.020  0.014  0.001  0.001  0.000  0.000  0.000  0.000  0.000  0.035
tot    0.024  0.085  0.001  0.003  0.000  0.000  0.000  0.000  0.000  0.113
 
band    11 # energy   19.05410096 # occ.  0.00000000
 
ion      s     py     pz     px    dxy    dyz    dz2    dxz  x2-y2    tot
    1  0.086  0.038  0.001  0.007  0.000  0.000  0.000  0.000  0.000  0.132
    2  0.010  0.322  0.001  0.002  0.000  0.000  0.000  0.000  0.000  0.335
tot    0.096  0.360  0.002  0.010  0.000  0.000  0.000  0.000  0.000  0.467
 
band    12 # energy   25.54510025 # occ.  0.00000000
 
ion      s     py     pz     px    dxy    dyz    dz2    dxz  x2-y2    tot
    1  0.016  0.001  0.016  0.003  0.000  0.000  0.000  0.000  0.000  0.035
    2  0.027  0.003  0.001  0.028  0.000  0.000  0.000  0.000  0.000  0.059
tot    0.043  0.003  0.017  0.031  0.000  0.000  0.000  0.000  0.000  0.094
 

 k-point    78 :    0.50000000 0.03571429 0.53571429     weight = 0.00555556

band     1 # energy   -1.97566061 # occ.  2.00000000
 
ion      s     py     pz     px    dxy    dyz    dz2    dxz  x2-y2    tot
    1  0.300  0.020  0.000  0.000  0.000  0.000  0.000  0.000  0.000  0.321
    2  0.087  0.070  0.001  0.000  0.000  0.000  0.000  0.000  0.000  0.158
tot    0.387  0.090  0.001  0.000  0.000  0.000  0.000  0.000  0.000  0.478
 
band     2 # energy   -1.97566053 # occ.  2.00000000
 
ion      s     py     pz     px    dxy    dyz    dz2    dxz  x2-y2    tot
    1  0.087  0.070  0.001  0.000  0.000  0.000  0.000  0.000  0.000  0.158
    2  0.300  0.020  0.000  0.000  0.000  0.000  0.000  0.000  0.000  0.321
tot    0.387  0.090  0.001  0.000  0.000  0.000  0.000  0.000  0.000  0.478
 
band     3 # energy    2.91505622 # occ.  2.00000000
 
ion      s     py     pz     px    dxy    dyz    dz2    dxz  x2-y2    tot
    1  0.001  0.001  0.051  0.141  0.000  0.000  0.000  0.000  0.000  0.194
    2  0.000  0.003  0.141  0.051  0.000  0.000  0.000  0.000  0.000  0.195
tot    0.001  0.004  0.192  0.192  0.000  0.000  0.000  0.000  0.000  0.389
 
band     4 # energy    2.91505628 # occ.  2.00000000
 
ion      s     py     pz     px    dxy    dyz    dz2    dxz  x2-y2    tot
    1  0.000  0.003  0.141  0.051  0.000  0.000  0.000  0.000  0.000  0.195
    2  0.001  0.001  0.051  0.141  0.000  0.000  0.000  0.000  0.000  0.194
tot    0.001  0.004  0.192  0.192  0.000  0.000  0.000  0.000  0.000  0.389
 
band     5 # energy    6.66365723 # occ.  0.00000000
 
ion      s     py     pz     px    dxy    dyz    dz2    dxz  x2-y2    tot
    1  0.007  0.063  0.005  0.000  0.000  0.000  0.000  0.000  0.000  0.074
    2  0.094  0.004  0.000  0.006  0.000  0.000  0.000  0.000  0.000  0.105
tot    0.100  0.067  0.005  0.007  0.000  0.000  0.000  0.000  0.000  0.179
 
band     6 # energy    6.66365881 # occ.  0.00000000
 
ion      s     py     pz     px    dxy    dyz    dz2    dxz  x2-y2    tot
    1  0.094  0.004  0.000  0.006  0.000  0.000  0.000  0.000  0.000  0.105
    2  0.007  0.063  0.005  0.000  0.000  0.000  0.000  0.000  0.000  0.074
tot    0.100  0.067  0.005  0.007  0.000  0.000  0.000  0.000  0.000  0.179
 
band     7 # energy   15.72690500 # occ.  0.00000000
 
ion      s     py     pz     px    dxy    dyz    dz2    dxz  x2-y2    tot
    1  0.003  0.006  0.110  0.093  0.000  0.000  0.000  0.000  0.000  0.212
    2  0.004  0.004  0.075  0.135  0.000  0.000  0.000  0.000  0.000  0.219
tot    0.007  0.010  0.185  0.228  0.000  0.000  0.000  0.000  0.000  0.431
 
band     8 # energy   15.72946147 # occ.  0.00000000
 
ion      s     py     pz     px    dxy    dyz    dz2    dxz  x2-y2    tot
    1  0.004  0.003  0.082  0.136  0.000  0.000  0.000  0.000  0.000  0.226
    2  0.003  0.005  0.116  0.094  0.000  0.000  0.000  0.000  0.000  0.218
tot    0.007  0.009  0.198  0.230  0.000  0.000  0.000  0.000  0.000  0.444
 
band     9 # energy   18.49322502 # occ.  0.00000000
 
ion      s     py     pz     px    dxy    dyz    dz2    dxz  x2-y2    tot
    1  0.005  0.038  0.002  0.001  0.000  0.000  0.000  0.000  0.000  0.046
    2  0.011  0.018  0.001  0.003  0.000  0.000  0.000  0.000  0.000  0.033
tot    0.016  0.056  0.003  0.003  0.000  0.000  0.000  0.000  0.000  0.079
 
band    10 # energy   18.71380230 # occ.  0.00000000
 
ion      s     py     pz     px    dxy    dyz    dz2    dxz  x2-y2    tot
    1  0.041  0.134  0.000  0.000  0.000  0.000  0.000  0.000  0.000  0.175
    2  0.036  0.153  0.000  0.001  0.000  0.000  0.000  0.000  0.000  0.191
tot    0.077  0.287  0.000  0.002  0.000  0.000  0.000  0.000  0.000  0.366
 
band    11 # energy   19.19398869 # occ.  0.00000000
 
ion      s     py     pz     px    dxy    dyz    dz2    dxz  x2-y2    tot
    1  0.054  0.132  0.001  0.010  0.000  0.000  0.000  0.000  0.000  0.197
    2  0.035  0.204  0.001  0.006  0.000  0.000  0.000  0.000  0.000  0.247
tot    0.089  0.337  0.002  0.016  0.000  0.000  0.000  0.000  0.000  0.444
 
band    12 # energy   26.00225232 # occ.  0.00000000
 
ion      s     py     pz     px    dxy    dyz    dz2    dxz  x2-y2    tot
    1  0.039  0.004  0.020  0.013  0.000  0.000  0.000  0.000  0.000  0.076
    2  0.024  0.007  0.001  0.007  0.000  0.000  0.000  0.000  0.000  0.038
tot    0.063  0.011  0.020  0.019  0.000  0.000  0.000  0.000  0.000  0.114
 

 k-point    79 :    0.50000000 0.04285714 0.54285714     weight = 0.00555556

band     1 # energy   -1.97245339 # occ.  2.00000000
 
ion      s     py     pz     px    dxy    dyz    dz2    dxz  x2-y2    tot
    1  0.151  0.055  0.001  0.000  0.000  0.000  0.000  0.000  0.000  0.207
    2  0.237  0.035  0.000  0.000  0.000  0.000  0.000  0.000  0.000  0.272
tot    0.388  0.090  0.001  0.000  0.000  0.000  0.000  0.000  0.000  0.478
 
band     2 # energy   -1.97245316 # occ.  2.00000000
 
ion      s     py     pz     px    dxy    dyz    dz2    dxz  x2-y2    tot
    1  0.237  0.035  0.000  0.000  0.000  0.000  0.000  0.000  0.000  0.272
    2  0.151  0.055  0.001  0.000  0.000  0.000  0.000  0.000  0.000  0.207
tot    0.388  0.090  0.001  0.000  0.000  0.000  0.000  0.000  0.000  0.479
 
band     3 # energy    2.88762600 # occ.  2.00000000
 
ion      s     py     pz     px    dxy    dyz    dz2    dxz  x2-y2    tot
    1  0.000  0.005  0.162  0.028  0.000  0.000  0.000  0.000  0.000  0.194
    2  0.002  0.001  0.028  0.162  0.000  0.000  0.000  0.000  0.000  0.192
tot    0.002  0.005  0.189  0.189  0.000  0.000  0.000  0.000  0.000  0.386
 
band     4 # energy    2.88762605 # occ.  2.00000000
 
ion      s     py     pz     px    dxy    dyz    dz2    dxz  x2-y2    tot
    1  0.002  0.001  0.028  0.162  0.000  0.000  0.000  0.000  0.000  0.192
    2  0.000  0.005  0.162  0.028  0.000  0.000  0.000  0.000  0.000  0.194
tot    0.002  0.005  0.189  0.189  0.000  0.000  0.000  0.000  0.000  0.386
 
band     5 # energy    6.71586523 # occ.  0.00000000
 
ion      s     py     pz     px    dxy    dyz    dz2    dxz  x2-y2    tot
    1  0.001  0.065  0.007  0.000  0.000  0.000  0.000  0.000  0.000  0.073
    2  0.098  0.001  0.000  0.009  0.000  0.000  0.000  0.000  0.000  0.108
tot    0.099  0.066  0.007  0.010  0.000  0.000  0.000  0.000  0.000  0.181
 
band     6 # energy    6.71586550 # occ.  0.00000000
 
ion      s     py     pz     px    dxy    dyz    dz2    dxz  x2-y2    tot
    1  0.098  0.001  0.000  0.009  0.000  0.000  0.000  0.000  0.000  0.108
    2  0.001  0.065  0.007  0.000  0.000  0.000  0.000  0.000  0.000  0.073
tot    0.099  0.066  0.007  0.010  0.000  0.000  0.000  0.000  0.000  0.181
 
band     7 # energy   15.62013000 # occ.  0.00000000
 
ion      s     py     pz     px    dxy    dyz    dz2    dxz  x2-y2    tot
    1  0.002  0.013  0.143  0.033  0.000  0.000  0.000  0.000  0.000  0.190
    2  0.009  0.002  0.025  0.186  0.000  0.000  0.000  0.000  0.000  0.222
tot    0.010  0.015  0.168  0.218  0.000  0.000  0.000  0.000  0.000  0.412
 
band     8 # energy   15.62032305 # occ.  0.00000000
 
ion      s     py     pz     px    dxy    dyz    dz2    dxz  x2-y2    tot
    1  0.009  0.002  0.025  0.185  0.000  0.000  0.000  0.000  0.000  0.221
    2  0.002  0.013  0.141  0.033  0.000  0.000  0.000  0.000  0.000  0.188
tot    0.010  0.015  0.166  0.218  0.000  0.000  0.000  0.000  0.000  0.409
 
band     9 # energy   16.55698701 # occ.  0.00000000
 
ion      s     py     pz     px    dxy    dyz    dz2    dxz  x2-y2    tot
    1  0.003  0.009  0.029  0.004  0.000  0.000  0.000  0.000  0.000  0.044
    2  0.002  0.014  0.044  0.003  0.000  0.000  0.000  0.000  0.000  0.062
tot    0.004  0.023  0.073  0.007  0.000  0.000  0.000  0.000  0.000  0.107
 
band    10 # energy   19.11300491 # occ.  0.00000000
 
ion      s     py     pz     px    dxy    dyz    dz2    dxz  x2-y2    tot
    1  0.052  0.010  0.001  0.016  0.000  0.000  0.000  0.000  0.000  0.079
    2  0.003  0.202  0.002  0.001  0.000  0.000  0.000  0.000  0.000  0.208
tot    0.055  0.212  0.003  0.017  0.000  0.000  0.000  0.000  0.000  0.288
 
band    11 # energy   24.61798707 # occ.  0.00000000
 
ion      s     py     pz     px    dxy    dyz    dz2    dxz  x2-y2    tot
    1  0.011  0.004  0.003  0.004  0.000  0.000  0.000  0.000  0.000  0.023
    2  0.006  0.004  0.022  0.003  0.000  0.000  0.000  0.000  0.000  0.036
tot    0.017  0.008  0.025  0.008  0.000  0.000  0.000  0.000  0.000  0.058
 
band    12 # energy   25.89166584 # occ.  0.00000000
 
ion      s     py     pz     px    dxy    dyz    dz2    dxz  x2-y2    tot
    1  0.007  0.002  0.003  0.024  0.000  0.000  0.000  0.000  0.000  0.036
    2  0.017  0.002  0.018  0.029  0.000  0.000  0.000  0.000  0.000  0.065
tot    0.024  0.004  0.021  0.053  0.000  0.000  0.000  0.000  0.000  0.101
 

 k-point    80 :    0.50000000 0.05000000 0.55000000     weight = 0.00555556

band     1 # energy   -1.96870700 # occ.  2.00000000
 
ion      s     py     pz     px    dxy    dyz    dz2    dxz  x2-y2    tot
    1  0.193  0.045  0.001  0.000  0.000  0.000  0.000  0.000  0.000  0.239
    2  0.195  0.044  0.001  0.000  0.000  0.000  0.000  0.000  0.000  0.240
tot    0.388  0.089  0.001  0.000  0.000  0.000  0.000  0.000  0.000  0.479
 
band     2 # energy   -1.96870698 # occ.  2.00000000
 
ion      s     py     pz     px    dxy    dyz    dz2    dxz  x2-y2    tot
    1  0.195  0.044  0.001  0.000  0.000  0.000  0.000  0.000  0.000  0.240
    2  0.193  0.045  0.001  0.000  0.000  0.000  0.000  0.000  0.000  0.239
tot    0.388  0.089  0.001  0.000  0.000  0.000  0.000  0.000  0.000  0.479
 
band     3 # energy    2.85638613 # occ.  2.00000000
 
ion      s     py     pz     px    dxy    dyz    dz2    dxz  x2-y2    tot
    1  0.001  0.003  0.085  0.102  0.000  0.000  0.000  0.000  0.000  0.191
    2  0.001  0.004  0.102  0.085  0.000  0.000  0.000  0.000  0.000  0.192
tot    0.003  0.007  0.187  0.187  0.000  0.000  0.000  0.000  0.000  0.383
 
band     4 # energy    2.85638626 # occ.  2.00000000
 
ion      s     py     pz     px    dxy    dyz    dz2    dxz  x2-y2    tot
    1  0.001  0.004  0.102  0.085  0.000  0.000  0.000  0.000  0.000  0.192
    2  0.001  0.003  0.085  0.102  0.000  0.000  0.000  0.000  0.000  0.191
tot    0.003  0.007  0.187  0.187  0.000  0.000  0.000  0.000  0.000  0.383
 
band     5 # energy    6.77643000 # occ.  0.00000000
 
ion      s     py     pz     px    dxy    dyz    dz2    dxz  x2-y2    tot
    1  0.043  0.036  0.005  0.006  0.000  0.000  0.000  0.000  0.000  0.090
    2  0.055  0.028  0.004  0.007  0.000  0.000  0.000  0.000  0.000  0.094
tot    0.098  0.065  0.009  0.013  0.000  0.000  0.000  0.000  0.000  0.184
 
band     6 # energy    6.77643028 # occ.  0.00000000
 
ion      s     py     pz     px    dxy    dyz    dz2    dxz  x2-y2    tot
    1  0.055  0.028  0.004  0.007  0.000  0.000  0.000  0.000  0.000  0.094
    2  0.043  0.036  0.005  0.006  0.000  0.000  0.000  0.000  0.000  0.090
tot    0.098  0.065  0.009  0.013  0.000  0.000  0.000  0.000  0.000  0.184
 
band     7 # energy   15.49454568 # occ.  0.00000000
 
ion      s     py     pz     px    dxy    dyz    dz2    dxz  x2-y2    tot
    1  0.004  0.014  0.105  0.061  0.000  0.000  0.000  0.000  0.000  0.184
    2  0.010  0.006  0.044  0.145  0.000  0.000  0.000  0.000  0.000  0.205
tot    0.014  0.020  0.149  0.206  0.000  0.000  0.000  0.000  0.000  0.389
 
band     8 # energy   15.49457204 # occ.  0.00000000
 
ion      s     py     pz     px    dxy    dyz    dz2    dxz  x2-y2    tot
    1  0.010  0.006  0.044  0.145  0.000  0.000  0.000  0.000  0.000  0.204
    2  0.004  0.014  0.104  0.061  0.000  0.000  0.000  0.000  0.000  0.183
tot    0.014  0.020  0.148  0.206  0.000  0.000  0.000  0.000  0.000  0.388
 
band     9 # energy   16.52039705 # occ.  0.00000000
 
ion      s     py     pz     px    dxy    dyz    dz2    dxz  x2-y2    tot
    1  0.002  0.012  0.044  0.007  0.000  0.000  0.000  0.000  0.000  0.065
    2  0.002  0.012  0.046  0.007  0.000  0.000  0.000  0.000  0.000  0.067
tot    0.004  0.024  0.090  0.014  0.000  0.000  0.000  0.000  0.000  0.132
 
band    10 # energy   18.63886028 # occ.  0.00000000
 
ion      s     py     pz     px    dxy    dyz    dz2    dxz  x2-y2    tot
    1  0.016  0.022  0.003  0.000  0.000  0.000  0.000  0.000  0.000  0.041
    2  0.006  0.059  0.001  0.006  0.000  0.000  0.000  0.000  0.000  0.071
tot    0.023  0.080  0.003  0.006  0.000  0.000  0.000  0.000  0.000  0.112
 
band    11 # energy   19.41049209 # occ.  0.00000000
 
ion      s     py     pz     px    dxy    dyz    dz2    dxz  x2-y2    tot
    1  0.074  0.020  0.002  0.020  0.000  0.000  0.000  0.000  0.000  0.117
    2  0.005  0.288  0.004  0.004  0.000  0.000  0.000  0.000  0.000  0.301
tot    0.079  0.309  0.006  0.024  0.000  0.000  0.000  0.000  0.000  0.418
 
band    12 # energy   26.22569515 # occ.  0.00000000
 
ion      s     py     pz     px    dxy    dyz    dz2    dxz  x2-y2    tot
    1  0.002  0.014  0.032  0.024  0.000  0.000  0.000  0.000  0.000  0.072
    2  0.011  0.004  0.000  0.022  0.000  0.000  0.000  0.000  0.000  0.037
tot    0.013  0.018  0.032  0.046  0.000  0.000  0.000  0.000  0.000  0.109
 

 k-point    81 :    0.50000000 0.05714286 0.55714286     weight = 0.00555556

band     1 # energy   -1.96445060 # occ.  2.00000000
 
ion      s     py     pz     px    dxy    dyz    dz2    dxz  x2-y2    tot
    1  0.236  0.035  0.001  0.000  0.000  0.000  0.000  0.000  0.000  0.272
    2  0.152  0.054  0.001  0.000  0.000  0.000  0.000  0.000  0.000  0.207
tot    0.389  0.088  0.002  0.000  0.000  0.000  0.000  0.000  0.000  0.479
 
band     2 # energy   -1.96445058 # occ.  2.00000000
 
ion      s     py     pz     px    dxy    dyz    dz2    dxz  x2-y2    tot
    1  0.152  0.054  0.001  0.000  0.000  0.000  0.000  0.000  0.000  0.207
    2  0.236  0.035  0.001  0.000  0.000  0.000  0.000  0.000  0.000  0.272
tot    0.389  0.088  0.002  0.000  0.000  0.000  0.000  0.000  0.000  0.479
 
band     3 # energy    2.82181820 # occ.  2.00000000
 
ion      s     py     pz     px    dxy    dyz    dz2    dxz  x2-y2    tot
    1  0.002  0.003  0.053  0.131  0.000  0.000  0.000  0.000  0.000  0.189
    2  0.001  0.007  0.131  0.053  0.000  0.000  0.000  0.000  0.000  0.191
tot    0.003  0.009  0.184  0.184  0.000  0.000  0.000  0.000  0.000  0.380
 
band     4 # energy    2.82181825 # occ.  2.00000000
 
ion      s     py     pz     px    dxy    dyz    dz2    dxz  x2-y2    tot
    1  0.001  0.007  0.131  0.053  0.000  0.000  0.000  0.000  0.000  0.191
    2  0.002  0.003  0.053  0.131  0.000  0.000  0.000  0.000  0.000  0.189
tot    0.003  0.009  0.184  0.184  0.000  0.000  0.000  0.000  0.000  0.380
 
band     5 # energy    6.84486197 # occ.  0.00000000
 
ion      s     py     pz     px    dxy    dyz    dz2    dxz  x2-y2    tot
    1  0.065  0.021  0.004  0.011  0.000  0.000  0.000  0.000  0.000  0.100
    2  0.032  0.043  0.007  0.005  0.000  0.000  0.000  0.000  0.000  0.087
tot    0.096  0.063  0.011  0.016  0.000  0.000  0.000  0.000  0.000  0.187
 
band     6 # energy    6.84486297 # occ.  0.00000000
 
ion      s     py     pz     px    dxy    dyz    dz2    dxz  x2-y2    tot
    1  0.032  0.043  0.007  0.005  0.000  0.000  0.000  0.000  0.000  0.087
    2  0.065  0.021  0.004  0.011  0.000  0.000  0.000  0.000  0.000  0.100
tot    0.096  0.063  0.011  0.016  0.000  0.000  0.000  0.000  0.000  0.187
 
band     7 # energy   15.35312669 # occ.  0.00000000
 
ion      s     py     pz     px    dxy    dyz    dz2    dxz  x2-y2    tot
    1  0.006  0.017  0.089  0.064  0.000  0.000  0.000  0.000  0.000  0.175
    2  0.011  0.008  0.043  0.130  0.000  0.000  0.000  0.000  0.000  0.193
tot    0.017  0.026  0.132  0.194  0.000  0.000  0.000  0.000  0.000  0.368
 
band     8 # energy   15.35322643 # occ.  0.00000000
 
ion      s     py     pz     px    dxy    dyz    dz2    dxz  x2-y2    tot
    1  0.011  0.008  0.044  0.130  0.000  0.000  0.000  0.000  0.000  0.193
    2  0.006  0.017  0.088  0.064  0.000  0.000  0.000  0.000  0.000  0.175
tot    0.017  0.026  0.132  0.194  0.000  0.000  0.000  0.000  0.000  0.368
 
band     9 # energy   16.49200207 # occ.  0.00000000
 
ion      s     py     pz     px    dxy    dyz    dz2    dxz  x2-y2    tot
    1  0.002  0.012  0.048  0.012  0.000  0.000  0.000  0.000  0.000  0.074
    2  0.002  0.014  0.056  0.010  0.000  0.000  0.000  0.000  0.000  0.081
tot    0.003  0.025  0.104  0.022  0.000  0.000  0.000  0.000  0.000  0.155
 
band    10 # energy   18.63433223 # occ.  0.00000000
 
ion      s     py     pz     px    dxy    dyz    dz2    dxz  x2-y2    tot
    1  0.050  0.065  0.001  0.001  0.000  0.000  0.000  0.000  0.000  0.117
    2  0.018  0.183  0.000  0.001  0.000  0.000  0.000  0.000  0.000  0.202
tot    0.068  0.248  0.001  0.002  0.000  0.000  0.000  0.000  0.000  0.319
 
band    11 # energy   24.97293532 # occ.  0.00000000
 
ion      s     py     pz     px    dxy    dyz    dz2    dxz  x2-y2    tot
    1  0.012  0.010  0.003  0.023  0.000  0.000  0.000  0.000  0.000  0.048
    2  0.003  0.004  0.013  0.005  0.000  0.000  0.000  0.000  0.000  0.024
tot    0.015  0.014  0.015  0.028  0.000  0.000  0.000  0.000  0.000  0.072
 
band    12 # energy   27.07535867 # occ.  0.00000000
 
ion      s     py     pz     px    dxy    dyz    dz2    dxz  x2-y2    tot
    1  0.026  0.008  0.002  0.004  0.000  0.000  0.000  0.000  0.000  0.039
    2  0.022  0.007  0.009  0.053  0.000  0.000  0.000  0.000  0.000  0.091
tot    0.047  0.015  0.010  0.058  0.000  0.000  0.000  0.000  0.000  0.130
 

 k-point    82 :    0.50000000 0.06428571 0.56428571     weight = 0.00555556

band     1 # energy   -1.95970592 # occ.  2.00000000
 
ion      s     py     pz     px    dxy    dyz    dz2    dxz  x2-y2    tot
    1  0.351  0.009  0.000  0.000  0.000  0.000  0.000  0.000  0.000  0.360
    2  0.038  0.079  0.002  0.000  0.000  0.000  0.000  0.000  0.000  0.120
tot    0.389  0.088  0.002  0.000  0.000  0.000  0.000  0.000  0.000  0.480
 
band     2 # energy   -1.95970587 # occ.  2.00000000
 
ion      s     py     pz     px    dxy    dyz    dz2    dxz  x2-y2    tot
    1  0.038  0.079  0.002  0.000  0.000  0.000  0.000  0.000  0.000  0.120
    2  0.351  0.009  0.000  0.000  0.000  0.000  0.000  0.000  0.000  0.360
tot    0.390  0.088  0.002  0.000  0.000  0.000  0.000  0.000  0.000  0.480
 
band     3 # energy    2.78441700 # occ.  2.00000000
 
ion      s     py     pz     px    dxy    dyz    dz2    dxz  x2-y2    tot
    1  0.001  0.009  0.137  0.044  0.000  0.000  0.000  0.000  0.000  0.190
    2  0.003  0.003  0.044  0.137  0.000  0.000  0.000  0.000  0.000  0.187
tot    0.004  0.011  0.181  0.181  0.000  0.000  0.000  0.000  0.000  0.377
 
band     4 # energy    2.78441707 # occ.  2.00000000
 
ion      s     py     pz     px    dxy    dyz    dz2    dxz  x2-y2    tot
    1  0.003  0.003  0.044  0.137  0.000  0.000  0.000  0.000  0.000  0.187
    2  0.001  0.009  0.137  0.044  0.000  0.000  0.000  0.000  0.000  0.190
tot    0.004  0.011  0.181  0.181  0.000  0.000  0.000  0.000  0.000  0.377
 
band     5 # energy    6.92072026 # occ.  0.00000000
 
ion      s     py     pz     px    dxy    dyz    dz2    dxz  x2-y2    tot
    1  0.038  0.037  0.008  0.008  0.000  0.000  0.000  0.000  0.000  0.091
    2  0.057  0.025  0.005  0.012  0.000  0.000  0.000  0.000  0.000  0.099
tot    0.095  0.062  0.013  0.019  0.000  0.000  0.000  0.000  0.000  0.189
 
band     6 # energy    6.92072065 # occ.  0.00000000
 
ion      s     py     pz     px    dxy    dyz    dz2    dxz  x2-y2    tot
    1  0.057  0.025  0.005  0.012  0.000  0.000  0.000  0.000  0.000  0.099
    2  0.038  0.037  0.008  0.008  0.000  0.000  0.000  0.000  0.000  0.091
tot    0.095  0.062  0.013  0.019  0.000  0.000  0.000  0.000  0.000  0.189
 
band     7 # energy   15.19940609 # occ.  0.00000000
 
ion      s     py     pz     px    dxy    dyz    dz2    dxz  x2-y2    tot
    1  0.004  0.024  0.092  0.040  0.000  0.000  0.000  0.000  0.000  0.160
    2  0.016  0.007  0.026  0.142  0.000  0.000  0.000  0.000  0.000  0.190
tot    0.020  0.031  0.118  0.182  0.000  0.000  0.000  0.000  0.000  0.351
 
band     8 # energy   15.19941348 # occ.  0.00000000
 
ion      s     py     pz     px    dxy    dyz    dz2    dxz  x2-y2    tot
    1  0.016  0.007  0.026  0.141  0.000  0.000  0.000  0.000  0.000  0.190
    2  0.004  0.024  0.092  0.040  0.000  0.000  0.000  0.000  0.000  0.160
tot    0.020  0.031  0.118  0.182  0.000  0.000  0.000  0.000  0.000  0.350
 
band     9 # energy   16.47051468 # occ.  0.00000000
 
ion      s     py     pz     px    dxy    dyz    dz2    dxz  x2-y2    tot
    1  0.001  0.016  0.072  0.011  0.000  0.000  0.000  0.000  0.000  0.100
    2  0.002  0.010  0.044  0.018  0.000  0.000  0.000  0.000  0.000  0.074
tot    0.003  0.026  0.116  0.030  0.000  0.000  0.000  0.000  0.000  0.175
 
band    10 # energy   18.71215479 # occ.  0.00000000
 
ion      s     py     pz     px    dxy    dyz    dz2    dxz  x2-y2    tot
    1  0.048  0.009  0.001  0.001  0.000  0.000  0.000  0.000  0.000  0.060
    2  0.002  0.173  0.008  0.003  0.000  0.000  0.000  0.000  0.000  0.186
tot    0.050  0.182  0.010  0.004  0.000  0.000  0.000  0.000  0.000  0.246
 
band    11 # energy   19.80580852 # occ.  0.00000000
 
ion      s     py     pz     px    dxy    dyz    dz2    dxz  x2-y2    tot
    1  0.035  0.076  0.003  0.019  0.000  0.000  0.000  0.000  0.000  0.134
    2  0.017  0.149  0.003  0.014  0.000  0.000  0.000  0.000  0.000  0.183
tot    0.051  0.225  0.007  0.034  0.000  0.000  0.000  0.000  0.000  0.317
 
band    12 # energy   25.54318818 # occ.  0.00000000
 
ion      s     py     pz     px    dxy    dyz    dz2    dxz  x2-y2    tot
    1  0.024  0.007  0.001  0.027  0.000  0.000  0.000  0.000  0.000  0.059
    2  0.004  0.005  0.027  0.002  0.000  0.000  0.000  0.000  0.000  0.038
tot    0.028  0.012  0.028  0.029  0.000  0.000  0.000  0.000  0.000  0.097
 

 k-point    83 :    0.50000000 0.07142857 0.57142857     weight = 0.00555556

band     1 # energy   -1.95450826 # occ.  2.00000000
 
ion      s     py     pz     px    dxy    dyz    dz2    dxz  x2-y2    tot
    1  0.261  0.029  0.001  0.000  0.000  0.000  0.000  0.000  0.000  0.291
    2  0.129  0.058  0.002  0.000  0.000  0.000  0.000  0.000  0.000  0.189
tot    0.390  0.087  0.003  0.000  0.000  0.000  0.000  0.000  0.000  0.480
 
band     2 # energy   -1.95450824 # occ.  2.00000000
 
ion      s     py     pz     px    dxy    dyz    dz2    dxz  x2-y2    tot
    1  0.129  0.058  0.002  0.000  0.000  0.000  0.000  0.000  0.000  0.189
    2  0.261  0.029  0.001  0.000  0.000  0.000  0.000  0.000  0.000  0.291
tot    0.390  0.087  0.003  0.000  0.000  0.000  0.000  0.000  0.000  0.480
 
band     3 # energy    2.74466988 # occ.  2.00000000
 
ion      s     py     pz     px    dxy    dyz    dz2    dxz  x2-y2    tot
    1  0.002  0.005  0.072  0.106  0.000  0.000  0.000  0.000  0.000  0.186
    2  0.002  0.008  0.106  0.072  0.000  0.000  0.000  0.000  0.000  0.188
tot    0.004  0.014  0.178  0.178  0.000  0.000  0.000  0.000  0.000  0.374
 
band     4 # energy    2.74466997 # occ.  2.00000000
 
ion      s     py     pz     px    dxy    dyz    dz2    dxz  x2-y2    tot
    1  0.002  0.008  0.106  0.072  0.000  0.000  0.000  0.000  0.000  0.188
    2  0.002  0.005  0.072  0.106  0.000  0.000  0.000  0.000  0.000  0.186
tot    0.004  0.014  0.178  0.178  0.000  0.000  0.000  0.000  0.000  0.374
 
band     5 # energy    7.00348136 # occ.  0.00000000
 
ion      s     py     pz     px    dxy    dyz    dz2    dxz  x2-y2    tot
    1  0.038  0.036  0.009  0.009  0.000  0.000  0.000  0.000  0.000  0.092
    2  0.055  0.025  0.006  0.014  0.000  0.000  0.000  0.000  0.000  0.100
tot    0.093  0.061  0.016  0.023  0.000  0.000  0.000  0.000  0.000  0.192
 
band     6 # energy    7.00348143 # occ.  0.00000000
 
ion      s     py     pz     px    dxy    dyz    dz2    dxz  x2-y2    tot
    1  0.055  0.025  0.006  0.014  0.000  0.000  0.000  0.000  0.000  0.100
    2  0.038  0.036  0.009  0.009  0.000  0.000  0.000  0.000  0.000  0.092
tot    0.093  0.061  0.016  0.023  0.000  0.000  0.000  0.000  0.000  0.192
 
band     7 # energy   15.03626566 # occ.  0.00000000
 
ion      s     py     pz     px    dxy    dyz    dz2    dxz  x2-y2    tot
    1  0.003  0.030  0.092  0.024  0.000  0.000  0.000  0.000  0.000  0.149
    2  0.020  0.005  0.015  0.148  0.000  0.000  0.000  0.000  0.000  0.187
tot    0.023  0.035  0.107  0.171  0.000  0.000  0.000  0.000  0.000  0.336
 
band     8 # energy   15.03626598 # occ.  0.00000000
 
ion      s     py     pz     px    dxy    dyz    dz2    dxz  x2-y2    tot
    1  0.020  0.005  0.015  0.148  0.000  0.000  0.000  0.000  0.000  0.187
    2  0.003  0.030  0.092  0.024  0.000  0.000  0.000  0.000  0.000  0.149
tot    0.023  0.035  0.107  0.171  0.000  0.000  0.000  0.000  0.000  0.336
 
band     9 # energy   16.45425298 # occ.  0.00000000
 
ion      s     py     pz     px    dxy    dyz    dz2    dxz  x2-y2    tot
    1  0.002  0.010  0.044  0.024  0.000  0.000  0.000  0.000  0.000  0.079
    2  0.001  0.017  0.080  0.013  0.000  0.000  0.000  0.000  0.000  0.112
tot    0.003  0.027  0.125  0.037  0.000  0.000  0.000  0.000  0.000  0.191
 
band    10 # energy   16.45426095 # occ.  0.00000000
 
ion      s     py     pz     px    dxy    dyz    dz2    dxz  x2-y2    tot
    1  0.001  0.018  0.080  0.013  0.000  0.000  0.000  0.000  0.000  0.112
    2  0.002  0.010  0.044  0.024  0.000  0.000  0.000  0.000  0.000  0.079
tot    0.003  0.027  0.124  0.037  0.000  0.000  0.000  0.000  0.000  0.191
 
band    11 # energy   18.61538570 # occ.  0.00000000
 
ion      s     py     pz     px    dxy    dyz    dz2    dxz  x2-y2    tot
    1  0.036  0.015  0.001  0.001  0.000  0.000  0.000  0.000  0.000  0.053
    2  0.004  0.120  0.012  0.000  0.000  0.000  0.000  0.000  0.000  0.136
tot    0.040  0.134  0.013  0.001  0.000  0.000  0.000  0.000  0.000  0.189
 
band    12 # energy   25.55288074 # occ.  0.00000000
 
ion      s     py     pz     px    dxy    dyz    dz2    dxz  x2-y2    tot
    1  0.006  0.004  0.021  0.008  0.000  0.000  0.000  0.000  0.000  0.040
    2  0.024  0.001  0.003  0.023  0.000  0.000  0.000  0.000  0.000  0.051
tot    0.030  0.005  0.024  0.031  0.000  0.000  0.000  0.000  0.000  0.091
 

 k-point    84 :    0.50000000 0.07857143 0.57857143     weight = 0.00555556

band     1 # energy   -1.94888944 # occ.  2.00000000
 
ion      s     py     pz     px    dxy    dyz    dz2    dxz  x2-y2    tot
    1  0.214  0.039  0.002  0.000  0.000  0.000  0.000  0.000  0.000  0.255
    2  0.176  0.047  0.002  0.000  0.000  0.000  0.000  0.000  0.000  0.226
tot    0.391  0.086  0.004  0.000  0.000  0.000  0.000  0.000  0.000  0.481
 
band     2 # energy   -1.94888933 # occ.  2.00000000
 
ion      s     py     pz     px    dxy    dyz    dz2    dxz  x2-y2    tot
    1  0.176  0.047  0.002  0.000  0.000  0.000  0.000  0.000  0.000  0.226
    2  0.214  0.039  0.002  0.000  0.000  0.000  0.000  0.000  0.000  0.255
tot    0.391  0.086  0.004  0.000  0.000  0.000  0.000  0.000  0.000  0.481
 
band     3 # energy    2.70305793 # occ.  2.00000000
 
ion      s     py     pz     px    dxy    dyz    dz2    dxz  x2-y2    tot
    1  0.002  0.008  0.085  0.090  0.000  0.000  0.000  0.000  0.000  0.185
    2  0.002  0.008  0.089  0.086  0.000  0.000  0.000  0.000  0.000  0.185
tot    0.005  0.016  0.175  0.175  0.000  0.000  0.000  0.000  0.000  0.370
 
band     4 # energy    2.70305808 # occ.  2.00000000
 
ion      s     py     pz     px    dxy    dyz    dz2    dxz  x2-y2    tot
    1  0.002  0.008  0.089  0.086  0.000  0.000  0.000  0.000  0.000  0.185
    2  0.002  0.008  0.085  0.090  0.000  0.000  0.000  0.000  0.000  0.185
tot    0.005  0.016  0.175  0.175  0.000  0.000  0.000  0.000  0.000  0.370
 
band     5 # energy    7.09271125 # occ.  0.00000000
 
ion      s     py     pz     px    dxy    dyz    dz2    dxz  x2-y2    tot
    1  0.042  0.032  0.010  0.012  0.000  0.000  0.000  0.000  0.000  0.096
    2  0.049  0.028  0.008  0.014  0.000  0.000  0.000  0.000  0.000  0.099
tot    0.091  0.059  0.018  0.027  0.000  0.000  0.000  0.000  0.000  0.195
 
band     6 # energy    7.09271214 # occ.  0.00000000
 
ion      s     py     pz     px    dxy    dyz    dz2    dxz  x2-y2    tot
    1  0.049  0.027  0.008  0.014  0.000  0.000  0.000  0.000  0.000  0.099
    2  0.042  0.032  0.010  0.012  0.000  0.000  0.000  0.000  0.000  0.096
tot    0.091  0.059  0.018  0.027  0.000  0.000  0.000  0.000  0.000  0.195
 
band     7 # energy   14.86612878 # occ.  0.00000000
 
ion      s     py     pz     px    dxy    dyz    dz2    dxz  x2-y2    tot
    1  0.023  0.004  0.011  0.144  0.000  0.000  0.000  0.000  0.000  0.182
    2  0.003  0.035  0.087  0.018  0.000  0.000  0.000  0.000  0.000  0.142
tot    0.026  0.039  0.098  0.162  0.000  0.000  0.000  0.000  0.000  0.325
 
band     8 # energy   14.86612951 # occ.  0.00000000
 
ion      s     py     pz     px    dxy    dyz    dz2    dxz  x2-y2    tot
    1  0.003  0.035  0.087  0.018  0.000  0.000  0.000  0.000  0.000  0.142
    2  0.023  0.004  0.011  0.144  0.000  0.000  0.000  0.000  0.000  0.182
tot    0.026  0.039  0.097  0.162  0.000  0.000  0.000  0.000  0.000  0.324
 
band     9 # energy   16.44203062 # occ.  0.00000000
 
ion      s     py     pz     px    dxy    dyz    dz2    dxz  x2-y2    tot
    1  0.001  0.014  0.066  0.021  0.000  0.000  0.000  0.000  0.000  0.102
    2  0.001  0.014  0.065  0.021  0.000  0.000  0.000  0.000  0.000  0.102
tot    0.002  0.028  0.131  0.043  0.000  0.000  0.000  0.000  0.000  0.204
 
band    10 # energy   18.59682501 # occ.  0.00000000
 
ion      s     py     pz     px    dxy    dyz    dz2    dxz  x2-y2    tot
    1  0.023  0.080  0.003  0.000  0.000  0.000  0.000  0.000  0.000  0.106
    2  0.023  0.079  0.002  0.000  0.000  0.000  0.000  0.000  0.000  0.104
tot    0.046  0.159  0.005  0.000  0.000  0.000  0.000  0.000  0.000  0.210
 
band    11 # energy   20.17469837 # occ.  0.00000000
 
ion      s     py     pz     px    dxy    dyz    dz2    dxz  x2-y2    tot
    1  0.031  0.089  0.007  0.021  0.000  0.000  0.000  0.000  0.000  0.147
    2  0.019  0.133  0.003  0.022  0.000  0.000  0.000  0.000  0.000  0.178
tot    0.050  0.223  0.010  0.042  0.000  0.000  0.000  0.000  0.000  0.325
 
band    12 # energy   25.40762204 # occ.  0.00000000
 
ion      s     py     pz     px    dxy    dyz    dz2    dxz  x2-y2    tot
    1  0.016  0.002  0.007  0.033  0.000  0.000  0.000  0.000  0.000  0.058
    2  0.002  0.004  0.003  0.008  0.000  0.000  0.000  0.000  0.000  0.018
tot    0.018  0.006  0.010  0.041  0.000  0.000  0.000  0.000  0.000  0.076
 

 k-point    85 :    0.50000000 0.08571429 0.58571429     weight = 0.00555556

band     1 # energy   -1.94289272 # occ.  2.00000000
 
ion      s     py     pz     px    dxy    dyz    dz2    dxz  x2-y2    tot
    1  0.207  0.040  0.002  0.000  0.000  0.000  0.000  0.000  0.000  0.249
    2  0.185  0.045  0.002  0.000  0.000  0.000  0.000  0.000  0.000  0.232
tot    0.392  0.085  0.004  0.000  0.000  0.000  0.000  0.000  0.000  0.481
 
band     2 # energy   -1.94289260 # occ.  2.00000000
 
ion      s     py     pz     px    dxy    dyz    dz2    dxz  x2-y2    tot
    1  0.185  0.045  0.002  0.000  0.000  0.000  0.000  0.000  0.000  0.232
    2  0.207  0.040  0.002  0.000  0.000  0.000  0.000  0.000  0.000  0.249
tot    0.392  0.085  0.004  0.000  0.000  0.000  0.000  0.000  0.000  0.481
 
band     3 # energy    2.66003782 # occ.  2.00000000
 
ion      s     py     pz     px    dxy    dyz    dz2    dxz  x2-y2    tot
    1  0.004  0.002  0.016  0.156  0.000  0.000  0.000  0.000  0.000  0.178
    2  0.000  0.017  0.155  0.016  0.000  0.000  0.000  0.000  0.000  0.189
tot    0.005  0.018  0.171  0.172  0.000  0.000  0.000  0.000  0.000  0.367
 
band     4 # energy    2.66003792 # occ.  2.00000000
 
ion      s     py     pz     px    dxy    dyz    dz2    dxz  x2-y2    tot
    1  0.000  0.017  0.155  0.016  0.000  0.000  0.000  0.000  0.000  0.189
    2  0.004  0.002  0.016  0.156  0.000  0.000  0.000  0.000  0.000  0.178
tot    0.005  0.018  0.171  0.172  0.000  0.000  0.000  0.000  0.000  0.367
 
band     5 # energy    7.18793883 # occ.  0.00000000
 
ion      s     py     pz     px    dxy    dyz    dz2    dxz  x2-y2    tot
    1  0.029  0.039  0.014  0.010  0.000  0.000  0.000  0.000  0.000  0.091
    2  0.061  0.018  0.006  0.021  0.000  0.000  0.000  0.000  0.000  0.106
tot    0.090  0.058  0.020  0.030  0.000  0.000  0.000  0.000  0.000  0.198
 
band     6 # energy    7.18793912 # occ.  0.00000000
 
ion      s     py     pz     px    dxy    dyz    dz2    dxz  x2-y2    tot
    1  0.061  0.018  0.006  0.021  0.000  0.000  0.000  0.000  0.000  0.106
    2  0.029  0.039  0.014  0.010  0.000  0.000  0.000  0.000  0.000  0.091
tot    0.090  0.058  0.020  0.030  0.000  0.000  0.000  0.000  0.000  0.198
 
band     7 # energy   14.69080913 # occ.  0.00000000
 
ion      s     py     pz     px    dxy    dyz    dz2    dxz  x2-y2    tot
    1  0.016  0.019  0.040  0.085  0.000  0.000  0.000  0.000  0.000  0.160
    2  0.013  0.024  0.050  0.069  0.000  0.000  0.000  0.000  0.000  0.155
tot    0.029  0.043  0.090  0.154  0.000  0.000  0.000  0.000  0.000  0.315
 
band     8 # energy   16.39604194 # occ.  0.00000000
 
ion      s     py     pz     px    dxy    dyz    dz2    dxz  x2-y2    tot
    1  0.000  0.014  0.085  0.037  0.000  0.000  0.000  0.000  0.000  0.136
    2  0.001  0.012  0.080  0.040  0.000  0.000  0.000  0.000  0.000  0.133
tot    0.001  0.026  0.165  0.077  0.000  0.000  0.000  0.000  0.000  0.269
 
band     9 # energy   18.51857509 # occ.  0.00000000
 
ion      s     py     pz     px    dxy    dyz    dz2    dxz  x2-y2    tot
    1  0.008  0.159  0.002  0.000  0.000  0.000  0.000  0.000  0.000  0.169
    2  0.043  0.025  0.004  0.002  0.000  0.000  0.000  0.000  0.000  0.074
tot    0.051  0.184  0.006  0.002  0.000  0.000  0.000  0.000  0.000  0.243
 
band    10 # energy   18.64612475 # occ.  0.00000000
 
ion      s     py     pz     px    dxy    dyz    dz2    dxz  x2-y2    tot
    1  0.037  0.026  0.002  0.000  0.000  0.000  0.000  0.000  0.000  0.065
    2  0.008  0.128  0.013  0.000  0.000  0.000  0.000  0.000  0.000  0.149
tot    0.045  0.154  0.016  0.001  0.000  0.000  0.000  0.000  0.000  0.215
 
band    11 # energy   20.48234363 # occ.  0.00000000
 
ion      s     py     pz     px    dxy    dyz    dz2    dxz  x2-y2    tot
    1  0.029  0.072  0.001  0.040  0.000  0.000  0.000  0.000  0.000  0.141
    2  0.016  0.134  0.012  0.012  0.000  0.000  0.000  0.000  0.000  0.174
tot    0.045  0.206  0.013  0.051  0.000  0.000  0.000  0.000  0.000  0.315
 
band    12 # energy   24.95208091 # occ.  0.00000000
 
ion      s     py     pz     px    dxy    dyz    dz2    dxz  x2-y2    tot
    1  0.031  0.000  0.004  0.017  0.000  0.000  0.000  0.000  0.000  0.053
    2  0.008  0.004  0.012  0.006  0.000  0.000  0.000  0.000  0.000  0.029
tot    0.039  0.004  0.016  0.022  0.000  0.000  0.000  0.000  0.000  0.082
 

 k-point    86 :    0.50000000 0.09285714 0.59285714     weight = 0.00555556

band     1 # energy   -1.93654611 # occ.  2.00000000
 
ion      s     py     pz     px    dxy    dyz    dz2    dxz  x2-y2    tot
    1  0.149  0.052  0.003  0.000  0.000  0.000  0.000  0.000  0.000  0.205
    2  0.243  0.032  0.002  0.000  0.000  0.000  0.000  0.000  0.000  0.277
tot    0.393  0.084  0.005  0.000  0.000  0.000  0.000  0.000  0.000  0.482
 
band     2 # energy   -1.93654606 # occ.  2.00000000
 
ion      s     py     pz     px    dxy    dyz    dz2    dxz  x2-y2    tot
    1  0.243  0.032  0.002  0.000  0.000  0.000  0.000  0.000  0.000  0.277
    2  0.149  0.052  0.003  0.000  0.000  0.000  0.000  0.000  0.000  0.205
tot    0.393  0.084  0.005  0.000  0.000  0.000  0.000  0.000  0.000  0.482
 
band     3 # energy    2.61604836 # occ.  2.00000000
 
ion      s     py     pz     px    dxy    dyz    dz2    dxz  x2-y2    tot
    1  0.004  0.004  0.028  0.141  0.000  0.000  0.000  0.000  0.000  0.177
    2  0.001  0.017  0.139  0.029  0.000  0.000  0.000  0.000  0.000  0.187
tot    0.005  0.021  0.168  0.170  0.000  0.000  0.000  0.000  0.000  0.364
 
band     4 # energy    2.61604847 # occ.  2.00000000
 
ion      s     py     pz     px    dxy    dyz    dz2    dxz  x2-y2    tot
    1  0.001  0.017  0.139  0.029  0.000  0.000  0.000  0.000  0.000  0.187
    2  0.004  0.004  0.028  0.141  0.000  0.000  0.000  0.000  0.000  0.177
tot    0.005  0.021  0.168  0.170  0.000  0.000  0.000  0.000  0.000  0.364
 
band     5 # energy    7.28884255 # occ.  0.00000000
 
ion      s     py     pz     px    dxy    dyz    dz2    dxz  x2-y2    tot
    1  0.022  0.042  0.017  0.009  0.000  0.000  0.000  0.000  0.000  0.090
    2  0.065  0.014  0.006  0.025  0.000  0.000  0.000  0.000  0.000  0.111
tot    0.088  0.056  0.022  0.034  0.000  0.000  0.000  0.000  0.000  0.201
 
band     6 # energy    7.28884281 # occ.  0.00000000
 
ion      s     py     pz     px    dxy    dyz    dz2    dxz  x2-y2    tot
    1  0.065  0.014  0.006  0.025  0.000  0.000  0.000  0.000  0.000  0.111
    2  0.022  0.042  0.017  0.009  0.000  0.000  0.000  0.000  0.000  0.090
tot    0.088  0.056  0.022  0.034  0.000  0.000  0.000  0.000  0.000  0.201
 
band     7 # energy   14.51173645 # occ.  0.00000000
 
ion      s     py     pz     px    dxy    dyz    dz2    dxz  x2-y2    tot
    1  0.015  0.024  0.043  0.071  0.000  0.000  0.000  0.000  0.000  0.153
    2  0.016  0.022  0.041  0.075  0.000  0.000  0.000  0.000  0.000  0.154
tot    0.031  0.046  0.084  0.146  0.000  0.000  0.000  0.000  0.000  0.308
 
band     8 # energy   16.41917034 # occ.  0.00000000
 
ion      s     py     pz     px    dxy    dyz    dz2    dxz  x2-y2    tot
    1  0.000  0.011  0.074  0.037  0.000  0.000  0.000  0.000  0.000  0.123
    2  0.000  0.015  0.086  0.031  0.000  0.000  0.000  0.000  0.000  0.133
tot    0.001  0.026  0.160  0.069  0.000  0.000  0.000  0.000  0.000  0.256
 
band     9 # energy   18.64508471 # occ.  0.00000000
 
ion      s     py     pz     px    dxy    dyz    dz2    dxz  x2-y2    tot
    1  0.025  0.070  0.002  0.001  0.000  0.000  0.000  0.000  0.000  0.097
    2  0.019  0.079  0.009  0.000  0.000  0.000  0.000  0.000  0.000  0.108
tot    0.044  0.149  0.011  0.001  0.000  0.000  0.000  0.000  0.000  0.205
 
band    10 # energy   18.75242012 # occ.  0.00000000
 
ion      s     py     pz     px    dxy    dyz    dz2    dxz  x2-y2    tot
    1  0.031  0.135  0.002  0.000  0.000  0.000  0.000  0.000  0.000  0.168
    2  0.034  0.108  0.010  0.001  0.000  0.000  0.000  0.000  0.000  0.154
tot    0.065  0.243  0.012  0.001  0.000  0.000  0.000  0.000  0.000  0.322
 
band    11 # energy   20.58371746 # occ.  0.00000000
 
ion      s     py     pz     px    dxy    dyz    dz2    dxz  x2-y2    tot
    1  0.008  0.158  0.010  0.009  0.000  0.000  0.000  0.000  0.000  0.186
    2  0.030  0.035  0.005  0.036  0.000  0.000  0.000  0.000  0.000  0.107
tot    0.038  0.193  0.016  0.045  0.000  0.000  0.000  0.000  0.000  0.292
 
band    12 # energy   24.34980324 # occ.  0.00000000
 
ion      s     py     pz     px    dxy    dyz    dz2    dxz  x2-y2    tot
    1  0.037  0.006  0.012  0.007  0.000  0.000  0.000  0.000  0.000  0.061
    2  0.000  0.003  0.003  0.004  0.000  0.000  0.000  0.000  0.000  0.011
tot    0.037  0.008  0.015  0.011  0.000  0.000  0.000  0.000  0.000  0.072
 

 k-point    87 :    0.50000000 0.10000000 0.60000000     weight = 0.00555556

band     1 # energy   -1.92990348 # occ.  2.00000000
 
ion      s     py     pz     px    dxy    dyz    dz2    dxz  x2-y2    tot
    1  0.228  0.035  0.002  0.000  0.000  0.000  0.000  0.000  0.000  0.266
    2  0.165  0.048  0.003  0.000  0.000  0.000  0.000  0.000  0.000  0.217
tot    0.393  0.083  0.006  0.000  0.000  0.000  0.000  0.000  0.000  0.483
 
band     2 # energy   -1.92990335 # occ.  2.00000000
 
ion      s     py     pz     px    dxy    dyz    dz2    dxz  x2-y2    tot
    1  0.165  0.048  0.003  0.000  0.000  0.000  0.000  0.000  0.000  0.217
    2  0.228  0.035  0.002  0.000  0.000  0.000  0.000  0.000  0.000  0.266
tot    0.393  0.083  0.006  0.000  0.000  0.000  0.000  0.000  0.000  0.483
 
band     3 # energy    2.57149553 # occ.  2.00000000
 
ion      s     py     pz     px    dxy    dyz    dz2    dxz  x2-y2    tot
    1  0.004  0.004  0.027  0.140  0.000  0.000  0.000  0.000  0.000  0.175
    2  0.001  0.020  0.138  0.027  0.000  0.000  0.000  0.000  0.000  0.186
tot    0.005  0.024  0.165  0.167  0.000  0.000  0.000  0.000  0.000  0.360
 
band     4 # energy    2.57149558 # occ.  2.00000000
 
ion      s     py     pz     px    dxy    dyz    dz2    dxz  x2-y2    tot
    1  0.001  0.020  0.138  0.027  0.000  0.000  0.000  0.000  0.000  0.186
    2  0.004  0.004  0.027  0.140  0.000  0.000  0.000  0.000  0.000  0.175
tot    0.005  0.024  0.165  0.167  0.000  0.000  0.000  0.000  0.000  0.360
 
band     5 # energy    7.39494601 # occ.  0.00000000
 
ion      s     py     pz     px    dxy    dyz    dz2    dxz  x2-y2    tot
    1  0.065  0.013  0.006  0.029  0.000  0.000  0.000  0.000  0.000  0.113
    2  0.021  0.042  0.018  0.009  0.000  0.000  0.000  0.000  0.000  0.090
tot    0.086  0.055  0.024  0.038  0.000  0.000  0.000  0.000  0.000  0.203
 
band     6 # energy    7.39494616 # occ.  0.00000000
 
ion      s     py     pz     px    dxy    dyz    dz2    dxz  x2-y2    tot
    1  0.021  0.042  0.018  0.009  0.000  0.000  0.000  0.000  0.000  0.090
    2  0.065  0.013  0.006  0.029  0.000  0.000  0.000  0.000  0.000  0.113
tot    0.086  0.055  0.024  0.038  0.000  0.000  0.000  0.000  0.000  0.203
 
band     7 # energy   14.32985396 # occ.  0.00000000
 
ion      s     py     pz     px    dxy    dyz    dz2    dxz  x2-y2    tot
    1  0.017  0.024  0.039  0.071  0.000  0.000  0.000  0.000  0.000  0.151
    2  0.016  0.025  0.040  0.069  0.000  0.000  0.000  0.000  0.000  0.150
tot    0.034  0.049  0.079  0.140  0.000  0.000  0.000  0.000  0.000  0.301
 
band     8 # energy   16.41793551 # occ.  0.00000000
 
ion      s     py     pz     px    dxy    dyz    dz2    dxz  x2-y2    tot
    1  0.000  0.016  0.079  0.030  0.000  0.000  0.000  0.000  0.000  0.125
    2  0.001  0.015  0.071  0.033  0.000  0.000  0.000  0.000  0.000  0.119
tot    0.001  0.030  0.150  0.063  0.000  0.000  0.000  0.000  0.000  0.244
 
band     9 # energy   18.64478214 # occ.  0.00000000
 
ion      s     py     pz     px    dxy    dyz    dz2    dxz  x2-y2    tot
    1  0.017  0.109  0.006  0.000  0.000  0.000  0.000  0.000  0.000  0.133
    2  0.031  0.057  0.004  0.000  0.000  0.000  0.000  0.000  0.000  0.091
tot    0.048  0.166  0.010  0.000  0.000  0.000  0.000  0.000  0.000  0.224
 
band    10 # energy   18.90525154 # occ.  0.00000000
 
ion      s     py     pz     px    dxy    dyz    dz2    dxz  x2-y2    tot
    1  0.050  0.029  0.008  0.002  0.000  0.000  0.000  0.000  0.000  0.089
    2  0.009  0.174  0.010  0.004  0.000  0.000  0.000  0.000  0.000  0.197
tot    0.059  0.203  0.019  0.005  0.000  0.000  0.000  0.000  0.000  0.286
 
band    11 # energy   21.12986944 # occ.  0.00000000
 
ion      s     py     pz     px    dxy    dyz    dz2    dxz  x2-y2    tot
    1  0.008  0.136  0.017  0.006  0.000  0.000  0.000  0.000  0.000  0.167
    2  0.021  0.028  0.005  0.041  0.000  0.000  0.000  0.000  0.000  0.094
tot    0.029  0.164  0.022  0.046  0.000  0.000  0.000  0.000  0.000  0.261
 
band    12 # energy   24.62417937 # occ.  0.00000000
 
ion      s     py     pz     px    dxy    dyz    dz2    dxz  x2-y2    tot
    1  0.016  0.001  0.003  0.015  0.000  0.000  0.000  0.000  0.000  0.036
    2  0.021  0.003  0.001  0.016  0.000  0.000  0.000  0.000  0.000  0.041
tot    0.037  0.004  0.004  0.031  0.000  0.000  0.000  0.000  0.000  0.077
 

 k-point    88 :    0.50000000 0.10714286 0.60714286     weight = 0.00555556

band     1 # energy   -1.92301050 # occ.  2.00000000
 
ion      s     py     pz     px    dxy    dyz    dz2    dxz  x2-y2    tot
    1  0.180  0.044  0.004  0.000  0.000  0.000  0.000  0.000  0.000  0.228
    2  0.214  0.037  0.003  0.000  0.000  0.000  0.000  0.000  0.000  0.255
tot    0.394  0.082  0.007  0.000  0.000  0.000  0.000  0.000  0.000  0.483
 
band     2 # energy   -1.92301037 # occ.  2.00000000
 
ion      s     py     pz     px    dxy    dyz    dz2    dxz  x2-y2    tot
    1  0.214  0.037  0.003  0.000  0.000  0.000  0.000  0.000  0.000  0.255
    2  0.180  0.044  0.004  0.000  0.000  0.000  0.000  0.000  0.000  0.228
tot    0.394  0.082  0.007  0.000  0.000  0.000  0.000  0.000  0.000  0.483
 
band     3 # energy    2.52675984 # occ.  2.00000000
 
ion      s     py     pz     px    dxy    dyz    dz2    dxz  x2-y2    tot
    1  0.003  0.010  0.063  0.100  0.000  0.000  0.000  0.000  0.000  0.177
    2  0.002  0.016  0.098  0.064  0.000  0.000  0.000  0.000  0.000  0.181
tot    0.005  0.026  0.161  0.164  0.000  0.000  0.000  0.000  0.000  0.357
 
band     4 # energy    2.52675998 # occ.  2.00000000
 
ion      s     py     pz     px    dxy    dyz    dz2    dxz  x2-y2    tot
    1  0.002  0.016  0.098  0.064  0.000  0.000  0.000  0.000  0.000  0.181
    2  0.003  0.010  0.063  0.100  0.000  0.000  0.000  0.000  0.000  0.177
tot    0.005  0.026  0.161  0.164  0.000  0.000  0.000  0.000  0.000  0.357
 
band     5 # energy    7.50591338 # occ.  0.00000000
 
ion      s     py     pz     px    dxy    dyz    dz2    dxz  x2-y2    tot
    1  0.062  0.014  0.007  0.031  0.000  0.000  0.000  0.000  0.000  0.114
    2  0.022  0.039  0.019  0.011  0.000  0.000  0.000  0.000  0.000  0.092
tot    0.084  0.053  0.026  0.042  0.000  0.000  0.000  0.000  0.000  0.206
 
band     6 # energy    7.50591445 # occ.  0.00000000
 
ion      s     py     pz     px    dxy    dyz    dz2    dxz  x2-y2    tot
    1  0.022  0.039  0.019  0.011  0.000  0.000  0.000  0.000  0.000  0.092
    2  0.062  0.014  0.007  0.031  0.000  0.000  0.000  0.000  0.000  0.114
tot    0.084  0.053  0.026  0.042  0.000  0.000  0.000  0.000  0.000  0.206
 
band     7 # energy   14.14597478 # occ.  0.00000000
 
ion      s     py     pz     px    dxy    dyz    dz2    dxz  x2-y2    tot
    1  0.012  0.034  0.050  0.045  0.000  0.000  0.000  0.000  0.000  0.141
    2  0.024  0.017  0.025  0.089  0.000  0.000  0.000  0.000  0.000  0.156
tot    0.036  0.051  0.075  0.134  0.000  0.000  0.000  0.000  0.000  0.297
 
band     8 # energy   14.14597494 # occ.  0.00000000
 
ion      s     py     pz     px    dxy    dyz    dz2    dxz  x2-y2    tot
    1  0.024  0.017  0.025  0.089  0.000  0.000  0.000  0.000  0.000  0.155
    2  0.012  0.034  0.050  0.045  0.000  0.000  0.000  0.000  0.000  0.141
tot    0.036  0.051  0.075  0.134  0.000  0.000  0.000  0.000  0.000  0.296
 
band     9 # energy   16.41726343 # occ.  0.00000000
 
ion      s     py     pz     px    dxy    dyz    dz2    dxz  x2-y2    tot
    1  0.001  0.016  0.066  0.031  0.000  0.000  0.000  0.000  0.000  0.114
    2  0.001  0.018  0.077  0.027  0.000  0.000  0.000  0.000  0.000  0.123
tot    0.001  0.034  0.143  0.059  0.000  0.000  0.000  0.000  0.000  0.237
 
band    10 # energy   18.68801272 # occ.  0.00000000
 
ion      s     py     pz     px    dxy    dyz    dz2    dxz  x2-y2    tot
    1  0.012  0.105  0.005  0.001  0.000  0.000  0.000  0.000  0.000  0.122
    2  0.029  0.037  0.005  0.000  0.000  0.000  0.000  0.000  0.000  0.071
tot    0.041  0.142  0.009  0.001  0.000  0.000  0.000  0.000  0.000  0.193
 
band    11 # energy   25.18727912 # occ.  0.00000000
 
ion      s     py     pz     px    dxy    dyz    dz2    dxz  x2-y2    tot
    1  0.069  0.004  0.005  0.001  0.000  0.000  0.000  0.000  0.000  0.079
    2  0.009  0.003  0.014  0.011  0.000  0.000  0.000  0.000  0.000  0.037
tot    0.078  0.007  0.019  0.013  0.000  0.000  0.000  0.000  0.000  0.116
 
band    12 # energy   27.60388618 # occ.  0.00000000
 
ion      s     py     pz     px    dxy    dyz    dz2    dxz  x2-y2    tot
    1  0.002  0.006  0.001  0.030  0.000  0.000  0.000  0.000  0.000  0.039
    2  0.017  0.001  0.049  0.004  0.000  0.000  0.000  0.000  0.000  0.071
tot    0.018  0.007  0.050  0.034  0.000  0.000  0.000  0.000  0.000  0.110
 

 k-point    89 :    0.50000000 0.11428571 0.61428571     weight = 0.00555556

band     1 # energy   -1.91591903 # occ.  2.00000000
 
ion      s     py     pz     px    dxy    dyz    dz2    dxz  x2-y2    tot
    1  0.309  0.018  0.002  0.000  0.000  0.000  0.000  0.000  0.000  0.329
    2  0.086  0.063  0.006  0.000  0.000  0.000  0.000  0.000  0.000  0.155
tot    0.395  0.081  0.008  0.000  0.000  0.000  0.000  0.000  0.000  0.484
 
band     2 # energy   -1.91591900 # occ.  2.00000000
 
ion      s     py     pz     px    dxy    dyz    dz2    dxz  x2-y2    tot
    1  0.086  0.063  0.006  0.000  0.000  0.000  0.000  0.000  0.000  0.155
    2  0.309  0.018  0.002  0.000  0.000  0.000  0.000  0.000  0.000  0.329
tot    0.395  0.081  0.008  0.000  0.000  0.000  0.000  0.000  0.000  0.484
 
band     3 # energy    2.48219114 # occ.  2.00000000
 
ion      s     py     pz     px    dxy    dyz    dz2    dxz  x2-y2    tot
    1  0.005  0.002  0.013  0.149  0.000  0.000  0.000  0.000  0.000  0.169
    2  0.000  0.027  0.145  0.013  0.000  0.000  0.000  0.000  0.000  0.185
tot    0.005  0.029  0.158  0.162  0.000  0.000  0.000  0.000  0.000  0.354
 
band     4 # energy    2.48219122 # occ.  2.00000000
 
ion      s     py     pz     px    dxy    dyz    dz2    dxz  x2-y2    tot
    1  0.000  0.027  0.145  0.013  0.000  0.000  0.000  0.000  0.000  0.185
    2  0.005  0.002  0.013  0.149  0.000  0.000  0.000  0.000  0.000  0.169
tot    0.005  0.029  0.158  0.162  0.000  0.000  0.000  0.000  0.000  0.354
 
band     5 # energy    7.62139693 # occ.  0.00000000
 
ion      s     py     pz     px    dxy    dyz    dz2    dxz  x2-y2    tot
    1  0.015  0.043  0.023  0.008  0.000  0.000  0.000  0.000  0.000  0.089
    2  0.067  0.009  0.005  0.037  0.000  0.000  0.000  0.000  0.000  0.119
tot    0.082  0.052  0.028  0.046  0.000  0.000  0.000  0.000  0.000  0.208
 
band     6 # energy    7.62139768 # occ.  0.00000000
 
ion      s     py     pz     px    dxy    dyz    dz2    dxz  x2-y2    tot
    1  0.067  0.009  0.005  0.037  0.000  0.000  0.000  0.000  0.000  0.119
    2  0.015  0.043  0.023  0.008  0.000  0.000  0.000  0.000  0.000  0.089
tot    0.082  0.052  0.028  0.046  0.000  0.000  0.000  0.000  0.000  0.208
 
band     7 # energy   13.96078033 # occ.  0.00000000
 
ion      s     py     pz     px    dxy    dyz    dz2    dxz  x2-y2    tot
    1  0.019  0.027  0.037  0.063  0.000  0.000  0.000  0.000  0.000  0.146
    2  0.020  0.026  0.035  0.066  0.000  0.000  0.000  0.000  0.000  0.147
tot    0.038  0.053  0.072  0.129  0.000  0.000  0.000  0.000  0.000  0.293
 
band     8 # energy   16.41247998 # occ.  0.00000000
 
ion      s     py     pz     px    dxy    dyz    dz2    dxz  x2-y2    tot
    1  0.000  0.018  0.078  0.034  0.000  0.000  0.000  0.000  0.000  0.129
    2  0.000  0.017  0.075  0.036  0.000  0.000  0.000  0.000  0.000  0.128
tot    0.001  0.035  0.153  0.069  0.000  0.000  0.000  0.000  0.000  0.257
 
band     9 # energy   18.67203413 # occ.  0.00000000
 
ion      s     py     pz     px    dxy    dyz    dz2    dxz  x2-y2    tot
    1  0.028  0.087  0.002  0.001  0.000  0.000  0.000  0.000  0.000  0.118
    2  0.024  0.108  0.004  0.002  0.000  0.000  0.000  0.000  0.000  0.139
tot    0.052  0.196  0.005  0.003  0.000  0.000  0.000  0.000  0.000  0.256
 
band    10 # energy   18.75783609 # occ.  0.00000000
 
ion      s     py     pz     px    dxy    dyz    dz2    dxz  x2-y2    tot
    1  0.020  0.124  0.026  0.000  0.000  0.000  0.000  0.000  0.000  0.170
    2  0.036  0.077  0.004  0.004  0.000  0.000  0.000  0.000  0.000  0.120
tot    0.056  0.200  0.029  0.004  0.000  0.000  0.000  0.000  0.000  0.290
 
band    11 # energy   21.28075109 # occ.  0.00000000
 
ion      s     py     pz     px    dxy    dyz    dz2    dxz  x2-y2    tot
    1  0.033  0.021  0.000  0.030  0.000  0.000  0.000  0.000  0.000  0.084
    2  0.001  0.138  0.011  0.007  0.000  0.000  0.000  0.000  0.000  0.157
tot    0.034  0.159  0.011  0.037  0.000  0.000  0.000  0.000  0.000  0.241
 
band    12 # energy   23.24668417 # occ.  0.00000000
 
ion      s     py     pz     px    dxy    dyz    dz2    dxz  x2-y2    tot
    1  0.003  0.005  0.014  0.001  0.000  0.000  0.000  0.000  0.000  0.023
    2  0.003  0.006  0.019  0.003  0.000  0.000  0.000  0.000  0.000  0.032
tot    0.007  0.011  0.033  0.004  0.000  0.000  0.000  0.000  0.000  0.054
 

 k-point    90 :    0.50000000 0.12142857 0.62142857     weight = 0.00555556

band     1 # energy   -1.90867686 # occ.  2.00000000
 
ion      s     py     pz     px    dxy    dyz    dz2    dxz  x2-y2    tot
    1  0.183  0.043  0.005  0.000  0.000  0.000  0.000  0.000  0.000  0.230
    2  0.213  0.037  0.004  0.000  0.000  0.000  0.000  0.000  0.000  0.254
tot    0.396  0.079  0.009  0.000  0.000  0.000  0.000  0.000  0.000  0.485
 
band     2 # energy   -1.90867663 # occ.  2.00000000
 
ion      s     py     pz     px    dxy    dyz    dz2    dxz  x2-y2    tot
    1  0.214  0.037  0.004  0.000  0.000  0.000  0.000  0.000  0.000  0.254
    2  0.183  0.043  0.005  0.000  0.000  0.000  0.000  0.000  0.000  0.230
tot    0.396  0.079  0.009  0.000  0.000  0.000  0.000  0.000  0.000  0.485
 
band     3 # energy    2.43812673 # occ.  2.00000000
 
ion      s     py     pz     px    dxy    dyz    dz2    dxz  x2-y2    tot
    1  0.004  0.006  0.030  0.128  0.000  0.000  0.000  0.000  0.000  0.169
    2  0.001  0.026  0.124  0.031  0.000  0.000  0.000  0.000  0.000  0.182
tot    0.005  0.032  0.155  0.159  0.000  0.000  0.000  0.000  0.000  0.351
 
band     4 # energy    2.43812682 # occ.  2.00000000
 
ion      s     py     pz     px    dxy    dyz    dz2    dxz  x2-y2    tot
    1  0.001  0.026  0.124  0.031  0.000  0.000  0.000  0.000  0.000  0.182
    2  0.004  0.006  0.030  0.128  0.000  0.000  0.000  0.000  0.000  0.169
tot    0.005  0.032  0.155  0.159  0.000  0.000  0.000  0.000  0.000  0.351
 
band     5 # energy    7.74114798 # occ.  0.00000000
 
ion      s     py     pz     px    dxy    dyz    dz2    dxz  x2-y2    tot
    1  0.034  0.029  0.017  0.021  0.000  0.000  0.000  0.000  0.000  0.101
    2  0.046  0.022  0.013  0.028  0.000  0.000  0.000  0.000  0.000  0.109
tot    0.080  0.051  0.030  0.049  0.000  0.000  0.000  0.000  0.000  0.210
 
band     6 # energy    7.74114800 # occ.  0.00000000
 
ion      s     py     pz     px    dxy    dyz    dz2    dxz  x2-y2    tot
    1  0.046  0.022  0.013  0.028  0.000  0.000  0.000  0.000  0.000  0.109
    2  0.034  0.029  0.017  0.021  0.000  0.000  0.000  0.000  0.000  0.101
tot    0.080  0.051  0.030  0.049  0.000  0.000  0.000  0.000  0.000  0.210
 
band     7 # energy   13.77476009 # occ.  0.00000000
 
ion      s     py     pz     px    dxy    dyz    dz2    dxz  x2-y2    tot
    1  0.021  0.026  0.033  0.065  0.000  0.000  0.000  0.000  0.000  0.146
    2  0.019  0.029  0.036  0.059  0.000  0.000  0.000  0.000  0.000  0.144
tot    0.041  0.055  0.069  0.124  0.000  0.000  0.000  0.000  0.000  0.289
 
band     8 # energy   16.41526846 # occ.  0.00000000
 
ion      s     py     pz     px    dxy    dyz    dz2    dxz  x2-y2    tot
    1  0.001  0.023  0.075  0.033  0.000  0.000  0.000  0.000  0.000  0.132
    2  0.001  0.020  0.070  0.035  0.000  0.000  0.000  0.000  0.000  0.126
tot    0.001  0.043  0.145  0.068  0.000  0.000  0.000  0.000  0.000  0.258
 
band     9 # energy   18.68905382 # occ.  0.00000000
 
ion      s     py     pz     px    dxy    dyz    dz2    dxz  x2-y2    tot
    1  0.029  0.057  0.006  0.000  0.000  0.000  0.000  0.000  0.000  0.091
    2  0.017  0.095  0.011  0.000  0.000  0.000  0.000  0.000  0.000  0.123
tot    0.046  0.152  0.016  0.000  0.000  0.000  0.000  0.000  0.000  0.214
 
band    10 # energy   20.58621416 # occ.  0.00000000
 
ion      s     py     pz     px    dxy    dyz    dz2    dxz  x2-y2    tot
    1  0.030  0.020  0.008  0.024  0.000  0.000  0.000  0.000  0.000  0.083
    2  0.003  0.166  0.014  0.005  0.000  0.000  0.000  0.000  0.000  0.189
tot    0.034  0.186  0.022  0.030  0.000  0.000  0.000  0.000  0.000  0.272
 
band    11 # energy   23.37445206 # occ.  0.00000000
 
ion      s     py     pz     px    dxy    dyz    dz2    dxz  x2-y2    tot
    1  0.002  0.000  0.038  0.006  0.000  0.000  0.000  0.000  0.000  0.046
    2  0.006  0.011  0.005  0.001  0.000  0.000  0.000  0.000  0.000  0.024
tot    0.008  0.011  0.044  0.006  0.000  0.000  0.000  0.000  0.000  0.069
 
band    12 # energy   29.01037846 # occ.  0.00000000
 
ion      s     py     pz     px    dxy    dyz    dz2    dxz  x2-y2    tot
    1  0.016  0.003  0.006  0.008  0.000  0.000  0.000  0.000  0.000  0.032
    2  0.004  0.008  0.016  0.053  0.000  0.000  0.000  0.000  0.000  0.082
tot    0.019  0.012  0.022  0.061  0.000  0.000  0.000  0.000  0.000  0.114
 

 k-point    91 :    0.50000000 0.12857143 0.62857143     weight = 0.00555556

band     1 # energy   -1.90134460 # occ.  2.00000000
 
ion      s     py     pz     px    dxy    dyz    dz2    dxz  x2-y2    tot
    1  0.203  0.038  0.005  0.000  0.000  0.000  0.000  0.000  0.000  0.246
    2  0.194  0.040  0.005  0.000  0.000  0.000  0.000  0.000  0.000  0.239
tot    0.397  0.078  0.010  0.000  0.000  0.000  0.000  0.000  0.000  0.485
 
band     2 # energy   -1.90134457 # occ.  2.00000000
 
ion      s     py     pz     px    dxy    dyz    dz2    dxz  x2-y2    tot
    1  0.194  0.040  0.005  0.000  0.000  0.000  0.000  0.000  0.000  0.239
    2  0.203  0.038  0.005  0.000  0.000  0.000  0.000  0.000  0.000  0.246
tot    0.397  0.078  0.010  0.000  0.000  0.000  0.000  0.000  0.000  0.485
 
band     3 # energy    2.39486254 # occ.  2.00000000
 
ion      s     py     pz     px    dxy    dyz    dz2    dxz  x2-y2    tot
    1  0.003  0.014  0.063  0.092  0.000  0.000  0.000  0.000  0.000  0.172
    2  0.002  0.020  0.088  0.065  0.000  0.000  0.000  0.000  0.000  0.176
tot    0.005  0.035  0.151  0.157  0.000  0.000  0.000  0.000  0.000  0.348
 
band     4 # energy    2.39486263 # occ.  2.00000000
 
ion      s     py     pz     px    dxy    dyz    dz2    dxz  x2-y2    tot
    1  0.002  0.020  0.088  0.065  0.000  0.000  0.000  0.000  0.000  0.176
    2  0.003  0.014  0.063  0.092  0.000  0.000  0.000  0.000  0.000  0.172
tot    0.005  0.035  0.151  0.157  0.000  0.000  0.000  0.000  0.000  0.348
 
band     5 # energy    7.86485013 # occ.  0.00000000
 
ion      s     py     pz     px    dxy    dyz    dz2    dxz  x2-y2    tot
    1  0.025  0.034  0.022  0.017  0.000  0.000  0.000  0.000  0.000  0.097
    2  0.054  0.016  0.010  0.036  0.000  0.000  0.000  0.000  0.000  0.115
tot    0.078  0.049  0.031  0.053  0.000  0.000  0.000  0.000  0.000  0.212
 
band     6 # energy    7.86485032 # occ.  0.00000000
 
ion      s     py     pz     px    dxy    dyz    dz2    dxz  x2-y2    tot
    1  0.054  0.016  0.010  0.036  0.000  0.000  0.000  0.000  0.000  0.115
    2  0.025  0.034  0.022  0.017  0.000  0.000  0.000  0.000  0.000  0.097
tot    0.078  0.049  0.031  0.053  0.000  0.000  0.000  0.000  0.000  0.212
 
band     7 # energy   13.58830687 # occ.  0.00000000
 
ion      s     py     pz     px    dxy    dyz    dz2    dxz  x2-y2    tot
    1  0.012  0.041  0.048  0.035  0.000  0.000  0.000  0.000  0.000  0.135
    2  0.030  0.017  0.020  0.085  0.000  0.000  0.000  0.000  0.000  0.151
tot    0.043  0.057  0.067  0.119  0.000  0.000  0.000  0.000  0.000  0.287
 
band     8 # energy   13.58830691 # occ.  0.00000000
 
ion      s     py     pz     px    dxy    dyz    dz2    dxz  x2-y2    tot
    1  0.030  0.017  0.020  0.085  0.000  0.000  0.000  0.000  0.000  0.151
    2  0.012  0.041  0.048  0.035  0.000  0.000  0.000  0.000  0.000  0.135
tot    0.043  0.057  0.067  0.119  0.000  0.000  0.000  0.000  0.000  0.287
 
band     9 # energy   16.41135499 # occ.  0.00000000
 
ion      s     py     pz     px    dxy    dyz    dz2    dxz  x2-y2    tot
    1  0.000  0.023  0.080  0.028  0.000  0.000  0.000  0.000  0.000  0.132
    2  0.000  0.018  0.062  0.037  0.000  0.000  0.000  0.000  0.000  0.117
tot    0.001  0.041  0.142  0.065  0.000  0.000  0.000  0.000  0.000  0.249
 
band    10 # energy   16.41135569 # occ.  0.00000000
 
ion      s     py     pz     px    dxy    dyz    dz2    dxz  x2-y2    tot
    1  0.000  0.018  0.062  0.037  0.000  0.000  0.000  0.000  0.000  0.117
    2  0.000  0.023  0.080  0.028  0.000  0.000  0.000  0.000  0.000  0.132
tot    0.001  0.041  0.142  0.065  0.000  0.000  0.000  0.000  0.000  0.249
 
band    11 # energy   18.72500079 # occ.  0.00000000
 
ion      s     py     pz     px    dxy    dyz    dz2    dxz  x2-y2    tot
    1  0.038  0.035  0.007  0.000  0.000  0.000  0.000  0.000  0.000  0.081
    2  0.011  0.119  0.025  0.000  0.000  0.000  0.000  0.000  0.000  0.156
tot    0.049  0.155  0.033  0.000  0.000  0.000  0.000  0.000  0.000  0.237
 
band    12 # energy   28.90592321 # occ.  0.00000000
 
ion      s     py     pz     px    dxy    dyz    dz2    dxz  x2-y2    tot
    1  0.005  0.011  0.006  0.011  0.000  0.000  0.000  0.000  0.000  0.033
    2  0.016  0.002  0.002  0.060  0.000  0.000  0.000  0.000  0.000  0.079
tot    0.021  0.013  0.008  0.071  0.000  0.000  0.000  0.000  0.000  0.113
 

 k-point    92 :    0.50000000 0.13571429 0.63571429     weight = 0.00555556

band     1 # energy   -1.89397806 # occ.  2.00000000
 
ion      s     py     pz     px    dxy    dyz    dz2    dxz  x2-y2    tot
    1  0.285  0.022  0.003  0.000  0.000  0.000  0.000  0.000  0.000  0.310
    2  0.113  0.055  0.008  0.000  0.000  0.000  0.000  0.000  0.000  0.176
tot    0.398  0.076  0.011  0.000  0.000  0.000  0.000  0.000  0.000  0.486
 
band     2 # energy   -1.89397804 # occ.  2.00000000
 
ion      s     py     pz     px    dxy    dyz    dz2    dxz  x2-y2    tot
    1  0.113  0.055  0.008  0.000  0.000  0.000  0.000  0.000  0.000  0.176
    2  0.285  0.022  0.003  0.000  0.000  0.000  0.000  0.000  0.000  0.310
tot    0.398  0.076  0.011  0.000  0.000  0.000  0.000  0.000  0.000  0.486
 
band     3 # energy    2.35267669 # occ.  2.00000000
 
ion      s     py     pz     px    dxy    dyz    dz2    dxz  x2-y2    tot
    1  0.003  0.016  0.062  0.090  0.000  0.000  0.000  0.000  0.000  0.171
    2  0.002  0.022  0.086  0.065  0.000  0.000  0.000  0.000  0.000  0.175
tot    0.005  0.038  0.148  0.155  0.000  0.000  0.000  0.000  0.000  0.345
 
band     4 # energy    2.35267677 # occ.  2.00000000
 
ion      s     py     pz     px    dxy    dyz    dz2    dxz  x2-y2    tot
    1  0.002  0.022  0.086  0.065  0.000  0.000  0.000  0.000  0.000  0.175
    2  0.003  0.016  0.062  0.090  0.000  0.000  0.000  0.000  0.000  0.171
tot    0.005  0.038  0.148  0.155  0.000  0.000  0.000  0.000  0.000  0.345
 
band     5 # energy    7.99223828 # occ.  0.00000000
 
ion      s     py     pz     px    dxy    dyz    dz2    dxz  x2-y2    tot
    1  0.044  0.020  0.014  0.033  0.000  0.000  0.000  0.000  0.000  0.111
    2  0.032  0.028  0.019  0.024  0.000  0.000  0.000  0.000  0.000  0.103
tot    0.076  0.048  0.033  0.057  0.000  0.000  0.000  0.000  0.000  0.214
 
band     6 # energy    7.99223867 # occ.  0.00000000
 
ion      s     py     pz     px    dxy    dyz    dz2    dxz  x2-y2    tot
    1  0.032  0.028  0.019  0.024  0.000  0.000  0.000  0.000  0.000  0.103
    2  0.044  0.020  0.014  0.033  0.000  0.000  0.000  0.000  0.000  0.111
tot    0.076  0.048  0.033  0.057  0.000  0.000  0.000  0.000  0.000  0.214
 
band     7 # energy   13.40175798 # occ.  0.00000000
 
ion      s     py     pz     px    dxy    dyz    dz2    dxz  x2-y2    tot
    1  0.022  0.030  0.033  0.057  0.000  0.000  0.000  0.000  0.000  0.142
    2  0.023  0.029  0.032  0.058  0.000  0.000  0.000  0.000  0.000  0.142
tot    0.045  0.059  0.066  0.115  0.000  0.000  0.000  0.000  0.000  0.285
 
band     8 # energy   13.40175803 # occ.  0.00000000
 
ion      s     py     pz     px    dxy    dyz    dz2    dxz  x2-y2    tot
    1  0.023  0.029  0.032  0.058  0.000  0.000  0.000  0.000  0.000  0.142
    2  0.022  0.030  0.033  0.057  0.000  0.000  0.000  0.000  0.000  0.142
tot    0.045  0.059  0.066  0.115  0.000  0.000  0.000  0.000  0.000  0.285
 
band     9 # energy   16.41059860 # occ.  0.00000000
 
ion      s     py     pz     px    dxy    dyz    dz2    dxz  x2-y2    tot
    1  0.000  0.019  0.061  0.038  0.000  0.000  0.000  0.000  0.000  0.118
    2  0.000  0.025  0.080  0.029  0.000  0.000  0.000  0.000  0.000  0.134
tot    0.001  0.043  0.141  0.067  0.000  0.000  0.000  0.000  0.000  0.252
 
band    10 # energy   16.41059957 # occ.  0.00000000
 
ion      s     py     pz     px    dxy    dyz    dz2    dxz  x2-y2    tot
    1  0.000  0.025  0.080  0.029  0.000  0.000  0.000  0.000  0.000  0.134
    2  0.000  0.019  0.061  0.038  0.000  0.000  0.000  0.000  0.000  0.118
tot    0.001  0.043  0.141  0.067  0.000  0.000  0.000  0.000  0.000  0.252
 
band    11 # energy   18.73862941 # occ.  0.00000000
 
ion      s     py     pz     px    dxy    dyz    dz2    dxz  x2-y2    tot
    1  0.036  0.044  0.010  0.000  0.000  0.000  0.000  0.000  0.000  0.089
    2  0.014  0.111  0.026  0.000  0.000  0.000  0.000  0.000  0.000  0.150
tot    0.050  0.154  0.036  0.000  0.000  0.000  0.000  0.000  0.000  0.240
 
band    12 # energy   23.88533938 # occ.  0.00000000
 
ion      s     py     pz     px    dxy    dyz    dz2    dxz  x2-y2    tot
    1  0.018  0.016  0.016  0.017  0.000  0.000  0.000  0.000  0.000  0.066
    2  0.010  0.012  0.024  0.000  0.000  0.000  0.000  0.000  0.000  0.046
tot    0.028  0.027  0.039  0.017  0.000  0.000  0.000  0.000  0.000  0.112
 

 k-point    93 :    0.50000000 0.14285714 0.64285714     weight = 0.00555556

band     1 # energy   -1.88663686 # occ.  2.00000000
 
ion      s     py     pz     px    dxy    dyz    dz2    dxz  x2-y2    tot
    1  0.265  0.025  0.004  0.000  0.000  0.000  0.000  0.000  0.000  0.295
    2  0.134  0.050  0.008  0.000  0.000  0.000  0.000  0.000  0.000  0.192
tot    0.399  0.075  0.013  0.000  0.000  0.000  0.000  0.000  0.000  0.487
 
band     2 # energy   -1.88663684 # occ.  2.00000000
 
ion      s     py     pz     px    dxy    dyz    dz2    dxz  x2-y2    tot
    1  0.134  0.050  0.008  0.000  0.000  0.000  0.000  0.000  0.000  0.192
    2  0.265  0.025  0.004  0.000  0.000  0.000  0.000  0.000  0.000  0.295
tot    0.399  0.075  0.013  0.000  0.000  0.000  0.000  0.000  0.000  0.487
 
band     3 # energy    2.31182524 # occ.  2.00000000
 
ion      s     py     pz     px    dxy    dyz    dz2    dxz  x2-y2    tot
    1  0.002  0.020  0.071  0.078  0.000  0.000  0.000  0.000  0.000  0.171
    2  0.002  0.021  0.074  0.075  0.000  0.000  0.000  0.000  0.000  0.172
tot    0.005  0.041  0.144  0.153  0.000  0.000  0.000  0.000  0.000  0.343
 
band     4 # energy    2.31182534 # occ.  2.00000000
 
ion      s     py     pz     px    dxy    dyz    dz2    dxz  x2-y2    tot
    1  0.002  0.021  0.074  0.075  0.000  0.000  0.000  0.000  0.000  0.172
    2  0.002  0.020  0.071  0.078  0.000  0.000  0.000  0.000  0.000  0.171
tot    0.005  0.041  0.144  0.153  0.000  0.000  0.000  0.000  0.000  0.343
 
band     5 # energy    8.12306329 # occ.  0.00000000
 
ion      s     py     pz     px    dxy    dyz    dz2    dxz  x2-y2    tot
    1  0.043  0.020  0.014  0.035  0.000  0.000  0.000  0.000  0.000  0.112
    2  0.032  0.027  0.020  0.026  0.000  0.000  0.000  0.000  0.000  0.104
tot    0.074  0.047  0.034  0.061  0.000  0.000  0.000  0.000  0.000  0.216
 
band     6 # energy    8.12306336 # occ.  0.00000000
 
ion      s     py     pz     px    dxy    dyz    dz2    dxz  x2-y2    tot
    1  0.032  0.027  0.020  0.026  0.000  0.000  0.000  0.000  0.000  0.104
    2  0.043  0.020  0.014  0.035  0.000  0.000  0.000  0.000  0.000  0.112
tot    0.074  0.047  0.034  0.061  0.000  0.000  0.000  0.000  0.000  0.216
 
band     7 # energy   13.21540246 # occ.  0.00000000
 
ion      s     py     pz     px    dxy    dyz    dz2    dxz  x2-y2    tot
    1  0.018  0.038  0.040  0.042  0.000  0.000  0.000  0.000  0.000  0.137
    2  0.030  0.023  0.024  0.069  0.000  0.000  0.000  0.000  0.000  0.146
tot    0.047  0.060  0.064  0.111  0.000  0.000  0.000  0.000  0.000  0.283
 
band     8 # energy   13.21540250 # occ.  0.00000000
 
ion      s     py     pz     px    dxy    dyz    dz2    dxz  x2-y2    tot
    1  0.030  0.023  0.024  0.069  0.000  0.000  0.000  0.000  0.000  0.146
    2  0.018  0.038  0.040  0.042  0.000  0.000  0.000  0.000  0.000  0.137
tot    0.047  0.060  0.064  0.111  0.000  0.000  0.000  0.000  0.000  0.283
 
band     9 # energy   16.41023692 # occ.  0.00000000
 
ion      s     py     pz     px    dxy    dyz    dz2    dxz  x2-y2    tot
    1  0.000  0.020  0.062  0.038  0.000  0.000  0.000  0.000  0.000  0.121
    2  0.000  0.026  0.078  0.030  0.000  0.000  0.000  0.000  0.000  0.134
tot    0.001  0.046  0.140  0.068  0.000  0.000  0.000  0.000  0.000  0.255
 
band    10 # energy   16.41023929 # occ.  0.00000000
 
ion      s     py     pz     px    dxy    dyz    dz2    dxz  x2-y2    tot
    1  0.000  0.026  0.078  0.030  0.000  0.000  0.000  0.000  0.000  0.134
    2  0.000  0.020  0.062  0.038  0.000  0.000  0.000  0.000  0.000  0.121
tot    0.001  0.046  0.140  0.068  0.000  0.000  0.000  0.000  0.000  0.255
 
band    11 # energy   18.75216347 # occ.  0.00000000
 
ion      s     py     pz     px    dxy    dyz    dz2    dxz  x2-y2    tot
    1  0.038  0.036  0.009  0.000  0.000  0.000  0.000  0.000  0.000  0.084
    2  0.012  0.117  0.030  0.000  0.000  0.000  0.000  0.000  0.000  0.159
tot    0.050  0.153  0.040  0.000  0.000  0.000  0.000  0.000  0.000  0.243
 
band    12 # energy   22.00695314 # occ.  0.00000000
 
ion      s     py     pz     px    dxy    dyz    dz2    dxz  x2-y2    tot
    1  0.006  0.022  0.005  0.046  0.000  0.000  0.000  0.000  0.000  0.079
    2  0.005  0.114  0.024  0.004  0.000  0.000  0.000  0.000  0.000  0.147
tot    0.012  0.136  0.029  0.049  0.000  0.000  0.000  0.000  0.000  0.226
 

 k-point    94 :    0.50000000 0.15000000 0.65000000     weight = 0.00555556

band     1 # energy   -1.87938174 # occ.  2.00000000
 
ion      s     py     pz     px    dxy    dyz    dz2    dxz  x2-y2    tot
    1  0.192  0.038  0.007  0.000  0.000  0.000  0.000  0.000  0.000  0.238
    2  0.208  0.035  0.007  0.000  0.000  0.000  0.000  0.000  0.000  0.250
tot    0.400  0.073  0.014  0.000  0.000  0.000  0.000  0.000  0.000  0.488
 
band     2 # energy   -1.87938170 # occ.  2.00000000
 
ion      s     py     pz     px    dxy    dyz    dz2    dxz  x2-y2    tot
    1  0.208  0.035  0.007  0.000  0.000  0.000  0.000  0.000  0.000  0.250
    2  0.192  0.038  0.007  0.000  0.000  0.000  0.000  0.000  0.000  0.238
tot    0.400  0.073  0.014  0.000  0.000  0.000  0.000  0.000  0.000  0.488
 
band     3 # energy    2.27254419 # occ.  2.00000000
 
ion      s     py     pz     px    dxy    dyz    dz2    dxz  x2-y2    tot
    1  0.002  0.022  0.072  0.074  0.000  0.000  0.000  0.000  0.000  0.170
    2  0.002  0.021  0.069  0.077  0.000  0.000  0.000  0.000  0.000  0.170
tot    0.004  0.044  0.141  0.151  0.000  0.000  0.000  0.000  0.000  0.340
 
band     4 # energy    2.27254428 # occ.  2.00000000
 
ion      s     py     pz     px    dxy    dyz    dz2    dxz  x2-y2    tot
    1  0.002  0.021  0.069  0.077  0.000  0.000  0.000  0.000  0.000  0.170
    2  0.002  0.022  0.072  0.074  0.000  0.000  0.000  0.000  0.000  0.170
tot    0.004  0.044  0.141  0.151  0.000  0.000  0.000  0.000  0.000  0.340
 
band     5 # energy    8.25708722 # occ.  0.00000000
 
ion      s     py     pz     px    dxy    dyz    dz2    dxz  x2-y2    tot
    1  0.048  0.015  0.012  0.043  0.000  0.000  0.000  0.000  0.000  0.118
    2  0.024  0.030  0.023  0.022  0.000  0.000  0.000  0.000  0.000  0.099
tot    0.072  0.045  0.035  0.064  0.000  0.000  0.000  0.000  0.000  0.217
 
band     6 # energy    8.25708737 # occ.  0.00000000
 
ion      s     py     pz     px    dxy    dyz    dz2    dxz  x2-y2    tot
    1  0.024  0.030  0.023  0.022  0.000  0.000  0.000  0.000  0.000  0.099
    2  0.048  0.015  0.012  0.043  0.000  0.000  0.000  0.000  0.000  0.118
tot    0.072  0.045  0.035  0.064  0.000  0.000  0.000  0.000  0.000  0.217
 
band     7 # energy   13.02949729 # occ.  0.00000000
 
ion      s     py     pz     px    dxy    dyz    dz2    dxz  x2-y2    tot
    1  0.025  0.030  0.031  0.054  0.000  0.000  0.000  0.000  0.000  0.141
    2  0.025  0.031  0.032  0.053  0.000  0.000  0.000  0.000  0.000  0.141
tot    0.050  0.062  0.063  0.107  0.000  0.000  0.000  0.000  0.000  0.282
 
band     8 # energy   13.02949733 # occ.  0.00000000
 
ion      s     py     pz     px    dxy    dyz    dz2    dxz  x2-y2    tot
    1  0.025  0.031  0.032  0.053  0.000  0.000  0.000  0.000  0.000  0.141
    2  0.025  0.030  0.031  0.054  0.000  0.000  0.000  0.000  0.000  0.141
tot    0.050  0.062  0.063  0.107  0.000  0.000  0.000  0.000  0.000  0.282
 
band     9 # energy   16.41018197 # occ.  0.00000000
 
ion      s     py     pz     px    dxy    dyz    dz2    dxz  x2-y2    tot
    1  0.000  0.018  0.052  0.044  0.000  0.000  0.000  0.000  0.000  0.114
    2  0.000  0.030  0.086  0.026  0.000  0.000  0.000  0.000  0.000  0.143
tot    0.000  0.049  0.138  0.070  0.000  0.000  0.000  0.000  0.000  0.257
 
band    10 # energy   16.41018299 # occ.  0.00000000
 
ion      s     py     pz     px    dxy    dyz    dz2    dxz  x2-y2    tot
    1  0.000  0.031  0.086  0.026  0.000  0.000  0.000  0.000  0.000  0.143
    2  0.000  0.018  0.052  0.044  0.000  0.000  0.000  0.000  0.000  0.114
tot    0.000  0.049  0.138  0.070  0.000  0.000  0.000  0.000  0.000  0.257
 
band    11 # energy   23.29426836 # occ.  0.00000000
 
ion      s     py     pz     px    dxy    dyz    dz2    dxz  x2-y2    tot
    1  0.003  0.016  0.000  0.005  0.000  0.000  0.000  0.000  0.000  0.024
    2  0.010  0.021  0.018  0.007  0.000  0.000  0.000  0.000  0.000  0.056
tot    0.012  0.037  0.019  0.012  0.000  0.000  0.000  0.000  0.000  0.080
 
band    12 # energy   28.39389440 # occ.  0.00000000
 
ion      s     py     pz     px    dxy    dyz    dz2    dxz  x2-y2    tot
    1  0.011  0.000  0.022  0.021  0.000  0.000  0.000  0.000  0.000  0.055
    2  0.002  0.008  0.010  0.055  0.000  0.000  0.000  0.000  0.000  0.075
tot    0.013  0.008  0.032  0.077  0.000  0.000  0.000  0.000  0.000  0.129
 

 k-point    95 :    0.50000000 0.15714286 0.65714286     weight = 0.00555556

band     1 # energy   -1.87226758 # occ.  2.00000000
 
ion      s     py     pz     px    dxy    dyz    dz2    dxz  x2-y2    tot
    1  0.192  0.037  0.008  0.000  0.000  0.000  0.000  0.000  0.000  0.237
    2  0.210  0.034  0.007  0.000  0.000  0.000  0.000  0.000  0.000  0.251
tot    0.401  0.071  0.016  0.000  0.000  0.000  0.000  0.000  0.000  0.488
 
band     2 # energy   -1.87226753 # occ.  2.00000000
 
ion      s     py     pz     px    dxy    dyz    dz2    dxz  x2-y2    tot
    1  0.210  0.034  0.007  0.000  0.000  0.000  0.000  0.000  0.000  0.251
    2  0.192  0.037  0.008  0.000  0.000  0.000  0.000  0.000  0.000  0.237
tot    0.402  0.071  0.016  0.000  0.000  0.000  0.000  0.000  0.000  0.488
 
band     3 # energy    2.23505092 # occ.  2.00000000
 
ion      s     py     pz     px    dxy    dyz    dz2    dxz  x2-y2    tot
    1  0.002  0.027  0.080  0.063  0.000  0.000  0.000  0.000  0.000  0.171
    2  0.002  0.020  0.058  0.086  0.000  0.000  0.000  0.000  0.000  0.167
tot    0.004  0.047  0.138  0.149  0.000  0.000  0.000  0.000  0.000  0.338
 
band     4 # energy    2.23505100 # occ.  2.00000000
 
ion      s     py     pz     px    dxy    dyz    dz2    dxz  x2-y2    tot
    1  0.002  0.020  0.058  0.086  0.000  0.000  0.000  0.000  0.000  0.167
    2  0.002  0.027  0.080  0.063  0.000  0.000  0.000  0.000  0.000  0.171
tot    0.004  0.047  0.138  0.149  0.000  0.000  0.000  0.000  0.000  0.338
 
band     5 # energy    8.39412933 # occ.  0.00000000
 
ion      s     py     pz     px    dxy    dyz    dz2    dxz  x2-y2    tot
    1  0.014  0.035  0.029  0.014  0.000  0.000  0.000  0.000  0.000  0.092
    2  0.056  0.009  0.007  0.055  0.000  0.000  0.000  0.000  0.000  0.127
tot    0.070  0.044  0.036  0.068  0.000  0.000  0.000  0.000  0.000  0.218
 
band     6 # energy    8.39412953 # occ.  0.00000000
 
ion      s     py     pz     px    dxy    dyz    dz2    dxz  x2-y2    tot
    1  0.056  0.009  0.007  0.055  0.000  0.000  0.000  0.000  0.000  0.127
    2  0.014  0.035  0.029  0.014  0.000  0.000  0.000  0.000  0.000  0.092
tot    0.070  0.044  0.036  0.068  0.000  0.000  0.000  0.000  0.000  0.218
 
band     7 # energy   12.84432145 # occ.  0.00000000
 
ion      s     py     pz     px    dxy    dyz    dz2    dxz  x2-y2    tot
    1  0.026  0.031  0.031  0.052  0.000  0.000  0.000  0.000  0.000  0.140
    2  0.026  0.032  0.032  0.051  0.000  0.000  0.000  0.000  0.000  0.140
tot    0.052  0.063  0.062  0.103  0.000  0.000  0.000  0.000  0.000  0.281
 
band     8 # energy   12.84432150 # occ.  0.00000000
 
ion      s     py     pz     px    dxy    dyz    dz2    dxz  x2-y2    tot
    1  0.026  0.032  0.031  0.051  0.000  0.000  0.000  0.000  0.000  0.140
    2  0.026  0.031  0.031  0.052  0.000  0.000  0.000  0.000  0.000  0.140
tot    0.052  0.063  0.062  0.103  0.000  0.000  0.000  0.000  0.000  0.281
 
band     9 # energy   16.41036177 # occ.  0.00000000
 
ion      s     py     pz     px    dxy    dyz    dz2    dxz  x2-y2    tot
    1  0.000  0.028  0.074  0.032  0.000  0.000  0.000  0.000  0.000  0.135
    2  0.000  0.023  0.062  0.039  0.000  0.000  0.000  0.000  0.000  0.124
tot    0.000  0.052  0.136  0.071  0.000  0.000  0.000  0.000  0.000  0.259
 
band    10 # energy   16.41036203 # occ.  0.00000000
 
ion      s     py     pz     px    dxy    dyz    dz2    dxz  x2-y2    tot
    1  0.000  0.024  0.062  0.039  0.000  0.000  0.000  0.000  0.000  0.124
    2  0.000  0.028  0.074  0.032  0.000  0.000  0.000  0.000  0.000  0.135
tot    0.000  0.052  0.136  0.071  0.000  0.000  0.000  0.000  0.000  0.259
 
band    11 # energy   23.49402832 # occ.  0.00000000
 
ion      s     py     pz     px    dxy    dyz    dz2    dxz  x2-y2    tot
    1  0.007  0.010  0.006  0.039  0.000  0.000  0.000  0.000  0.000  0.063
    2  0.026  0.068  0.029  0.008  0.000  0.000  0.000  0.000  0.000  0.131
tot    0.033  0.078  0.035  0.047  0.000  0.000  0.000  0.000  0.000  0.194
 
band    12 # energy   29.17514230 # occ.  0.00000000
 
ion      s     py     pz     px    dxy    dyz    dz2    dxz  x2-y2    tot
    1  0.016  0.001  0.003  0.039  0.000  0.000  0.000  0.000  0.000  0.059
    2  0.004  0.006  0.007  0.008  0.000  0.000  0.000  0.000  0.000  0.026
tot    0.020  0.007  0.010  0.047  0.000  0.000  0.000  0.000  0.000  0.085
 

 k-point    96 :    0.50000000 0.16428571 0.66428571     weight = 0.00555556

band     1 # energy   -1.86536770 # occ.  2.00000000
 
ion      s     py     pz     px    dxy    dyz    dz2    dxz  x2-y2    tot
    1  0.240  0.028  0.007  0.000  0.000  0.000  0.000  0.000  0.000  0.275
    2  0.162  0.041  0.010  0.000  0.000  0.000  0.000  0.000  0.000  0.214
tot    0.402  0.069  0.017  0.000  0.000  0.000  0.000  0.000  0.000  0.489
 
band     2 # energy   -1.86536766 # occ.  2.00000000
 
ion      s     py     pz     px    dxy    dyz    dz2    dxz  x2-y2    tot
    1  0.162  0.041  0.010  0.000  0.000  0.000  0.000  0.000  0.000  0.214
    2  0.240  0.028  0.007  0.000  0.000  0.000  0.000  0.000  0.000  0.275
tot    0.403  0.069  0.017  0.000  0.000  0.000  0.000  0.000  0.000  0.489
 
band     3 # energy    2.19954619 # occ.  2.00000000
 
ion      s     py     pz     px    dxy    dyz    dz2    dxz  x2-y2    tot
    1  0.002  0.024  0.065  0.076  0.000  0.000  0.000  0.000  0.000  0.167
    2  0.002  0.026  0.069  0.071  0.000  0.000  0.000  0.000  0.000  0.168
tot    0.004  0.050  0.134  0.148  0.000  0.000  0.000  0.000  0.000  0.336
 
band     4 # energy    2.19954627 # occ.  2.00000000
 
ion      s     py     pz     px    dxy    dyz    dz2    dxz  x2-y2    tot
    1  0.002  0.026  0.069  0.071  0.000  0.000  0.000  0.000  0.000  0.168
    2  0.002  0.024  0.065  0.076  0.000  0.000  0.000  0.000  0.000  0.167
tot    0.004  0.050  0.134  0.148  0.000  0.000  0.000  0.000  0.000  0.336
 
band     5 # energy    8.53386301 # occ.  0.00000000
 
ion      s     py     pz     px    dxy    dyz    dz2    dxz  x2-y2    tot
    1  0.050  0.011  0.010  0.054  0.000  0.000  0.000  0.000  0.000  0.124
    2  0.018  0.031  0.027  0.019  0.000  0.000  0.000  0.000  0.000  0.095
tot    0.068  0.043  0.037  0.072  0.000  0.000  0.000  0.000  0.000  0.219
 
band     6 # energy    8.53386319 # occ.  0.00000000
 
ion      s     py     pz     px    dxy    dyz    dz2    dxz  x2-y2    tot
    1  0.018  0.031  0.027  0.019  0.000  0.000  0.000  0.000  0.000  0.095
    2  0.050  0.011  0.010  0.054  0.000  0.000  0.000  0.000  0.000  0.124
tot    0.068  0.043  0.037  0.072  0.000  0.000  0.000  0.000  0.000  0.219
 
band     7 # energy   12.66002041 # occ.  0.00000000
 
ion      s     py     pz     px    dxy    dyz    dz2    dxz  x2-y2    tot
    1  0.024  0.036  0.034  0.044  0.000  0.000  0.000  0.000  0.000  0.139
    2  0.030  0.029  0.028  0.055  0.000  0.000  0.000  0.000  0.000  0.141
tot    0.055  0.065  0.062  0.099  0.000  0.000  0.000  0.000  0.000  0.280
 
band     8 # energy   12.66002045 # occ.  0.00000000
 
ion      s     py     pz     px    dxy    dyz    dz2    dxz  x2-y2    tot
    1  0.030  0.029  0.028  0.055  0.000  0.000  0.000  0.000  0.000  0.141
    2  0.024  0.036  0.034  0.044  0.000  0.000  0.000  0.000  0.000  0.139
tot    0.055  0.065  0.062  0.099  0.000  0.000  0.000  0.000  0.000  0.280
 
band     9 # energy   16.41076198 # occ.  0.00000000
 
ion      s     py     pz     px    dxy    dyz    dz2    dxz  x2-y2    tot
    1  0.000  0.029  0.071  0.034  0.000  0.000  0.000  0.000  0.000  0.134
    2  0.000  0.026  0.063  0.038  0.000  0.000  0.000  0.000  0.000  0.126
tot    0.000  0.055  0.134  0.072  0.000  0.000  0.000  0.000  0.000  0.260
 
band    10 # energy   16.41076199 # occ.  0.00000000
 
ion      s     py     pz     px    dxy    dyz    dz2    dxz  x2-y2    tot
    1  0.000  0.026  0.063  0.038  0.000  0.000  0.000  0.000  0.000  0.126
    2  0.000  0.029  0.071  0.034  0.000  0.000  0.000  0.000  0.000  0.134
tot    0.000  0.055  0.133  0.072  0.000  0.000  0.000  0.000  0.000  0.260
 
band    11 # energy   18.79151654 # occ.  0.00000000
 
ion      s     py     pz     px    dxy    dyz    dz2    dxz  x2-y2    tot
    1  0.045  0.016  0.006  0.000  0.000  0.000  0.000  0.000  0.000  0.067
    2  0.005  0.132  0.045  0.000  0.000  0.000  0.000  0.000  0.000  0.183
tot    0.051  0.148  0.051  0.000  0.000  0.000  0.000  0.000  0.000  0.250
 
band    12 # energy   23.17835186 # occ.  0.00000000
 
ion      s     py     pz     px    dxy    dyz    dz2    dxz  x2-y2    tot
    1  0.015  0.002  0.025  0.016  0.000  0.000  0.000  0.000  0.000  0.057
    2  0.006  0.050  0.009  0.002  0.000  0.000  0.000  0.000  0.000  0.068
tot    0.021  0.053  0.034  0.017  0.000  0.000  0.000  0.000  0.000  0.125
 

 k-point    97 :    0.50000000 0.17142857 0.67142857     weight = 0.00555556

band     1 # energy   -1.85874625 # occ.  2.00000000
 
ion      s     py     pz     px    dxy    dyz    dz2    dxz  x2-y2    tot
    1  0.164  0.040  0.011  0.000  0.000  0.000  0.000  0.000  0.000  0.215
    2  0.240  0.027  0.008  0.000  0.000  0.000  0.000  0.000  0.000  0.275
tot    0.404  0.067  0.019  0.000  0.000  0.000  0.000  0.000  0.000  0.490
 
band     2 # energy   -1.85874621 # occ.  2.00000000
 
ion      s     py     pz     px    dxy    dyz    dz2    dxz  x2-y2    tot
    1  0.240  0.027  0.008  0.000  0.000  0.000  0.000  0.000  0.000  0.275
    2  0.164  0.040  0.011  0.000  0.000  0.000  0.000  0.000  0.000  0.215
tot    0.404  0.067  0.019  0.000  0.000  0.000  0.000  0.000  0.000  0.490
 
band     3 # energy    2.16620211 # occ.  2.00000000
 
ion      s     py     pz     px    dxy    dyz    dz2    dxz  x2-y2    tot
    1  0.002  0.024  0.059  0.081  0.000  0.000  0.000  0.000  0.000  0.165
    2  0.001  0.029  0.072  0.066  0.000  0.000  0.000  0.000  0.000  0.169
tot    0.003  0.053  0.131  0.146  0.000  0.000  0.000  0.000  0.000  0.334
 
band     4 # energy    2.16620219 # occ.  2.00000000
 
ion      s     py     pz     px    dxy    dyz    dz2    dxz  x2-y2    tot
    1  0.001  0.029  0.072  0.066  0.000  0.000  0.000  0.000  0.000  0.169
    2  0.002  0.024  0.059  0.081  0.000  0.000  0.000  0.000  0.000  0.165
tot    0.003  0.053  0.131  0.146  0.000  0.000  0.000  0.000  0.000  0.334
 
band     5 # energy    8.67603426 # occ.  0.00000000
 
ion      s     py     pz     px    dxy    dyz    dz2    dxz  x2-y2    tot
    1  0.022  0.027  0.025  0.026  0.000  0.000  0.000  0.000  0.000  0.100
    2  0.043  0.014  0.013  0.050  0.000  0.000  0.000  0.000  0.000  0.120
tot    0.065  0.041  0.037  0.076  0.000  0.000  0.000  0.000  0.000  0.220
 
band     6 # energy    8.67603558 # occ.  0.00000000
 
ion      s     py     pz     px    dxy    dyz    dz2    dxz  x2-y2    tot
    1  0.043  0.014  0.013  0.050  0.000  0.000  0.000  0.000  0.000  0.120
    2  0.022  0.027  0.025  0.026  0.000  0.000  0.000  0.000  0.000  0.100
tot    0.065  0.041  0.037  0.076  0.000  0.000  0.000  0.000  0.000  0.220
 
band     7 # energy   12.47674862 # occ.  0.00000000
 
ion      s     py     pz     px    dxy    dyz    dz2    dxz  x2-y2    tot
    1  0.028  0.033  0.031  0.047  0.000  0.000  0.000  0.000  0.000  0.140
    2  0.029  0.033  0.031  0.048  0.000  0.000  0.000  0.000  0.000  0.140
tot    0.057  0.066  0.062  0.095  0.000  0.000  0.000  0.000  0.000  0.279
 
band     8 # energy   12.47674867 # occ.  0.00000000
 
ion      s     py     pz     px    dxy    dyz    dz2    dxz  x2-y2    tot
    1  0.029  0.033  0.031  0.048  0.000  0.000  0.000  0.000  0.000  0.140
    2  0.028  0.033  0.031  0.047  0.000  0.000  0.000  0.000  0.000  0.140
tot    0.057  0.066  0.062  0.095  0.000  0.000  0.000  0.000  0.000  0.279
 
band     9 # energy   16.41106999 # occ.  0.00000000
 
ion      s     py     pz     px    dxy    dyz    dz2    dxz  x2-y2    tot
    1  0.000  0.025  0.057  0.041  0.000  0.000  0.000  0.000  0.000  0.123
    2  0.000  0.032  0.074  0.032  0.000  0.000  0.000  0.000  0.000  0.138
tot    0.000  0.058  0.131  0.073  0.000  0.000  0.000  0.000  0.000  0.262
 
band    10 # energy   16.41108038 # occ.  0.00000000
 
ion      s     py     pz     px    dxy    dyz    dz2    dxz  x2-y2    tot
    1  0.000  0.033  0.074  0.032  0.000  0.000  0.000  0.000  0.000  0.138
    2  0.000  0.025  0.057  0.041  0.000  0.000  0.000  0.000  0.000  0.123
tot    0.000  0.058  0.131  0.073  0.000  0.000  0.000  0.000  0.000  0.262
 
band    11 # energy   22.53269326 # occ.  0.00000000
 
ion      s     py     pz     px    dxy    dyz    dz2    dxz  x2-y2    tot
    1  0.008  0.038  0.013  0.025  0.000  0.000  0.000  0.000  0.000  0.084
    2  0.007  0.067  0.020  0.008  0.000  0.000  0.000  0.000  0.000  0.103
tot    0.015  0.105  0.034  0.033  0.000  0.000  0.000  0.000  0.000  0.186
 
band    12 # energy   28.96563791 # occ.  0.00000000
 
ion      s     py     pz     px    dxy    dyz    dz2    dxz  x2-y2    tot
    1  0.019  0.001  0.008  0.030  0.000  0.000  0.000  0.000  0.000  0.058
    2  0.001  0.010  0.014  0.012  0.000  0.000  0.000  0.000  0.000  0.036
tot    0.021  0.011  0.022  0.042  0.000  0.000  0.000  0.000  0.000  0.095
 

 k-point    98 :    0.50000000 0.17857143 0.67857143     weight = 0.00555556

band     1 # energy   -1.85245572 # occ.  2.00000000
 
ion      s     py     pz     px    dxy    dyz    dz2    dxz  x2-y2    tot
    1  0.230  0.028  0.009  0.000  0.000  0.000  0.000  0.000  0.000  0.267
    2  0.175  0.037  0.012  0.000  0.000  0.000  0.000  0.000  0.000  0.224
tot    0.404  0.065  0.021  0.000  0.000  0.000  0.000  0.000  0.000  0.490
 
band     2 # energy   -1.85245568 # occ.  2.00000000
 
ion      s     py     pz     px    dxy    dyz    dz2    dxz  x2-y2    tot
    1  0.175  0.037  0.012  0.000  0.000  0.000  0.000  0.000  0.000  0.224
    2  0.230  0.028  0.009  0.000  0.000  0.000  0.000  0.000  0.000  0.267
tot    0.404  0.065  0.021  0.000  0.000  0.000  0.000  0.000  0.000  0.491
 
band     3 # energy    2.13520098 # occ.  2.00000000
 
ion      s     py     pz     px    dxy    dyz    dz2    dxz  x2-y2    tot
    1  0.002  0.021  0.047  0.091  0.000  0.000  0.000  0.000  0.000  0.161
    2  0.001  0.036  0.080  0.054  0.000  0.000  0.000  0.000  0.000  0.171
tot    0.003  0.057  0.127  0.145  0.000  0.000  0.000  0.000  0.000  0.332
 
band     4 # energy    2.13520107 # occ.  2.00000000
 
ion      s     py     pz     px    dxy    dyz    dz2    dxz  x2-y2    tot
    1  0.001  0.036  0.080  0.054  0.000  0.000  0.000  0.000  0.000  0.171
    2  0.002  0.021  0.047  0.091  0.000  0.000  0.000  0.000  0.000  0.161
tot    0.003  0.057  0.127  0.145  0.000  0.000  0.000  0.000  0.000  0.332
 
band     5 # energy    8.82047571 # occ.  0.00000000
 
ion      s     py     pz     px    dxy    dyz    dz2    dxz  x2-y2    tot
    1  0.019  0.027  0.026  0.025  0.000  0.000  0.000  0.000  0.000  0.097
    2  0.043  0.012  0.011  0.056  0.000  0.000  0.000  0.000  0.000  0.123
tot    0.062  0.040  0.038  0.081  0.000  0.000  0.000  0.000  0.000  0.220
 
band     6 # energy    8.82047573 # occ.  0.00000000
 
ion      s     py     pz     px    dxy    dyz    dz2    dxz  x2-y2    tot
    1  0.043  0.012  0.011  0.056  0.000  0.000  0.000  0.000  0.000  0.123
    2  0.019  0.027  0.026  0.025  0.000  0.000  0.000  0.000  0.000  0.097
tot    0.062  0.040  0.038  0.081  0.000  0.000  0.000  0.000  0.000  0.220
 
band     7 # energy   12.29498998 # occ.  0.00000000
 
ion      s     py     pz     px    dxy    dyz    dz2    dxz  x2-y2    tot
    1  0.029  0.035  0.032  0.044  0.000  0.000  0.000  0.000  0.000  0.139
    2  0.031  0.032  0.030  0.047  0.000  0.000  0.000  0.000  0.000  0.140
tot    0.060  0.067  0.062  0.091  0.000  0.000  0.000  0.000  0.000  0.279
 
band     8 # energy   16.41164893 # occ.  0.00000000
 
ion      s     py     pz     px    dxy    dyz    dz2    dxz  x2-y2    tot
    1  0.000  0.027  0.054  0.041  0.000  0.000  0.000  0.000  0.000  0.122
    2  0.000  0.037  0.074  0.030  0.000  0.000  0.000  0.000  0.000  0.141
tot    0.000  0.065  0.128  0.071  0.000  0.000  0.000  0.000  0.000  0.264
 
band     9 # energy   18.76823259 # occ.  0.00000000
 
ion      s     py     pz     px    dxy    dyz    dz2    dxz  x2-y2    tot
    1  0.024  0.084  0.013  0.000  0.000  0.000  0.000  0.000  0.000  0.121
    2  0.024  0.081  0.021  0.001  0.000  0.000  0.000  0.000  0.000  0.128
tot    0.048  0.165  0.034  0.002  0.000  0.000  0.000  0.000  0.000  0.249
 
band    10 # energy   18.84286884 # occ.  0.00000000
 
ion      s     py     pz     px    dxy    dyz    dz2    dxz  x2-y2    tot
    1  0.025  0.081  0.035  0.000  0.000  0.000  0.000  0.000  0.000  0.141
    2  0.028  0.072  0.025  0.000  0.000  0.000  0.000  0.000  0.000  0.126
tot    0.053  0.153  0.060  0.000  0.000  0.000  0.000  0.000  0.000  0.267
 
band    11 # energy   22.89666580 # occ.  0.00000000
 
ion      s     py     pz     px    dxy    dyz    dz2    dxz  x2-y2    tot
    1  0.002  0.038  0.026  0.016  0.000  0.000  0.000  0.000  0.000  0.082
    2  0.010  0.038  0.015  0.017  0.000  0.000  0.000  0.000  0.000  0.080
tot    0.012  0.077  0.042  0.033  0.000  0.000  0.000  0.000  0.000  0.163
 
band    12 # energy   23.27224349 # occ.  0.00000000
 
ion      s     py     pz     px    dxy    dyz    dz2    dxz  x2-y2    tot
    1  0.008  0.025  0.003  0.024  0.000  0.000  0.000  0.000  0.000  0.060
    2  0.012  0.068  0.001  0.010  0.000  0.000  0.000  0.000  0.000  0.090
tot    0.019  0.093  0.004  0.033  0.000  0.000  0.000  0.000  0.000  0.150
 

 k-point    99 :    0.50000000 0.18571429 0.68571429     weight = 0.00555556

band     1 # energy   -1.84655686 # occ.  2.00000000
 
ion      s     py     pz     px    dxy    dyz    dz2    dxz  x2-y2    tot
    1  0.187  0.034  0.012  0.000  0.000  0.000  0.000  0.000  0.000  0.233
    2  0.218  0.029  0.010  0.000  0.000  0.000  0.000  0.000  0.000  0.258
tot    0.405  0.063  0.023  0.000  0.000  0.000  0.000  0.000  0.000  0.491
 
band     2 # energy   -1.84655683 # occ.  2.00000000
 
ion      s     py     pz     px    dxy    dyz    dz2    dxz  x2-y2    tot
    1  0.218  0.029  0.010  0.000  0.000  0.000  0.000  0.000  0.000  0.258
    2  0.187  0.034  0.012  0.000  0.000  0.000  0.000  0.000  0.000  0.233
tot    0.405  0.063  0.023  0.000  0.000  0.000  0.000  0.000  0.000  0.491
 
band     3 # energy    2.10669006 # occ.  2.00000000
 
ion      s     py     pz     px    dxy    dyz    dz2    dxz  x2-y2    tot
    1  0.001  0.038  0.078  0.053  0.000  0.000  0.000  0.000  0.000  0.170
    2  0.002  0.022  0.046  0.090  0.000  0.000  0.000  0.000  0.000  0.160
tot    0.002  0.060  0.124  0.144  0.000  0.000  0.000  0.000  0.000  0.330
 
band     4 # energy    2.10669013 # occ.  2.00000000
 
ion      s     py     pz     px    dxy    dyz    dz2    dxz  x2-y2    tot
    1  0.002  0.022  0.046  0.090  0.000  0.000  0.000  0.000  0.000  0.160
    2  0.001  0.038  0.078  0.053  0.000  0.000  0.000  0.000  0.000  0.170
tot    0.002  0.060  0.124  0.144  0.000  0.000  0.000  0.000  0.000  0.330
 
band     5 # energy    8.96683577 # occ.  0.00000000
 
ion      s     py     pz     px    dxy    dyz    dz2    dxz  x2-y2    tot
    1  0.020  0.025  0.025  0.028  0.000  0.000  0.000  0.000  0.000  0.098
    2  0.040  0.012  0.012  0.057  0.000  0.000  0.000  0.000  0.000  0.122
tot    0.060  0.038  0.038  0.085  0.000  0.000  0.000  0.000  0.000  0.220
 
band     6 # energy    8.96683619 # occ.  0.00000000
 
ion      s     py     pz     px    dxy    dyz    dz2    dxz  x2-y2    tot
    1  0.040  0.012  0.012  0.057  0.000  0.000  0.000  0.000  0.000  0.122
    2  0.020  0.025  0.025  0.028  0.000  0.000  0.000  0.000  0.000  0.098
tot    0.060  0.038  0.038  0.085  0.000  0.000  0.000  0.000  0.000  0.220
 
band     7 # energy   12.11492316 # occ.  0.00000000
 
ion      s     py     pz     px    dxy    dyz    dz2    dxz  x2-y2    tot
    1  0.055  0.008  0.008  0.076  0.000  0.000  0.000  0.000  0.000  0.147
    2  0.008  0.060  0.054  0.010  0.000  0.000  0.000  0.000  0.000  0.133
tot    0.063  0.069  0.062  0.086  0.000  0.000  0.000  0.000  0.000  0.280
 
band     8 # energy   12.11492319 # occ.  0.00000000
 
ion      s     py     pz     px    dxy    dyz    dz2    dxz  x2-y2    tot
    1  0.008  0.060  0.055  0.010  0.000  0.000  0.000  0.000  0.000  0.133
    2  0.055  0.008  0.008  0.076  0.000  0.000  0.000  0.000  0.000  0.147
tot    0.063  0.069  0.062  0.086  0.000  0.000  0.000  0.000  0.000  0.280
 
band     9 # energy   16.41222097 # occ.  0.00000000
 
ion      s     py     pz     px    dxy    dyz    dz2    dxz  x2-y2    tot
    1  0.000  0.030  0.058  0.040  0.000  0.000  0.000  0.000  0.000  0.127
    2  0.000  0.034  0.068  0.034  0.000  0.000  0.000  0.000  0.000  0.136
tot    0.000  0.064  0.125  0.074  0.000  0.000  0.000  0.000  0.000  0.264
 
band    10 # energy   16.41222145 # occ.  0.00000000
 
ion      s     py     pz     px    dxy    dyz    dz2    dxz  x2-y2    tot
    1  0.000  0.035  0.067  0.034  0.000  0.000  0.000  0.000  0.000  0.136
    2  0.000  0.030  0.058  0.040  0.000  0.000  0.000  0.000  0.000  0.127
tot    0.000  0.064  0.125  0.074  0.000  0.000  0.000  0.000  0.000  0.264
 
band    11 # energy   18.82648250 # occ.  0.00000000
 
ion      s     py     pz     px    dxy    dyz    dz2    dxz  x2-y2    tot
    1  0.026  0.069  0.031  0.000  0.000  0.000  0.000  0.000  0.000  0.127
    2  0.025  0.071  0.032  0.000  0.000  0.000  0.000  0.000  0.000  0.129
tot    0.051  0.141  0.064  0.000  0.000  0.000  0.000  0.000  0.000  0.255
 
band    12 # energy   23.32644810 # occ.  0.00000000
 
ion      s     py     pz     px    dxy    dyz    dz2    dxz  x2-y2    tot
    1  0.021  0.067  0.035  0.004  0.000  0.000  0.000  0.000  0.000  0.128
    2  0.019  0.010  0.007  0.031  0.000  0.000  0.000  0.000  0.000  0.068
tot    0.040  0.078  0.043  0.035  0.000  0.000  0.000  0.000  0.000  0.195
 

 k-point   100 :    0.50000000 0.19285714 0.69285714     weight = 0.00555556

band     1 # energy   -1.84110631 # occ.  2.00000000
 
ion      s     py     pz     px    dxy    dyz    dz2    dxz  x2-y2    tot
    1  0.214  0.029  0.012  0.000  0.000  0.000  0.000  0.000  0.000  0.255
    2  0.192  0.032  0.013  0.000  0.000  0.000  0.000  0.000  0.000  0.237
tot    0.406  0.061  0.025  0.000  0.000  0.000  0.000  0.000  0.000  0.492
 
band     2 # energy   -1.84110628 # occ.  2.00000000
 
ion      s     py     pz     px    dxy    dyz    dz2    dxz  x2-y2    tot
    1  0.192  0.032  0.013  0.000  0.000  0.000  0.000  0.000  0.000  0.237
    2  0.214  0.029  0.012  0.000  0.000  0.000  0.000  0.000  0.000  0.255
tot    0.406  0.061  0.025  0.000  0.000  0.000  0.000  0.000  0.000  0.492
 
band     3 # energy    2.08080695 # occ.  2.00000000
 
ion      s     py     pz     px    dxy    dyz    dz2    dxz  x2-y2    tot
    1  0.001  0.029  0.055  0.078  0.000  0.000  0.000  0.000  0.000  0.163
    2  0.001  0.035  0.066  0.065  0.000  0.000  0.000  0.000  0.000  0.166
tot    0.002  0.063  0.120  0.143  0.000  0.000  0.000  0.000  0.000  0.329
 
band     4 # energy    2.08080702 # occ.  2.00000000
 
ion      s     py     pz     px    dxy    dyz    dz2    dxz  x2-y2    tot
    1  0.001  0.035  0.066  0.065  0.000  0.000  0.000  0.000  0.000  0.166
    2  0.001  0.029  0.055  0.078  0.000  0.000  0.000  0.000  0.000  0.163
tot    0.002  0.063  0.120  0.143  0.000  0.000  0.000  0.000  0.000  0.329
 
band     5 # energy    9.11473101 # occ.  0.00000000
 
ion      s     py     pz     px    dxy    dyz    dz2    dxz  x2-y2    tot
    1  0.023  0.021  0.022  0.037  0.000  0.000  0.000  0.000  0.000  0.103
    2  0.033  0.015  0.015  0.053  0.000  0.000  0.000  0.000  0.000  0.117
tot    0.056  0.036  0.037  0.090  0.000  0.000  0.000  0.000  0.000  0.220
 
band     6 # energy    9.11473186 # occ.  0.00000000
 
ion      s     py     pz     px    dxy    dyz    dz2    dxz  x2-y2    tot
    1  0.033  0.015  0.015  0.053  0.000  0.000  0.000  0.000  0.000  0.117
    2  0.023  0.021  0.022  0.037  0.000  0.000  0.000  0.000  0.000  0.103
tot    0.056  0.036  0.037  0.090  0.000  0.000  0.000  0.000  0.000  0.220
 
band     7 # energy   11.93691558 # occ.  0.00000000
 
ion      s     py     pz     px    dxy    dyz    dz2    dxz  x2-y2    tot
    1  0.034  0.034  0.031  0.042  0.000  0.000  0.000  0.000  0.000  0.141
    2  0.032  0.036  0.032  0.040  0.000  0.000  0.000  0.000  0.000  0.140
tot    0.066  0.070  0.063  0.081  0.000  0.000  0.000  0.000  0.000  0.281
 
band     8 # energy   11.93691562 # occ.  0.00000000
 
ion      s     py     pz     px    dxy    dyz    dz2    dxz  x2-y2    tot
    1  0.032  0.036  0.032  0.040  0.000  0.000  0.000  0.000  0.000  0.140
    2  0.034  0.034  0.031  0.042  0.000  0.000  0.000  0.000  0.000  0.141
tot    0.066  0.070  0.063  0.081  0.000  0.000  0.000  0.000  0.000  0.281
 
band     9 # energy   16.41283111 # occ.  0.00000000
 
ion      s     py     pz     px    dxy    dyz    dz2    dxz  x2-y2    tot
    1  0.000  0.021  0.038  0.051  0.000  0.000  0.000  0.000  0.000  0.111
    2  0.000  0.046  0.084  0.023  0.000  0.000  0.000  0.000  0.000  0.154
tot    0.000  0.067  0.122  0.075  0.000  0.000  0.000  0.000  0.000  0.265
 
band    10 # energy   16.41283176 # occ.  0.00000000
 
ion      s     py     pz     px    dxy    dyz    dz2    dxz  x2-y2    tot
    1  0.000  0.046  0.084  0.023  0.000  0.000  0.000  0.000  0.000  0.154
    2  0.000  0.021  0.038  0.051  0.000  0.000  0.000  0.000  0.000  0.111
tot    0.000  0.067  0.122  0.075  0.000  0.000  0.000  0.000  0.000  0.265
 
band    11 # energy   24.01019984 # occ.  0.00000000
 
ion      s     py     pz     px    dxy    dyz    dz2    dxz  x2-y2    tot
    1  0.051  0.003  0.002  0.017  0.000  0.000  0.000  0.000  0.000  0.073
    2  0.020  0.054  0.013  0.003  0.000  0.000  0.000  0.000  0.000  0.089
tot    0.071  0.057  0.014  0.020  0.000  0.000  0.000  0.000  0.000  0.162
 
band    12 # energy   24.70288230 # occ.  0.00000000
 
ion      s     py     pz     px    dxy    dyz    dz2    dxz  x2-y2    tot
    1  0.005  0.004  0.037  0.001  0.000  0.000  0.000  0.000  0.000  0.047
    2  0.024  0.024  0.019  0.001  0.000  0.000  0.000  0.000  0.000  0.068
tot    0.028  0.028  0.056  0.002  0.000  0.000  0.000  0.000  0.000  0.115
 

 k-point   101 :    0.50000000 0.20000000 0.70000000     weight = 0.00555556

band     1 # energy   -1.83615770 # occ.  2.00000000
 
ion      s     py     pz     px    dxy    dyz    dz2    dxz  x2-y2    tot
    1  0.227  0.026  0.012  0.000  0.000  0.000  0.000  0.000  0.000  0.265
    2  0.180  0.033  0.015  0.000  0.000  0.000  0.000  0.000  0.000  0.227
tot    0.407  0.059  0.027  0.000  0.000  0.000  0.000  0.000  0.000  0.492
 
band     2 # energy   -1.83615763 # occ.  2.00000000
 
ion      s     py     pz     px    dxy    dyz    dz2    dxz  x2-y2    tot
    1  0.180  0.033  0.015  0.000  0.000  0.000  0.000  0.000  0.000  0.228
    2  0.227  0.026  0.012  0.000  0.000  0.000  0.000  0.000  0.000  0.265
tot    0.407  0.059  0.027  0.000  0.000  0.000  0.000  0.000  0.000  0.492
 
band     3 # energy    2.05767479 # occ.  2.00000000
 
ion      s     py     pz     px    dxy    dyz    dz2    dxz  x2-y2    tot
    1  0.001  0.034  0.060  0.069  0.000  0.000  0.000  0.000  0.000  0.164
    2  0.001  0.033  0.057  0.072  0.000  0.000  0.000  0.000  0.000  0.163
tot    0.002  0.067  0.117  0.142  0.000  0.000  0.000  0.000  0.000  0.327
 
band     4 # energy    2.05767488 # occ.  2.00000000
 
ion      s     py     pz     px    dxy    dyz    dz2    dxz  x2-y2    tot
    1  0.001  0.033  0.057  0.072  0.000  0.000  0.000  0.000  0.000  0.163
    2  0.001  0.034  0.060  0.069  0.000  0.000  0.000  0.000  0.000  0.164
tot    0.002  0.067  0.117  0.142  0.000  0.000  0.000  0.000  0.000  0.327
 
band     5 # energy    9.26364760 # occ.  0.00000000
 
ion      s     py     pz     px    dxy    dyz    dz2    dxz  x2-y2    tot
    1  0.037  0.010  0.011  0.067  0.000  0.000  0.000  0.000  0.000  0.125
    2  0.016  0.024  0.025  0.029  0.000  0.000  0.000  0.000  0.000  0.094
tot    0.053  0.034  0.036  0.096  0.000  0.000  0.000  0.000  0.000  0.219
 
band     6 # energy    9.26364782 # occ.  0.00000000
 
ion      s     py     pz     px    dxy    dyz    dz2    dxz  x2-y2    tot
    1  0.016  0.023  0.025  0.029  0.000  0.000  0.000  0.000  0.000  0.094
    2  0.037  0.010  0.011  0.067  0.000  0.000  0.000  0.000  0.000  0.125
tot    0.053  0.034  0.036  0.096  0.000  0.000  0.000  0.000  0.000  0.219
 
band     7 # energy   11.76146510 # occ.  0.00000000
 
ion      s     py     pz     px    dxy    dyz    dz2    dxz  x2-y2    tot
    1  0.033  0.038  0.033  0.037  0.000  0.000  0.000  0.000  0.000  0.141
    2  0.036  0.035  0.031  0.039  0.000  0.000  0.000  0.000  0.000  0.141
tot    0.070  0.072  0.064  0.076  0.000  0.000  0.000  0.000  0.000  0.282
 
band     8 # energy   11.76146514 # occ.  0.00000000
 
ion      s     py     pz     px    dxy    dyz    dz2    dxz  x2-y2    tot
    1  0.036  0.035  0.031  0.039  0.000  0.000  0.000  0.000  0.000  0.141
    2  0.033  0.038  0.033  0.037  0.000  0.000  0.000  0.000  0.000  0.141
tot    0.070  0.072  0.064  0.076  0.000  0.000  0.000  0.000  0.000  0.282
 
band     9 # energy   16.41342766 # occ.  0.00000000
 
ion      s     py     pz     px    dxy    dyz    dz2    dxz  x2-y2    tot
    1  0.000  0.044  0.074  0.029  0.000  0.000  0.000  0.000  0.000  0.147
    2  0.000  0.027  0.045  0.047  0.000  0.000  0.000  0.000  0.000  0.119
tot    0.000  0.071  0.119  0.075  0.000  0.000  0.000  0.000  0.000  0.265
 
band    10 # energy   16.41342773 # occ.  0.00000000
 
ion      s     py     pz     px    dxy    dyz    dz2    dxz  x2-y2    tot
    1  0.000  0.027  0.045  0.047  0.000  0.000  0.000  0.000  0.000  0.119
    2  0.000  0.044  0.074  0.029  0.000  0.000  0.000  0.000  0.000  0.147
tot    0.000  0.071  0.119  0.075  0.000  0.000  0.000  0.000  0.000  0.265
 
band    11 # energy   24.37284204 # occ.  0.00000000
 
ion      s     py     pz     px    dxy    dyz    dz2    dxz  x2-y2    tot
    1  0.039  0.000  0.005  0.016  0.000  0.000  0.000  0.000  0.000  0.060
    2  0.002  0.044  0.015  0.002  0.000  0.000  0.000  0.000  0.000  0.064
tot    0.041  0.045  0.020  0.019  0.000  0.000  0.000  0.000  0.000  0.124
 
band    12 # energy   26.59763483 # occ.  0.00000000
 
ion      s     py     pz     px    dxy    dyz    dz2    dxz  x2-y2    tot
    1  0.023  0.005  0.033  0.008  0.000  0.000  0.000  0.000  0.000  0.069
    2  0.005  0.006  0.048  0.016  0.000  0.000  0.000  0.000  0.000  0.076
tot    0.028  0.011  0.081  0.024  0.000  0.000  0.000  0.000  0.000  0.145
 

 k-point   102 :    0.50000000 0.20714286 0.70714286     weight = 0.00555556

band     1 # energy   -1.83176049 # occ.  2.00000000
 
ion      s     py     pz     px    dxy    dyz    dz2    dxz  x2-y2    tot
    1  0.175  0.032  0.016  0.000  0.000  0.000  0.000  0.000  0.000  0.224
    2  0.232  0.024  0.012  0.000  0.000  0.000  0.000  0.000  0.000  0.269
tot    0.408  0.056  0.029  0.000  0.000  0.000  0.000  0.000  0.000  0.493
 
band     2 # energy   -1.83176048 # occ.  2.00000000
 
ion      s     py     pz     px    dxy    dyz    dz2    dxz  x2-y2    tot
    1  0.232  0.024  0.012  0.000  0.000  0.000  0.000  0.000  0.000  0.269
    2  0.175  0.032  0.016  0.000  0.000  0.000  0.000  0.000  0.000  0.224
tot    0.408  0.056  0.029  0.000  0.000  0.000  0.000  0.000  0.000  0.493
 
band     3 # energy    2.03740142 # occ.  2.00000000
 
ion      s     py     pz     px    dxy    dyz    dz2    dxz  x2-y2    tot
    1  0.001  0.032  0.052  0.077  0.000  0.000  0.000  0.000  0.000  0.161
    2  0.001  0.038  0.062  0.064  0.000  0.000  0.000  0.000  0.000  0.165
tot    0.001  0.070  0.113  0.141  0.000  0.000  0.000  0.000  0.000  0.326
 
band     4 # energy    2.03740150 # occ.  2.00000000
 
ion      s     py     pz     px    dxy    dyz    dz2    dxz  x2-y2    tot
    1  0.001  0.038  0.062  0.064  0.000  0.000  0.000  0.000  0.000  0.165
    2  0.001  0.032  0.052  0.077  0.000  0.000  0.000  0.000  0.000  0.161
tot    0.001  0.070  0.113  0.141  0.000  0.000  0.000  0.000  0.000  0.326
 
band     5 # energy    9.41284165 # occ.  0.00000000
 
ion      s     py     pz     px    dxy    dyz    dz2    dxz  x2-y2    tot
    1  0.037  0.007  0.008  0.078  0.000  0.000  0.000  0.000  0.000  0.131
    2  0.012  0.024  0.027  0.024  0.000  0.000  0.000  0.000  0.000  0.086
tot    0.049  0.031  0.035  0.102  0.000  0.000  0.000  0.000  0.000  0.217
 
band     6 # energy    9.41284210 # occ.  0.00000000
 
ion      s     py     pz     px    dxy    dyz    dz2    dxz  x2-y2    tot
    1  0.012  0.024  0.027  0.024  0.000  0.000  0.000  0.000  0.000  0.086
    2  0.037  0.007  0.008  0.078  0.000  0.000  0.000  0.000  0.000  0.131
tot    0.049  0.031  0.035  0.102  0.000  0.000  0.000  0.000  0.000  0.217
 
band     7 # energy   11.58929726 # occ.  0.00000000
 
ion      s     py     pz     px    dxy    dyz    dz2    dxz  x2-y2    tot
    1  0.037  0.038  0.033  0.035  0.000  0.000  0.000  0.000  0.000  0.142
    2  0.037  0.037  0.033  0.035  0.000  0.000  0.000  0.000  0.000  0.142
tot    0.074  0.075  0.066  0.070  0.000  0.000  0.000  0.000  0.000  0.284
 
band     8 # energy   11.58929730 # occ.  0.00000000
 
ion      s     py     pz     px    dxy    dyz    dz2    dxz  x2-y2    tot
    1  0.037  0.037  0.033  0.035  0.000  0.000  0.000  0.000  0.000  0.142
    2  0.037  0.038  0.033  0.035  0.000  0.000  0.000  0.000  0.000  0.142
tot    0.074  0.075  0.066  0.070  0.000  0.000  0.000  0.000  0.000  0.284
 
band     9 # energy   16.41398749 # occ.  0.00000000
 
ion      s     py     pz     px    dxy    dyz    dz2    dxz  x2-y2    tot
    1  0.000  0.062  0.098  0.012  0.000  0.000  0.000  0.000  0.000  0.172
    2  0.000  0.012  0.019  0.064  0.000  0.000  0.000  0.000  0.000  0.094
tot    0.000  0.074  0.116  0.076  0.000  0.000  0.000  0.000  0.000  0.266
 
band    10 # energy   16.41398762 # occ.  0.00000000
 
ion      s     py     pz     px    dxy    dyz    dz2    dxz  x2-y2    tot
    1  0.000  0.012  0.019  0.064  0.000  0.000  0.000  0.000  0.000  0.094
    2  0.000  0.062  0.097  0.012  0.000  0.000  0.000  0.000  0.000  0.172
tot    0.000  0.074  0.116  0.076  0.000  0.000  0.000  0.000  0.000  0.266
 
band    11 # energy   23.09569461 # occ.  0.00000000
 
ion      s     py     pz     px    dxy    dyz    dz2    dxz  x2-y2    tot
    1  0.015  0.011  0.011  0.004  0.000  0.000  0.000  0.000  0.000  0.041
    2  0.001  0.004  0.013  0.010  0.000  0.000  0.000  0.000  0.000  0.028
tot    0.016  0.015  0.024  0.014  0.000  0.000  0.000  0.000  0.000  0.069
 
band    12 # energy   25.25288768 # occ.  0.00000000
 
ion      s     py     pz     px    dxy    dyz    dz2    dxz  x2-y2    tot
    1  0.017  0.001  0.046  0.002  0.000  0.000  0.000  0.000  0.000  0.065
    2  0.029  0.005  0.009  0.010  0.000  0.000  0.000  0.000  0.000  0.053
tot    0.046  0.006  0.055  0.012  0.000  0.000  0.000  0.000  0.000  0.118
 

 k-point   103 :    0.50000000 0.21428571 0.71428571     weight = 0.00555556

band     1 # energy   -1.82795430 # occ.  2.00000000
 
ion      s     py     pz     px    dxy    dyz    dz2    dxz  x2-y2    tot
    1  0.224  0.024  0.014  0.000  0.000  0.000  0.000  0.000  0.000  0.262
    2  0.184  0.030  0.017  0.000  0.000  0.000  0.000  0.000  0.000  0.231
tot    0.408  0.054  0.031  0.000  0.000  0.000  0.000  0.000  0.000  0.493
 
band     2 # energy   -1.82795427 # occ.  2.00000000
 
ion      s     py     pz     px    dxy    dyz    dz2    dxz  x2-y2    tot
    1  0.184  0.030  0.017  0.000  0.000  0.000  0.000  0.000  0.000  0.231
    2  0.224  0.024  0.014  0.000  0.000  0.000  0.000  0.000  0.000  0.262
tot    0.408  0.054  0.031  0.000  0.000  0.000  0.000  0.000  0.000  0.493
 
band     3 # energy    2.02008531 # occ.  2.00000000
 
ion      s     py     pz     px    dxy    dyz    dz2    dxz  x2-y2    tot
    1  0.000  0.034  0.051  0.076  0.000  0.000  0.000  0.000  0.000  0.161
    2  0.000  0.040  0.059  0.065  0.000  0.000  0.000  0.000  0.000  0.164
tot    0.001  0.074  0.110  0.140  0.000  0.000  0.000  0.000  0.000  0.325
 
band     4 # energy    2.02008540 # occ.  2.00000000
 
ion      s     py     pz     px    dxy    dyz    dz2    dxz  x2-y2    tot
    1  0.000  0.040  0.059  0.065  0.000  0.000  0.000  0.000  0.000  0.164
    2  0.000  0.034  0.051  0.076  0.000  0.000  0.000  0.000  0.000  0.161
tot    0.001  0.074  0.110  0.140  0.000  0.000  0.000  0.000  0.000  0.325
 
band     5 # energy    9.56115058 # occ.  0.00000000
 
ion      s     py     pz     px    dxy    dyz    dz2    dxz  x2-y2    tot
    1  0.033  0.007  0.008  0.084  0.000  0.000  0.000  0.000  0.000  0.131
    2  0.010  0.021  0.025  0.026  0.000  0.000  0.000  0.000  0.000  0.083
tot    0.044  0.028  0.033  0.110  0.000  0.000  0.000  0.000  0.000  0.214
 
band     6 # energy    9.56115309 # occ.  0.00000000
 
ion      s     py     pz     px    dxy    dyz    dz2    dxz  x2-y2    tot
    1  0.010  0.021  0.025  0.026  0.000  0.000  0.000  0.000  0.000  0.083
    2  0.033  0.007  0.008  0.084  0.000  0.000  0.000  0.000  0.000  0.131
tot    0.044  0.028  0.033  0.110  0.000  0.000  0.000  0.000  0.000  0.214
 
band     7 # energy   11.42157972 # occ.  0.00000000
 
ion      s     py     pz     px    dxy    dyz    dz2    dxz  x2-y2    tot
    1  0.039  0.039  0.035  0.031  0.000  0.000  0.000  0.000  0.000  0.144
    2  0.040  0.039  0.034  0.031  0.000  0.000  0.000  0.000  0.000  0.144
tot    0.079  0.077  0.069  0.062  0.000  0.000  0.000  0.000  0.000  0.288
 
band     8 # energy   11.42157976 # occ.  0.00000000
 
ion      s     py     pz     px    dxy    dyz    dz2    dxz  x2-y2    tot
    1  0.040  0.039  0.034  0.031  0.000  0.000  0.000  0.000  0.000  0.144
    2  0.039  0.039  0.035  0.031  0.000  0.000  0.000  0.000  0.000  0.144
tot    0.079  0.077  0.069  0.062  0.000  0.000  0.000  0.000  0.000  0.288
 
band     9 # energy   16.41450464 # occ.  0.00000000
 
ion      s     py     pz     px    dxy    dyz    dz2    dxz  x2-y2    tot
    1  0.000  0.046  0.067  0.031  0.000  0.000  0.000  0.000  0.000  0.144
    2  0.000  0.032  0.046  0.045  0.000  0.000  0.000  0.000  0.000  0.123
tot    0.000  0.078  0.113  0.076  0.000  0.000  0.000  0.000  0.000  0.267
 
band    10 # energy   16.41450524 # occ.  0.00000000
 
ion      s     py     pz     px    dxy    dyz    dz2    dxz  x2-y2    tot
    1  0.000  0.032  0.046  0.045  0.000  0.000  0.000  0.000  0.000  0.123
    2  0.000  0.046  0.067  0.031  0.000  0.000  0.000  0.000  0.000  0.144
tot    0.000  0.078  0.113  0.076  0.000  0.000  0.000  0.000  0.000  0.267
 
band    11 # energy   24.96887072 # occ.  0.00000000
 
ion      s     py     pz     px    dxy    dyz    dz2    dxz  x2-y2    tot
    1  0.026  0.019  0.011  0.011  0.000  0.000  0.000  0.000  0.000  0.068
    2  0.013  0.033  0.024  0.012  0.000  0.000  0.000  0.000  0.000  0.082
tot    0.039  0.052  0.035  0.023  0.000  0.000  0.000  0.000  0.000  0.149
 
band    12 # energy   29.07283045 # occ.  0.00000000
 
ion      s     py     pz     px    dxy    dyz    dz2    dxz  x2-y2    tot
    1  0.008  0.007  0.010  0.075  0.000  0.000  0.000  0.000  0.000  0.100
    2  0.005  0.005  0.005  0.038  0.000  0.000  0.000  0.000  0.000  0.053
tot    0.013  0.012  0.015  0.113  0.000  0.000  0.000  0.000  0.000  0.153
 

 k-point   104 :    0.50000000 0.22142857 0.72142857     weight = 0.00555556

band     1 # energy   -1.82478764 # occ.  2.00000000
 
ion      s     py     pz     px    dxy    dyz    dz2    dxz  x2-y2    tot
    1  0.218  0.024  0.015  0.000  0.000  0.000  0.000  0.000  0.000  0.257
    2  0.191  0.028  0.018  0.000  0.000  0.000  0.000  0.000  0.000  0.236
tot    0.409  0.052  0.033  0.000  0.000  0.000  0.000  0.000  0.000  0.494
 
band     2 # energy   -1.82478762 # occ.  2.00000000
 
ion      s     py     pz     px    dxy    dyz    dz2    dxz  x2-y2    tot
    1  0.191  0.028  0.018  0.000  0.000  0.000  0.000  0.000  0.000  0.236
    2  0.218  0.024  0.015  0.000  0.000  0.000  0.000  0.000  0.000  0.257
tot    0.409  0.052  0.033  0.000  0.000  0.000  0.000  0.000  0.000  0.494
 
band     3 # energy    2.00580549 # occ.  2.00000000
 
ion      s     py     pz     px    dxy    dyz    dz2    dxz  x2-y2    tot
    1  0.000  0.037  0.051  0.073  0.000  0.000  0.000  0.000  0.000  0.161
    2  0.000  0.040  0.055  0.067  0.000  0.000  0.000  0.000  0.000  0.163
tot    0.001  0.077  0.106  0.140  0.000  0.000  0.000  0.000  0.000  0.324
 
band     4 # energy    2.00580557 # occ.  2.00000000
 
ion      s     py     pz     px    dxy    dyz    dz2    dxz  x2-y2    tot
    1  0.000  0.040  0.055  0.067  0.000  0.000  0.000  0.000  0.000  0.163
    2  0.000  0.037  0.051  0.073  0.000  0.000  0.000  0.000  0.000  0.161
tot    0.001  0.077  0.106  0.140  0.000  0.000  0.000  0.000  0.000  0.324
 
band     5 # energy    9.70662163 # occ.  0.00000000
 
ion      s     py     pz     px    dxy    dyz    dz2    dxz  x2-y2    tot
    1  0.004  0.022  0.026  0.011  0.000  0.000  0.000  0.000  0.000  0.063
    2  0.034  0.002  0.003  0.108  0.000  0.000  0.000  0.000  0.000  0.147
tot    0.037  0.024  0.029  0.119  0.000  0.000  0.000  0.000  0.000  0.209
 
band     6 # energy    9.70662227 # occ.  0.00000000
 
ion      s     py     pz     px    dxy    dyz    dz2    dxz  x2-y2    tot
    1  0.034  0.002  0.003  0.108  0.000  0.000  0.000  0.000  0.000  0.147
    2  0.004  0.022  0.026  0.011  0.000  0.000  0.000  0.000  0.000  0.063
tot    0.037  0.024  0.029  0.119  0.000  0.000  0.000  0.000  0.000  0.209
 
band     7 # energy   11.26024845 # occ.  0.00000000
 
ion      s     py     pz     px    dxy    dyz    dz2    dxz  x2-y2    tot
    1  0.051  0.032  0.029  0.032  0.000  0.000  0.000  0.000  0.000  0.145
    2  0.034  0.049  0.044  0.021  0.000  0.000  0.000  0.000  0.000  0.148
tot    0.085  0.081  0.073  0.053  0.000  0.000  0.000  0.000  0.000  0.292
 
band     8 # energy   11.26024849 # occ.  0.00000000
 
ion      s     py     pz     px    dxy    dyz    dz2    dxz  x2-y2    tot
    1  0.034  0.049  0.044  0.021  0.000  0.000  0.000  0.000  0.000  0.148
    2  0.051  0.032  0.029  0.032  0.000  0.000  0.000  0.000  0.000  0.145
tot    0.085  0.081  0.073  0.053  0.000  0.000  0.000  0.000  0.000  0.292
 
band     9 # energy   16.41493500 # occ.  0.00000000
 
ion      s     py     pz     px    dxy    dyz    dz2    dxz  x2-y2    tot
    1  0.000  0.067  0.090  0.014  0.000  0.000  0.000  0.000  0.000  0.170
    2  0.000  0.015  0.020  0.063  0.000  0.000  0.000  0.000  0.000  0.097
tot    0.000  0.081  0.109  0.076  0.000  0.000  0.000  0.000  0.000  0.267
 
band    10 # energy   16.41493534 # occ.  0.00000000
 
ion      s     py     pz     px    dxy    dyz    dz2    dxz  x2-y2    tot
    1  0.000  0.015  0.020  0.063  0.000  0.000  0.000  0.000  0.000  0.097
    2  0.000  0.067  0.090  0.014  0.000  0.000  0.000  0.000  0.000  0.170
tot    0.000  0.081  0.109  0.076  0.000  0.000  0.000  0.000  0.000  0.267
 
band    11 # energy   24.62810205 # occ.  0.00000000
 
ion      s     py     pz     px    dxy    dyz    dz2    dxz  x2-y2    tot
    1  0.010  0.007  0.061  0.012  0.000  0.000  0.000  0.000  0.000  0.090
    2  0.017  0.005  0.030  0.014  0.000  0.000  0.000  0.000  0.000  0.066
tot    0.027  0.012  0.091  0.026  0.000  0.000  0.000  0.000  0.000  0.156
 
band    12 # energy   25.23150123 # occ.  0.00000000
 
ion      s     py     pz     px    dxy    dyz    dz2    dxz  x2-y2    tot
    1  0.005  0.000  0.004  0.008  0.000  0.000  0.000  0.000  0.000  0.018
    2  0.032  0.007  0.064  0.003  0.000  0.000  0.000  0.000  0.000  0.106
tot    0.038  0.008  0.068  0.010  0.000  0.000  0.000  0.000  0.000  0.124
 

 k-point   105 :    0.50000000 0.22857143 0.72857143     weight = 0.00555556

band     1 # energy   -1.82228959 # occ.  2.00000000
 
ion      s     py     pz     px    dxy    dyz    dz2    dxz  x2-y2    tot
    1  0.175  0.028  0.020  0.000  0.000  0.000  0.000  0.000  0.000  0.224
    2  0.234  0.021  0.015  0.000  0.000  0.000  0.000  0.000  0.000  0.270
tot    0.409  0.049  0.035  0.000  0.000  0.000  0.000  0.000  0.000  0.494
 
band     2 # energy   -1.82228951 # occ.  2.00000000
 
ion      s     py     pz     px    dxy    dyz    dz2    dxz  x2-y2    tot
    1  0.234  0.021  0.015  0.000  0.000  0.000  0.000  0.000  0.000  0.270
    2  0.175  0.028  0.020  0.000  0.000  0.000  0.000  0.000  0.000  0.224
tot    0.409  0.049  0.035  0.000  0.000  0.000  0.000  0.000  0.000  0.494
 
band     3 # energy    1.99462948 # occ.  2.00000000
 
ion      s     py     pz     px    dxy    dyz    dz2    dxz  x2-y2    tot
    1  0.000  0.041  0.052  0.069  0.000  0.000  0.000  0.000  0.000  0.162
    2  0.000  0.040  0.051  0.070  0.000  0.000  0.000  0.000  0.000  0.161
tot    0.000  0.081  0.103  0.139  0.000  0.000  0.000  0.000  0.000  0.323
 
band     4 # energy    1.99462959 # occ.  2.00000000
 
ion      s     py     pz     px    dxy    dyz    dz2    dxz  x2-y2    tot
    1  0.000  0.040  0.051  0.070  0.000  0.000  0.000  0.000  0.000  0.161
    2  0.000  0.041  0.052  0.069  0.000  0.000  0.000  0.000  0.000  0.162
tot    0.000  0.081  0.103  0.139  0.000  0.000  0.000  0.000  0.000  0.323
 
band     5 # energy    9.84528113 # occ.  0.00000000
 
ion      s     py     pz     px    dxy    dyz    dz2    dxz  x2-y2    tot
    1  0.007  0.014  0.018  0.033  0.000  0.000  0.000  0.000  0.000  0.072
    2  0.022  0.005  0.006  0.098  0.000  0.000  0.000  0.000  0.000  0.131
tot    0.029  0.018  0.024  0.131  0.000  0.000  0.000  0.000  0.000  0.202
 
band     6 # energy    9.84528143 # occ.  0.00000000
 
ion      s     py     pz     px    dxy    dyz    dz2    dxz  x2-y2    tot
    1  0.022  0.005  0.006  0.098  0.000  0.000  0.000  0.000  0.000  0.131
    2  0.007  0.014  0.018  0.033  0.000  0.000  0.000  0.000  0.000  0.072
tot    0.029  0.018  0.024  0.131  0.000  0.000  0.000  0.000  0.000  0.202
 
band     7 # energy   11.10925019 # occ.  0.00000000
 
ion      s     py     pz     px    dxy    dyz    dz2    dxz  x2-y2    tot
    1  0.027  0.061  0.056  0.012  0.000  0.000  0.000  0.000  0.000  0.156
    2  0.067  0.025  0.023  0.029  0.000  0.000  0.000  0.000  0.000  0.144
tot    0.094  0.086  0.078  0.041  0.000  0.000  0.000  0.000  0.000  0.300
 
band     8 # energy   11.10925023 # occ.  0.00000000
 
ion      s     py     pz     px    dxy    dyz    dz2    dxz  x2-y2    tot
    1  0.067  0.025  0.023  0.029  0.000  0.000  0.000  0.000  0.000  0.144
    2  0.027  0.061  0.056  0.012  0.000  0.000  0.000  0.000  0.000  0.156
tot    0.094  0.086  0.078  0.041  0.000  0.000  0.000  0.000  0.000  0.300
 
band     9 # energy   16.41528502 # occ.  0.00000000
 
ion      s     py     pz     px    dxy    dyz    dz2    dxz  x2-y2    tot
    1  0.000  0.042  0.053  0.038  0.000  0.000  0.000  0.000  0.000  0.134
    2  0.000  0.042  0.053  0.038  0.000  0.000  0.000  0.000  0.000  0.134
tot    0.000  0.085  0.106  0.077  0.000  0.000  0.000  0.000  0.000  0.267
 
band    10 # energy   16.41528691 # occ.  0.00000000
 
ion      s     py     pz     px    dxy    dyz    dz2    dxz  x2-y2    tot
    1  0.000  0.042  0.053  0.038  0.000  0.000  0.000  0.000  0.000  0.134
    2  0.000  0.042  0.053  0.038  0.000  0.000  0.000  0.000  0.000  0.134
tot    0.000  0.085  0.106  0.077  0.000  0.000  0.000  0.000  0.000  0.267
 
band    11 # energy   18.87200635 # occ.  0.00000000
 
ion      s     py     pz     px    dxy    dyz    dz2    dxz  x2-y2    tot
    1  0.025  0.062  0.048  0.000  0.000  0.000  0.000  0.000  0.000  0.135
    2  0.027  0.057  0.044  0.000  0.000  0.000  0.000  0.000  0.000  0.127
tot    0.052  0.119  0.092  0.000  0.000  0.000  0.000  0.000  0.000  0.262
 
band    12 # energy   25.06294810 # occ.  0.00000000
 
ion      s     py     pz     px    dxy    dyz    dz2    dxz  x2-y2    tot
    1  0.033  0.008  0.014  0.002  0.000  0.000  0.000  0.000  0.000  0.056
    2  0.005  0.014  0.008  0.005  0.000  0.000  0.000  0.000  0.000  0.032
tot    0.038  0.021  0.022  0.007  0.000  0.000  0.000  0.000  0.000  0.088
 

 k-point   106 :    0.50000000 0.23571429 0.73571429     weight = 0.00555556

band     1 # energy   -1.82048608 # occ.  2.00000000
 
ion      s     py     pz     px    dxy    dyz    dz2    dxz  x2-y2    tot
    1  0.179  0.027  0.021  0.000  0.000  0.000  0.000  0.000  0.000  0.226
    2  0.231  0.021  0.016  0.000  0.000  0.000  0.000  0.000  0.000  0.268
tot    0.409  0.047  0.038  0.000  0.000  0.000  0.000  0.000  0.000  0.494
 
band     2 # energy   -1.82048604 # occ.  2.00000000
 
ion      s     py     pz     px    dxy    dyz    dz2    dxz  x2-y2    tot
    1  0.231  0.021  0.016  0.000  0.000  0.000  0.000  0.000  0.000  0.268
    2  0.179  0.027  0.021  0.000  0.000  0.000  0.000  0.000  0.000  0.226
tot    0.409  0.047  0.038  0.000  0.000  0.000  0.000  0.000  0.000  0.494
 
band     3 # energy    1.98660929 # occ.  2.00000000
 
ion      s     py     pz     px    dxy    dyz    dz2    dxz  x2-y2    tot
    1  0.000  0.046  0.054  0.063  0.000  0.000  0.000  0.000  0.000  0.163
    2  0.000  0.039  0.045  0.076  0.000  0.000  0.000  0.000  0.000  0.159
tot    0.000  0.085  0.099  0.139  0.000  0.000  0.000  0.000  0.000  0.323
 
band     4 # energy    1.98660937 # occ.  2.00000000
 
ion      s     py     pz     px    dxy    dyz    dz2    dxz  x2-y2    tot
    1  0.000  0.039  0.045  0.076  0.000  0.000  0.000  0.000  0.000  0.159
    2  0.000  0.046  0.054  0.063  0.000  0.000  0.000  0.000  0.000  0.163
tot    0.000  0.085  0.099  0.139  0.000  0.000  0.000  0.000  0.000  0.323
 
band     5 # energy    9.96946456 # occ.  0.00000000
 
ion      s     py     pz     px    dxy    dyz    dz2    dxz  x2-y2    tot
    1  0.012  0.004  0.006  0.093  0.000  0.000  0.000  0.000  0.000  0.114
    2  0.007  0.007  0.010  0.054  0.000  0.000  0.000  0.000  0.000  0.078
tot    0.018  0.011  0.016  0.146  0.000  0.000  0.000  0.000  0.000  0.192
 
band     6 # energy    9.96946572 # occ.  0.00000000
 
ion      s     py     pz     px    dxy    dyz    dz2    dxz  x2-y2    tot
    1  0.007  0.007  0.010  0.054  0.000  0.000  0.000  0.000  0.000  0.078
    2  0.012  0.004  0.006  0.093  0.000  0.000  0.000  0.000  0.000  0.114
tot    0.018  0.011  0.016  0.146  0.000  0.000  0.000  0.000  0.000  0.192
 
band     7 # energy   10.97625812 # occ.  0.00000000
 
ion      s     py     pz     px    dxy    dyz    dz2    dxz  x2-y2    tot
    1  0.005  0.089  0.082  0.001  0.000  0.000  0.000  0.000  0.000  0.177
    2  0.099  0.004  0.004  0.025  0.000  0.000  0.000  0.000  0.000  0.133
tot    0.104  0.093  0.087  0.026  0.000  0.000  0.000  0.000  0.000  0.310
 
band     8 # energy   10.97625815 # occ.  0.00000000
 
ion      s     py     pz     px    dxy    dyz    dz2    dxz  x2-y2    tot
    1  0.099  0.004  0.004  0.025  0.000  0.000  0.000  0.000  0.000  0.133
    2  0.005  0.089  0.082  0.001  0.000  0.000  0.000  0.000  0.000  0.177
tot    0.104  0.093  0.087  0.026  0.000  0.000  0.000  0.000  0.000  0.310
 
band     9 # energy   16.41554177 # occ.  0.00000000
 
ion      s     py     pz     px    dxy    dyz    dz2    dxz  x2-y2    tot
    1  0.000  0.035  0.041  0.046  0.000  0.000  0.000  0.000  0.000  0.122
    2  0.000  0.053  0.062  0.031  0.000  0.000  0.000  0.000  0.000  0.145
tot    0.000  0.088  0.102  0.077  0.000  0.000  0.000  0.000  0.000  0.267
 
band    10 # energy   16.41554201 # occ.  0.00000000
 
ion      s     py     pz     px    dxy    dyz    dz2    dxz  x2-y2    tot
    1  0.000  0.053  0.062  0.031  0.000  0.000  0.000  0.000  0.000  0.145
    2  0.000  0.035  0.041  0.046  0.000  0.000  0.000  0.000  0.000  0.122
tot    0.000  0.088  0.103  0.077  0.000  0.000  0.000  0.000  0.000  0.267
 
band    11 # energy   18.87544173 # occ.  0.00000000
 
ion      s     py     pz     px    dxy    dyz    dz2    dxz  x2-y2    tot
    1  0.026  0.057  0.048  0.000  0.000  0.000  0.000  0.000  0.000  0.130
    2  0.026  0.058  0.049  0.000  0.000  0.000  0.000  0.000  0.000  0.132
tot    0.052  0.115  0.096  0.000  0.000  0.000  0.000  0.000  0.000  0.263
 
band    12 # energy   24.40565726 # occ.  0.00000000
 
ion      s     py     pz     px    dxy    dyz    dz2    dxz  x2-y2    tot
    1  0.005  0.047  0.000  0.001  0.000  0.000  0.000  0.000  0.000  0.053
    2  0.036  0.006  0.010  0.020  0.000  0.000  0.000  0.000  0.000  0.072
tot    0.041  0.053  0.010  0.020  0.000  0.000  0.000  0.000  0.000  0.125
 

 k-point   107 :    0.50000000 0.24285714 0.74285714     weight = 0.00555556

band     1 # energy   -1.81939619 # occ.  2.00000000
 
ion      s     py     pz     px    dxy    dyz    dz2    dxz  x2-y2    tot
    1  0.195  0.023  0.021  0.000  0.000  0.000  0.000  0.000  0.000  0.239
    2  0.214  0.021  0.019  0.000  0.000  0.000  0.000  0.000  0.000  0.255
tot    0.410  0.045  0.040  0.000  0.000  0.000  0.000  0.000  0.000  0.494
 
band     2 # energy   -1.81939612 # occ.  2.00000000
 
ion      s     py     pz     px    dxy    dyz    dz2    dxz  x2-y2    tot
    1  0.214  0.021  0.019  0.000  0.000  0.000  0.000  0.000  0.000  0.255
    2  0.195  0.023  0.021  0.000  0.000  0.000  0.000  0.000  0.000  0.240
tot    0.410  0.045  0.040  0.000  0.000  0.000  0.000  0.000  0.000  0.494
 
band     3 # energy    1.98178222 # occ.  2.00000000
 
ion      s     py     pz     px    dxy    dyz    dz2    dxz  x2-y2    tot
    1  0.000  0.047  0.051  0.065  0.000  0.000  0.000  0.000  0.000  0.163
    2  0.000  0.041  0.045  0.074  0.000  0.000  0.000  0.000  0.000  0.160
tot    0.000  0.088  0.095  0.139  0.000  0.000  0.000  0.000  0.000  0.323
 
band     4 # energy    1.98178232 # occ.  2.00000000
 
ion      s     py     pz     px    dxy    dyz    dz2    dxz  x2-y2    tot
    1  0.000  0.041  0.045  0.074  0.000  0.000  0.000  0.000  0.000  0.160
    2  0.000  0.047  0.051  0.065  0.000  0.000  0.000  0.000  0.000  0.163
tot    0.000  0.088  0.095  0.139  0.000  0.000  0.000  0.000  0.000  0.323
 
band     5 # energy   10.06314655 # occ.  0.00000000
 
ion      s     py     pz     px    dxy    dyz    dz2    dxz  x2-y2    tot
    1  0.005  0.000  0.001  0.140  0.000  0.000  0.000  0.000  0.000  0.147
    2  0.001  0.003  0.006  0.024  0.000  0.000  0.000  0.000  0.000  0.033
tot    0.006  0.003  0.007  0.163  0.000  0.000  0.000  0.000  0.000  0.179
 
band     6 # energy   10.06314655 # occ.  0.00000000
 
ion      s     py     pz     px    dxy    dyz    dz2    dxz  x2-y2    tot
    1  0.001  0.003  0.006  0.024  0.000  0.000  0.000  0.000  0.000  0.033
    2  0.005  0.000  0.001  0.140  0.000  0.000  0.000  0.000  0.000  0.147
tot    0.006  0.003  0.007  0.163  0.000  0.000  0.000  0.000  0.000  0.179
 
band     7 # energy   10.87729280 # occ.  0.00000000
 
ion      s     py     pz     px    dxy    dyz    dz2    dxz  x2-y2    tot
    1  0.072  0.038  0.037  0.006  0.000  0.000  0.000  0.000  0.000  0.153
    2  0.045  0.062  0.060  0.003  0.000  0.000  0.000  0.000  0.000  0.170
tot    0.116  0.101  0.097  0.009  0.000  0.000  0.000  0.000  0.000  0.323
 
band     8 # energy   10.87729284 # occ.  0.00000000
 
ion      s     py     pz     px    dxy    dyz    dz2    dxz  x2-y2    tot
    1  0.045  0.062  0.060  0.003  0.000  0.000  0.000  0.000  0.000  0.170
    2  0.072  0.039  0.037  0.006  0.000  0.000  0.000  0.000  0.000  0.153
tot    0.116  0.101  0.097  0.009  0.000  0.000  0.000  0.000  0.000  0.323
 
band     9 # energy   16.41569866 # occ.  0.00000000
 
ion      s     py     pz     px    dxy    dyz    dz2    dxz  x2-y2    tot
    1  0.000  0.043  0.047  0.041  0.000  0.000  0.000  0.000  0.000  0.130
    2  0.000  0.049  0.052  0.036  0.000  0.000  0.000  0.000  0.000  0.137
tot    0.000  0.092  0.099  0.077  0.000  0.000  0.000  0.000  0.000  0.268
 
band    10 # energy   16.41569887 # occ.  0.00000000
 
ion      s     py     pz     px    dxy    dyz    dz2    dxz  x2-y2    tot
    1  0.000  0.049  0.052  0.036  0.000  0.000  0.000  0.000  0.000  0.137
    2  0.000  0.043  0.046  0.041  0.000  0.000  0.000  0.000  0.000  0.130
tot    0.000  0.092  0.099  0.077  0.000  0.000  0.000  0.000  0.000  0.268
 
band    11 # energy   24.46284807 # occ.  0.00000000
 
ion      s     py     pz     px    dxy    dyz    dz2    dxz  x2-y2    tot
    1  0.003  0.040  0.024  0.010  0.000  0.000  0.000  0.000  0.000  0.077
    2  0.038  0.008  0.016  0.018  0.000  0.000  0.000  0.000  0.000  0.080
tot    0.040  0.048  0.040  0.028  0.000  0.000  0.000  0.000  0.000  0.156
 
band    12 # energy   25.50576565 # occ.  0.00000000
 
ion      s     py     pz     px    dxy    dyz    dz2    dxz  x2-y2    tot
    1  0.040  0.007  0.008  0.001  0.000  0.000  0.000  0.000  0.000  0.057
    2  0.008  0.004  0.041  0.005  0.000  0.000  0.000  0.000  0.000  0.058
tot    0.049  0.011  0.049  0.006  0.000  0.000  0.000  0.000  0.000  0.114
 

 k-point   108 :    0.50000000 0.25000000 0.75000000     weight = 0.00555556

band     1 # energy   -1.81903159 # occ.  2.00000000
 
ion      s     py     pz     px    dxy    dyz    dz2    dxz  x2-y2    tot
    1  0.168  0.025  0.025  0.000  0.000  0.000  0.000  0.000  0.000  0.218
    2  0.242  0.017  0.017  0.000  0.000  0.000  0.000  0.000  0.000  0.276
tot    0.410  0.042  0.042  0.000  0.000  0.000  0.000  0.000  0.000  0.494
 
band     2 # energy   -1.81903155 # occ.  2.00000000
 
ion      s     py     pz     px    dxy    dyz    dz2    dxz  x2-y2    tot
    1  0.242  0.017  0.017  0.000  0.000  0.000  0.000  0.000  0.000  0.276
    2  0.168  0.025  0.025  0.000  0.000  0.000  0.000  0.000  0.000  0.218
tot    0.410  0.042  0.042  0.000  0.000  0.000  0.000  0.000  0.000  0.494
 
band     3 # energy    1.98017071 # occ.  2.00000000
 
ion      s     py     pz     px    dxy    dyz    dz2    dxz  x2-y2    tot
    1  0.000  0.049  0.049  0.065  0.000  0.000  0.000  0.000  0.000  0.163
    2  0.000  0.043  0.043  0.074  0.000  0.000  0.000  0.000  0.000  0.160
tot    0.000  0.092  0.092  0.139  0.000  0.000  0.000  0.000  0.000  0.322
 
band     4 # energy    1.98017080 # occ.  2.00000000
 
ion      s     py     pz     px    dxy    dyz    dz2    dxz  x2-y2    tot
    1  0.000  0.043  0.043  0.074  0.000  0.000  0.000  0.000  0.000  0.160
    2  0.000  0.049  0.049  0.065  0.000  0.000  0.000  0.000  0.000  0.163
tot    0.000  0.092  0.092  0.139  0.000  0.000  0.000  0.000  0.000  0.322
 
band     5 # energy   10.09993670 # occ.  0.00000000
 
ion      s     py     pz     px    dxy    dyz    dz2    dxz  x2-y2    tot
    1  0.000  0.000  0.000  0.006  0.000  0.000  0.000  0.000  0.000  0.006
    2  0.000  0.000  0.000  0.167  0.000  0.000  0.000  0.000  0.000  0.167
tot    0.000  0.000  0.000  0.172  0.000  0.000  0.000  0.000  0.000  0.173
 
band     6 # energy   10.09993684 # occ.  0.00000000
 
ion      s     py     pz     px    dxy    dyz    dz2    dxz  x2-y2    tot
    1  0.000  0.000  0.000  0.167  0.000  0.000  0.000  0.000  0.000  0.167
    2  0.000  0.000  0.000  0.006  0.000  0.000  0.000  0.000  0.000  0.006
tot    0.000  0.000  0.000  0.172  0.000  0.000  0.000  0.000  0.000  0.173
 
band     7 # energy   10.83874192 # occ.  0.00000000
 
ion      s     py     pz     px    dxy    dyz    dz2    dxz  x2-y2    tot
    1  0.030  0.078  0.078  0.000  0.000  0.000  0.000  0.000  0.000  0.186
    2  0.093  0.025  0.025  0.000  0.000  0.000  0.000  0.000  0.000  0.143
tot    0.123  0.103  0.103  0.000  0.000  0.000  0.000  0.000  0.000  0.329
 
band     8 # energy   10.83874215 # occ.  0.00000000
 
ion      s     py     pz     px    dxy    dyz    dz2    dxz  x2-y2    tot
    1  0.093  0.025  0.025  0.000  0.000  0.000  0.000  0.000  0.000  0.143
    2  0.030  0.078  0.078  0.000  0.000  0.000  0.000  0.000  0.000  0.186
tot    0.123  0.103  0.103  0.000  0.000  0.000  0.000  0.000  0.000  0.329
 
band     9 # energy   16.41575127 # occ.  0.00000000
 
ion      s     py     pz     px    dxy    dyz    dz2    dxz  x2-y2    tot
    1  0.000  0.084  0.084  0.009  0.000  0.000  0.000  0.000  0.000  0.178
    2  0.000  0.011  0.011  0.068  0.000  0.000  0.000  0.000  0.000  0.090
tot    0.000  0.095  0.095  0.077  0.000  0.000  0.000  0.000  0.000  0.268
 
band    10 # energy   16.41575141 # occ.  0.00000000
 
ion      s     py     pz     px    dxy    dyz    dz2    dxz  x2-y2    tot
    1  0.000  0.011  0.011  0.068  0.000  0.000  0.000  0.000  0.000  0.090
    2  0.000  0.084  0.084  0.009  0.000  0.000  0.000  0.000  0.000  0.178
tot    0.000  0.095  0.095  0.077  0.000  0.000  0.000  0.000  0.000  0.268
 
band    11 # energy   18.87822506 # occ.  0.00000000
 
ion      s     py     pz     px    dxy    dyz    dz2    dxz  x2-y2    tot
    1  0.046  0.012  0.012  0.000  0.000  0.000  0.000  0.000  0.000  0.070
    2  0.006  0.093  0.094  0.000  0.000  0.000  0.000  0.000  0.000  0.193
tot    0.052  0.105  0.106  0.000  0.000  0.000  0.000  0.000  0.000  0.263
 
band    12 # energy   24.73322022 # occ.  0.00000000
 
ion      s     py     pz     px    dxy    dyz    dz2    dxz  x2-y2    tot
    1  0.010  0.006  0.002  0.022  0.000  0.000  0.000  0.000  0.000  0.040
    2  0.004  0.006  0.089  0.001  0.000  0.000  0.000  0.000  0.000  0.100
tot    0.014  0.012  0.091  0.022  0.000  0.000  0.000  0.000  0.000  0.139
 

 k-point   109 :    0.50000000 0.25000000 0.75000000     weight = 0.00555556

band     1 # energy   -1.81903160 # occ.  2.00000000
 
ion      s     py     pz     px    dxy    dyz    dz2    dxz  x2-y2    tot
    1  0.295  0.012  0.012  0.000  0.000  0.000  0.000  0.000  0.000  0.319
    2  0.115  0.030  0.030  0.000  0.000  0.000  0.000  0.000  0.000  0.176
tot    0.410  0.042  0.042  0.000  0.000  0.000  0.000  0.000  0.000  0.494
 
band     2 # energy   -1.81903156 # occ.  2.00000000
 
ion      s     py     pz     px    dxy    dyz    dz2    dxz  x2-y2    tot
    1  0.115  0.030  0.030  0.000  0.000  0.000  0.000  0.000  0.000  0.176
    2  0.295  0.012  0.012  0.000  0.000  0.000  0.000  0.000  0.000  0.319
tot    0.410  0.042  0.042  0.000  0.000  0.000  0.000  0.000  0.000  0.494
 
band     3 # energy    1.98017071 # occ.  2.00000000
 
ion      s     py     pz     px    dxy    dyz    dz2    dxz  x2-y2    tot
    1  0.000  0.038  0.038  0.082  0.000  0.000  0.000  0.000  0.000  0.157
    2  0.000  0.054  0.054  0.057  0.000  0.000  0.000  0.000  0.000  0.165
tot    0.000  0.092  0.092  0.139  0.000  0.000  0.000  0.000  0.000  0.322
 
band     4 # energy    1.98017080 # occ.  2.00000000
 
ion      s     py     pz     px    dxy    dyz    dz2    dxz  x2-y2    tot
    1  0.000  0.054  0.054  0.057  0.000  0.000  0.000  0.000  0.000  0.165
    2  0.000  0.038  0.038  0.082  0.000  0.000  0.000  0.000  0.000  0.157
tot    0.000  0.092  0.092  0.139  0.000  0.000  0.000  0.000  0.000  0.322
 
band     5 # energy   10.09993669 # occ.  0.00000000
 
ion      s     py     pz     px    dxy    dyz    dz2    dxz  x2-y2    tot
    1  0.000  0.000  0.000  0.049  0.000  0.000  0.000  0.000  0.000  0.049
    2  0.000  0.000  0.000  0.124  0.000  0.000  0.000  0.000  0.000  0.124
tot    0.000  0.000  0.000  0.172  0.000  0.000  0.000  0.000  0.000  0.173
 
band     6 # energy   10.09993687 # occ.  0.00000000
 
ion      s     py     pz     px    dxy    dyz    dz2    dxz  x2-y2    tot
    1  0.000  0.000  0.000  0.124  0.000  0.000  0.000  0.000  0.000  0.124
    2  0.000  0.000  0.000  0.049  0.000  0.000  0.000  0.000  0.000  0.049
tot    0.000  0.000  0.000  0.172  0.000  0.000  0.000  0.000  0.000  0.173
 
band     7 # energy   10.83874191 # occ.  0.00000000
 
ion      s     py     pz     px    dxy    dyz    dz2    dxz  x2-y2    tot
    1  0.076  0.039  0.039  0.000  0.000  0.000  0.000  0.000  0.000  0.155
    2  0.047  0.064  0.064  0.000  0.000  0.000  0.000  0.000  0.000  0.175
tot    0.123  0.103  0.103  0.000  0.000  0.000  0.000  0.000  0.000  0.329
 
band     8 # energy   10.83874193 # occ.  0.00000000
 
ion      s     py     pz     px    dxy    dyz    dz2    dxz  x2-y2    tot
    1  0.047  0.064  0.064  0.000  0.000  0.000  0.000  0.000  0.000  0.175
    2  0.076  0.039  0.039  0.000  0.000  0.000  0.000  0.000  0.000  0.155
tot    0.123  0.103  0.103  0.000  0.000  0.000  0.000  0.000  0.000  0.330
 
band     9 # energy   16.41575132 # occ.  0.00000000
 
ion      s     py     pz     px    dxy    dyz    dz2    dxz  x2-y2    tot
    1  0.000  0.046  0.046  0.040  0.000  0.000  0.000  0.000  0.000  0.132
    2  0.000  0.050  0.050  0.037  0.000  0.000  0.000  0.000  0.000  0.136
tot    0.000  0.095  0.095  0.077  0.000  0.000  0.000  0.000  0.000  0.268
 
band    10 # energy   16.41575154 # occ.  0.00000000
 
ion      s     py     pz     px    dxy    dyz    dz2    dxz  x2-y2    tot
    1  0.000  0.050  0.049  0.037  0.000  0.000  0.000  0.000  0.000  0.136
    2  0.000  0.046  0.046  0.040  0.000  0.000  0.000  0.000  0.000  0.132
tot    0.000  0.095  0.095  0.077  0.000  0.000  0.000  0.000  0.000  0.268
 
band    11 # energy   22.50927056 # occ.  0.00000000
 
ion      s     py     pz     px    dxy    dyz    dz2    dxz  x2-y2    tot
    1  0.008  0.010  0.002  0.004  0.000  0.000  0.000  0.000  0.000  0.024
    2  0.001  0.042  0.009  0.003  0.000  0.000  0.000  0.000  0.000  0.055
tot    0.009  0.053  0.011  0.007  0.000  0.000  0.000  0.000  0.000  0.079
 
band    12 # energy   24.71014150 # occ.  0.00000000
 
ion      s     py     pz     px    dxy    dyz    dz2    dxz  x2-y2    tot
    1  0.007  0.018  0.049  0.000  0.000  0.000  0.000  0.000  0.000  0.074
    2  0.026  0.009  0.003  0.024  0.000  0.000  0.000  0.000  0.000  0.062
tot    0.033  0.027  0.052  0.024  0.000  0.000  0.000  0.000  0.000  0.136
 

 k-point   110 :    0.49642857 0.25357143 0.75000000     weight = 0.00555556

band     1 # energy   -1.85141532 # occ.  2.00000000
 
ion      s     py     pz     px    dxy    dyz    dz2    dxz  x2-y2    tot
    1  0.205  0.020  0.021  0.000  0.000  0.000  0.000  0.000  0.000  0.247
    2  0.205  0.020  0.021  0.000  0.000  0.000  0.000  0.000  0.000  0.247
tot    0.411  0.041  0.042  0.000  0.000  0.000  0.000  0.000  0.000  0.494
 
band     2 # energy   -1.78695652 # occ.  2.00000000
 
ion      s     py     pz     px    dxy    dyz    dz2    dxz  x2-y2    tot
    1  0.204  0.021  0.022  0.000  0.000  0.000  0.000  0.000  0.000  0.247
    2  0.204  0.021  0.022  0.000  0.000  0.000  0.000  0.000  0.000  0.247
tot    0.409  0.041  0.044  0.000  0.000  0.000  0.000  0.000  0.000  0.494
 
band     3 # energy    1.95575269 # occ.  2.00000000
 
ion      s     py     pz     px    dxy    dyz    dz2    dxz  x2-y2    tot
    1  0.000  0.046  0.046  0.069  0.000  0.000  0.000  0.000  0.000  0.161
    2  0.000  0.046  0.046  0.069  0.000  0.000  0.000  0.000  0.000  0.161
tot    0.000  0.092  0.091  0.138  0.000  0.000  0.000  0.000  0.000  0.322
 
band     4 # energy    2.00619109 # occ.  2.00000000
 
ion      s     py     pz     px    dxy    dyz    dz2    dxz  x2-y2    tot
    1  0.000  0.047  0.044  0.070  0.000  0.000  0.000  0.000  0.000  0.162
    2  0.000  0.047  0.044  0.070  0.000  0.000  0.000  0.000  0.000  0.162
tot    0.000  0.095  0.089  0.140  0.000  0.000  0.000  0.000  0.000  0.323
 
band     5 # energy   10.05696345 # occ.  0.00000000
 
ion      s     py     pz     px    dxy    dyz    dz2    dxz  x2-y2    tot
    1  0.002  0.002  0.001  0.084  0.000  0.000  0.000  0.000  0.000  0.088
    2  0.002  0.002  0.001  0.084  0.000  0.000  0.000  0.000  0.000  0.088
tot    0.003  0.004  0.002  0.168  0.000  0.000  0.000  0.000  0.000  0.176
 
band     6 # energy   10.12141968 # occ.  0.00000000
 
ion      s     py     pz     px    dxy    dyz    dz2    dxz  x2-y2    tot
    1  0.000  0.001  0.000  0.086  0.000  0.000  0.000  0.000  0.000  0.087
    2  0.000  0.001  0.000  0.086  0.000  0.000  0.000  0.000  0.000  0.087
tot    0.001  0.001  0.000  0.172  0.000  0.000  0.000  0.000  0.000  0.174
 
band     7 # energy   10.83061930 # occ.  0.00000000
 
ion      s     py     pz     px    dxy    dyz    dz2    dxz  x2-y2    tot
    1  0.060  0.049  0.051  0.002  0.000  0.000  0.000  0.000  0.000  0.163
    2  0.060  0.049  0.051  0.002  0.000  0.000  0.000  0.000  0.000  0.163
tot    0.121  0.098  0.102  0.005  0.000  0.000  0.000  0.000  0.000  0.325
 
band     8 # energy   10.87015880 # occ.  0.00000000
 
ion      s     py     pz     px    dxy    dyz    dz2    dxz  x2-y2    tot
    1  0.061  0.052  0.052  0.000  0.000  0.000  0.000  0.000  0.000  0.165
    2  0.061  0.052  0.052  0.000  0.000  0.000  0.000  0.000  0.000  0.165
tot    0.121  0.104  0.104  0.001  0.000  0.000  0.000  0.000  0.000  0.329
 
band     9 # energy   16.35450995 # occ.  0.00000000
 
ion      s     py     pz     px    dxy    dyz    dz2    dxz  x2-y2    tot
    1  0.000  0.046  0.049  0.039  0.000  0.000  0.000  0.000  0.000  0.135
    2  0.000  0.047  0.049  0.039  0.000  0.000  0.000  0.000  0.000  0.135
tot    0.000  0.093  0.099  0.077  0.000  0.000  0.000  0.000  0.000  0.269
 
band    10 # energy   16.47357326 # occ.  0.00000000
 
ion      s     py     pz     px    dxy    dyz    dz2    dxz  x2-y2    tot
    1  0.000  0.051  0.044  0.038  0.000  0.000  0.000  0.000  0.000  0.133
    2  0.000  0.051  0.044  0.038  0.000  0.000  0.000  0.000  0.000  0.133
tot    0.000  0.102  0.088  0.076  0.000  0.000  0.000  0.000  0.000  0.266
 
band    11 # energy   18.84489413 # occ.  0.00000000
 
ion      s     py     pz     px    dxy    dyz    dz2    dxz  x2-y2    tot
    1  0.028  0.046  0.052  0.000  0.000  0.000  0.000  0.000  0.000  0.126
    2  0.024  0.053  0.059  0.000  0.000  0.000  0.000  0.000  0.000  0.137
tot    0.052  0.099  0.111  0.000  0.000  0.000  0.000  0.000  0.000  0.263
 
band    12 # energy   24.50932118 # occ.  0.00000000
 
ion      s     py     pz     px    dxy    dyz    dz2    dxz  x2-y2    tot
    1  0.015  0.008  0.057  0.004  0.000  0.000  0.000  0.000  0.000  0.084
    2  0.004  0.003  0.013  0.011  0.000  0.000  0.000  0.000  0.000  0.030
tot    0.019  0.011  0.070  0.015  0.000  0.000  0.000  0.000  0.000  0.115
 

 k-point   111 :    0.49285714 0.25714286 0.75000000     weight = 0.00555556

band     1 # energy   -1.88287977 # occ.  2.00000000
 
ion      s     py     pz     px    dxy    dyz    dz2    dxz  x2-y2    tot
    1  0.206  0.020  0.021  0.000  0.000  0.000  0.000  0.000  0.000  0.247
    2  0.206  0.020  0.021  0.000  0.000  0.000  0.000  0.000  0.000  0.247
tot    0.412  0.040  0.043  0.000  0.000  0.000  0.000  0.000  0.000  0.494
 
band     2 # energy   -1.75642278 # occ.  2.00000000
 
ion      s     py     pz     px    dxy    dyz    dz2    dxz  x2-y2    tot
    1  0.204  0.020  0.023  0.000  0.000  0.000  0.000  0.000  0.000  0.247
    2  0.204  0.020  0.023  0.000  0.000  0.000  0.000  0.000  0.000  0.247
tot    0.408  0.040  0.047  0.000  0.000  0.000  0.000  0.000  0.000  0.494
 
band     3 # energy    1.93193415 # occ.  2.00000000
 
ion      s     py     pz     px    dxy    dyz    dz2    dxz  x2-y2    tot
    1  0.000  0.047  0.046  0.068  0.000  0.000  0.000  0.000  0.000  0.161
    2  0.000  0.047  0.046  0.068  0.000  0.000  0.000  0.000  0.000  0.161
tot    0.000  0.093  0.091  0.137  0.000  0.000  0.000  0.000  0.000  0.321
 
band     4 # energy    2.03480251 # occ.  2.00000000
 
ion      s     py     pz     px    dxy    dyz    dz2    dxz  x2-y2    tot
    1  0.000  0.049  0.043  0.070  0.000  0.000  0.000  0.000  0.000  0.162
    2  0.000  0.049  0.043  0.070  0.000  0.000  0.000  0.000  0.000  0.162
tot    0.000  0.098  0.085  0.141  0.000  0.000  0.000  0.000  0.000  0.324
 
band     5 # energy    9.98198986 # occ.  0.00000000
 
ion      s     py     pz     px    dxy    dyz    dz2    dxz  x2-y2    tot
    1  0.006  0.005  0.003  0.078  0.000  0.000  0.000  0.000  0.000  0.092
    2  0.006  0.005  0.003  0.078  0.000  0.000  0.000  0.000  0.000  0.092
tot    0.011  0.010  0.007  0.156  0.000  0.000  0.000  0.000  0.000  0.185
 
band     6 # energy   10.13690561 # occ.  0.00000000
 
ion      s     py     pz     px    dxy    dyz    dz2    dxz  x2-y2    tot
    1  0.001  0.002  0.000  0.085  0.000  0.000  0.000  0.000  0.000  0.088
    2  0.001  0.002  0.000  0.085  0.000  0.000  0.000  0.000  0.000  0.088
tot    0.002  0.003  0.001  0.169  0.000  0.000  0.000  0.000  0.000  0.176
 
band     7 # energy   10.85671467 # occ.  0.00000000
 
ion      s     py     pz     px    dxy    dyz    dz2    dxz  x2-y2    tot
    1  0.057  0.045  0.049  0.008  0.000  0.000  0.000  0.000  0.000  0.158
    2  0.057  0.045  0.049  0.008  0.000  0.000  0.000  0.000  0.000  0.158
tot    0.114  0.090  0.097  0.015  0.000  0.000  0.000  0.000  0.000  0.316
 
band     8 # energy   10.90898124 # occ.  0.00000000
 
ion      s     py     pz     px    dxy    dyz    dz2    dxz  x2-y2    tot
    1  0.059  0.051  0.052  0.002  0.000  0.000  0.000  0.000  0.000  0.164
    2  0.059  0.051  0.052  0.002  0.000  0.000  0.000  0.000  0.000  0.164
tot    0.118  0.103  0.103  0.004  0.000  0.000  0.000  0.000  0.000  0.328
 
band     9 # energy   16.29114025 # occ.  0.00000000
 
ion      s     py     pz     px    dxy    dyz    dz2    dxz  x2-y2    tot
    1  0.000  0.045  0.051  0.039  0.000  0.000  0.000  0.000  0.000  0.135
    2  0.000  0.045  0.051  0.039  0.000  0.000  0.000  0.000  0.000  0.135
tot    0.000  0.091  0.102  0.077  0.000  0.000  0.000  0.000  0.000  0.271
 
band    10 # energy   16.52619673 # occ.  0.00000000
 
ion      s     py     pz     px    dxy    dyz    dz2    dxz  x2-y2    tot
    1  0.000  0.055  0.039  0.038  0.000  0.000  0.000  0.000  0.000  0.132
    2  0.000  0.054  0.040  0.038  0.000  0.000  0.000  0.000  0.000  0.132
tot    0.000  0.109  0.079  0.076  0.000  0.000  0.000  0.000  0.000  0.264
 
band    11 # energy   18.92559406 # occ.  0.00000000
 
ion      s     py     pz     px    dxy    dyz    dz2    dxz  x2-y2    tot
    1  0.047  0.011  0.007  0.000  0.000  0.000  0.000  0.000  0.000  0.065
    2  0.004  0.094  0.100  0.000  0.000  0.000  0.000  0.000  0.000  0.198
tot    0.051  0.105  0.107  0.000  0.000  0.000  0.000  0.000  0.000  0.263
 
band    12 # energy   24.77235202 # occ.  0.00000000
 
ion      s     py     pz     px    dxy    dyz    dz2    dxz  x2-y2    tot
    1  0.046  0.001  0.002  0.026  0.000  0.000  0.000  0.000  0.000  0.075
    2  0.015  0.013  0.024  0.003  0.000  0.000  0.000  0.000  0.000  0.055
tot    0.062  0.014  0.027  0.029  0.000  0.000  0.000  0.000  0.000  0.131
 

 k-point   112 :    0.48928571 0.26071429 0.75000000     weight = 0.00555556

band     1 # energy   -1.91342308 # occ.  2.00000000
 
ion      s     py     pz     px    dxy    dyz    dz2    dxz  x2-y2    tot
    1  0.206  0.019  0.021  0.000  0.000  0.000  0.000  0.000  0.000  0.247
    2  0.206  0.019  0.021  0.000  0.000  0.000  0.000  0.000  0.000  0.247
tot    0.412  0.038  0.043  0.000  0.000  0.000  0.000  0.000  0.000  0.494
 
band     2 # energy   -1.72743296 # occ.  2.00000000
 
ion      s     py     pz     px    dxy    dyz    dz2    dxz  x2-y2    tot
    1  0.203  0.019  0.024  0.000  0.000  0.000  0.000  0.000  0.000  0.247
    2  0.203  0.019  0.024  0.000  0.000  0.000  0.000  0.000  0.000  0.247
tot    0.406  0.039  0.049  0.000  0.000  0.000  0.000  0.000  0.000  0.494
 
band     3 # energy    1.90872601 # occ.  2.00000000
 
ion      s     py     pz     px    dxy    dyz    dz2    dxz  x2-y2    tot
    1  0.000  0.047  0.045  0.068  0.000  0.000  0.000  0.000  0.000  0.160
    2  0.000  0.047  0.045  0.068  0.000  0.000  0.000  0.000  0.000  0.160
tot    0.000  0.094  0.091  0.136  0.000  0.000  0.000  0.000  0.000  0.321
 
band     4 # energy    2.06596368 # occ.  2.00000000
 
ion      s     py     pz     px    dxy    dyz    dz2    dxz  x2-y2    tot
    1  0.000  0.051  0.041  0.071  0.000  0.000  0.000  0.000  0.000  0.163
    2  0.000  0.051  0.041  0.071  0.000  0.000  0.000  0.000  0.000  0.163
tot    0.000  0.101  0.082  0.142  0.000  0.000  0.000  0.000  0.000  0.325
 
band     5 # energy    9.88495718 # occ.  0.00000000
 
ion      s     py     pz     px    dxy    dyz    dz2    dxz  x2-y2    tot
    1  0.010  0.008  0.007  0.072  0.000  0.000  0.000  0.000  0.000  0.097
    2  0.010  0.008  0.007  0.072  0.000  0.000  0.000  0.000  0.000  0.097
tot    0.020  0.016  0.013  0.144  0.000  0.000  0.000  0.000  0.000  0.194
 
band     6 # energy   10.14693121 # occ.  0.00000000
 
ion      s     py     pz     px    dxy    dyz    dz2    dxz  x2-y2    tot
    1  0.003  0.003  0.001  0.083  0.000  0.000  0.000  0.000  0.000  0.089
    2  0.003  0.003  0.001  0.083  0.000  0.000  0.000  0.000  0.000  0.089
tot    0.005  0.006  0.002  0.165  0.000  0.000  0.000  0.000  0.000  0.178
 
band     7 # energy   10.90713285 # occ.  0.00000000
 
ion      s     py     pz     px    dxy    dyz    dz2    dxz  x2-y2    tot
    1  0.053  0.041  0.046  0.014  0.000  0.000  0.000  0.000  0.000  0.153
    2  0.053  0.041  0.046  0.014  0.000  0.000  0.000  0.000  0.000  0.153
tot    0.106  0.082  0.091  0.027  0.000  0.000  0.000  0.000  0.000  0.307
 
band     8 # energy   10.95465663 # occ.  0.00000000
 
ion      s     py     pz     px    dxy    dyz    dz2    dxz  x2-y2    tot
    1  0.057  0.051  0.051  0.004  0.000  0.000  0.000  0.000  0.000  0.163
    2  0.057  0.051  0.051  0.004  0.000  0.000  0.000  0.000  0.000  0.163
tot    0.114  0.102  0.102  0.008  0.000  0.000  0.000  0.000  0.000  0.325
 
band     9 # energy   16.22583767 # occ.  0.00000000
 
ion      s     py     pz     px    dxy    dyz    dz2    dxz  x2-y2    tot
    1  0.000  0.045  0.053  0.039  0.000  0.000  0.000  0.000  0.000  0.136
    2  0.000  0.045  0.052  0.039  0.000  0.000  0.000  0.000  0.000  0.136
tot    0.001  0.089  0.105  0.077  0.000  0.000  0.000  0.000  0.000  0.272
 
band    10 # energy   16.57252288 # occ.  0.00000000
 
ion      s     py     pz     px    dxy    dyz    dz2    dxz  x2-y2    tot
    1  0.000  0.058  0.035  0.038  0.000  0.000  0.000  0.000  0.000  0.131
    2  0.000  0.058  0.035  0.038  0.000  0.000  0.000  0.000  0.000  0.131
tot    0.001  0.116  0.070  0.075  0.000  0.000  0.000  0.000  0.000  0.262
 
band    11 # energy   24.44212796 # occ.  0.00000000
 
ion      s     py     pz     px    dxy    dyz    dz2    dxz  x2-y2    tot
    1  0.039  0.006  0.004  0.017  0.000  0.000  0.000  0.000  0.000  0.066
    2  0.000  0.023  0.050  0.003  0.000  0.000  0.000  0.000  0.000  0.076
tot    0.039  0.029  0.054  0.020  0.000  0.000  0.000  0.000  0.000  0.142
 
band    12 # energy   25.39711978 # occ.  0.00000000
 
ion      s     py     pz     px    dxy    dyz    dz2    dxz  x2-y2    tot
    1  0.023  0.005  0.006  0.010  0.000  0.000  0.000  0.000  0.000  0.045
    2  0.028  0.027  0.022  0.005  0.000  0.000  0.000  0.000  0.000  0.081
tot    0.052  0.032  0.028  0.015  0.000  0.000  0.000  0.000  0.000  0.126
 

 k-point   113 :    0.48571429 0.26428571 0.75000000     weight = 0.00555556

band     1 # energy   -1.94304345 # occ.  2.00000000
 
ion      s     py     pz     px    dxy    dyz    dz2    dxz  x2-y2    tot
    1  0.207  0.019  0.022  0.000  0.000  0.000  0.000  0.000  0.000  0.247
    2  0.207  0.019  0.022  0.000  0.000  0.000  0.000  0.000  0.000  0.247
tot    0.413  0.037  0.043  0.000  0.000  0.000  0.000  0.000  0.000  0.494
 
band     2 # energy   -1.69998201 # occ.  2.00000000
 
ion      s     py     pz     px    dxy    dyz    dz2    dxz  x2-y2    tot
    1  0.203  0.019  0.025  0.000  0.000  0.000  0.000  0.000  0.000  0.247
    2  0.203  0.019  0.025  0.000  0.000  0.000  0.000  0.000  0.000  0.247
tot    0.405  0.038  0.051  0.000  0.000  0.000  0.000  0.000  0.000  0.494
 
band     3 # energy    1.88613865 # occ.  2.00000000
 
ion      s     py     pz     px    dxy    dyz    dz2    dxz  x2-y2    tot
    1  0.000  0.047  0.045  0.067  0.000  0.000  0.000  0.000  0.000  0.160
    2  0.000  0.047  0.045  0.067  0.000  0.000  0.000  0.000  0.000  0.160
tot    0.000  0.094  0.091  0.135  0.000  0.000  0.000  0.000  0.000  0.320
 
band     4 # energy    2.09962094 # occ.  2.00000000
 
ion      s     py     pz     px    dxy    dyz    dz2    dxz  x2-y2    tot
    1  0.000  0.052  0.039  0.072  0.000  0.000  0.000  0.000  0.000  0.163
    2  0.000  0.052  0.039  0.072  0.000  0.000  0.000  0.000  0.000  0.163
tot    0.001  0.104  0.079  0.143  0.000  0.000  0.000  0.000  0.000  0.326
 
band     5 # energy    9.77457883 # occ.  0.00000000
 
ion      s     py     pz     px    dxy    dyz    dz2    dxz  x2-y2    tot
    1  0.014  0.011  0.009  0.067  0.000  0.000  0.000  0.000  0.000  0.101
    2  0.014  0.011  0.009  0.067  0.000  0.000  0.000  0.000  0.000  0.101
tot    0.028  0.021  0.019  0.133  0.000  0.000  0.000  0.000  0.000  0.201
 
band     6 # energy   10.15223054 # occ.  0.00000000
 
ion      s     py     pz     px    dxy    dyz    dz2    dxz  x2-y2    tot
    1  0.004  0.005  0.002  0.080  0.000  0.000  0.000  0.000  0.000  0.091
    2  0.004  0.004  0.002  0.080  0.000  0.000  0.000  0.000  0.000  0.091
tot    0.008  0.009  0.004  0.161  0.000  0.000  0.000  0.000  0.000  0.182
 
band     7 # energy   10.97321067 # occ.  0.00000000
 
ion      s     py     pz     px    dxy    dyz    dz2    dxz  x2-y2    tot
    1  0.050  0.038  0.043  0.019  0.000  0.000  0.000  0.000  0.000  0.149
    2  0.050  0.038  0.043  0.019  0.000  0.000  0.000  0.000  0.000  0.149
tot    0.099  0.075  0.086  0.038  0.000  0.000  0.000  0.000  0.000  0.298
 
band     8 # energy   11.00643218 # occ.  0.00000000
 
ion      s     py     pz     px    dxy    dyz    dz2    dxz  x2-y2    tot
    1  0.055  0.050  0.050  0.006  0.000  0.000  0.000  0.000  0.000  0.161
    2  0.055  0.050  0.050  0.006  0.000  0.000  0.000  0.000  0.000  0.161
tot    0.110  0.100  0.100  0.013  0.000  0.000  0.000  0.000  0.000  0.323
 
band     9 # energy   16.15876936 # occ.  0.00000000
 
ion      s     py     pz     px    dxy    dyz    dz2    dxz  x2-y2    tot
    1  0.001  0.044  0.054  0.039  0.000  0.000  0.000  0.000  0.000  0.137
    2  0.001  0.044  0.054  0.039  0.000  0.000  0.000  0.000  0.000  0.137
tot    0.001  0.087  0.108  0.077  0.000  0.000  0.000  0.000  0.000  0.274
 
band    10 # energy   16.61139955 # occ.  0.00000000
 
ion      s     py     pz     px    dxy    dyz    dz2    dxz  x2-y2    tot
    1  0.001  0.062  0.030  0.037  0.000  0.000  0.000  0.000  0.000  0.130
    2  0.001  0.062  0.030  0.037  0.000  0.000  0.000  0.000  0.000  0.130
tot    0.001  0.124  0.061  0.074  0.000  0.000  0.000  0.000  0.000  0.260
 
band    11 # energy   22.35668398 # occ.  0.00000000
 
ion      s     py     pz     px    dxy    dyz    dz2    dxz  x2-y2    tot
    1  0.006  0.013  0.031  0.004  0.000  0.000  0.000  0.000  0.000  0.054
    2  0.007  0.026  0.008  0.004  0.000  0.000  0.000  0.000  0.000  0.045
tot    0.013  0.039  0.039  0.008  0.000  0.000  0.000  0.000  0.000  0.099
 
band    12 # energy   24.79839916 # occ.  0.00000000
 
ion      s     py     pz     px    dxy    dyz    dz2    dxz  x2-y2    tot
    1  0.014  0.024  0.019  0.011  0.000  0.000  0.000  0.000  0.000  0.069
    2  0.001  0.020  0.035  0.001  0.000  0.000  0.000  0.000  0.000  0.057
tot    0.016  0.044  0.054  0.013  0.000  0.000  0.000  0.000  0.000  0.126
 

 k-point   114 :    0.48214286 0.26785714 0.75000000     weight = 0.00555556

band     1 # energy   -1.97174817 # occ.  2.00000000
 
ion      s     py     pz     px    dxy    dyz    dz2    dxz  x2-y2    tot
    1  0.207  0.018  0.022  0.000  0.000  0.000  0.000  0.000  0.000  0.247
    2  0.207  0.018  0.022  0.000  0.000  0.000  0.000  0.000  0.000  0.247
tot    0.414  0.036  0.043  0.000  0.000  0.000  0.000  0.000  0.000  0.494
 
band     2 # energy   -1.67405719 # occ.  2.00000000
 
ion      s     py     pz     px    dxy    dyz    dz2    dxz  x2-y2    tot
    1  0.202  0.018  0.027  0.000  0.000  0.000  0.000  0.000  0.000  0.247
    2  0.202  0.018  0.027  0.000  0.000  0.000  0.000  0.000  0.000  0.247
tot    0.404  0.037  0.053  0.000  0.000  0.000  0.000  0.000  0.000  0.494
 
band     3 # energy    1.86417976 # occ.  2.00000000
 
ion      s     py     pz     px    dxy    dyz    dz2    dxz  x2-y2    tot
    1  0.000  0.048  0.045  0.067  0.000  0.000  0.000  0.000  0.000  0.160
    2  0.000  0.048  0.045  0.067  0.000  0.000  0.000  0.000  0.000  0.160
tot    0.000  0.095  0.090  0.134  0.000  0.000  0.000  0.000  0.000  0.319
 
band     4 # energy    2.13570782 # occ.  2.00000000
 
ion      s     py     pz     px    dxy    dyz    dz2    dxz  x2-y2    tot
    1  0.000  0.054  0.038  0.072  0.000  0.000  0.000  0.000  0.000  0.164
    2  0.000  0.054  0.038  0.072  0.000  0.000  0.000  0.000  0.000  0.164
tot    0.001  0.107  0.075  0.144  0.000  0.000  0.000  0.000  0.000  0.328
 
band     5 # energy    9.65648726 # occ.  0.00000000
 
ion      s     py     pz     px    dxy    dyz    dz2    dxz  x2-y2    tot
    1  0.018  0.012  0.012  0.062  0.000  0.000  0.000  0.000  0.000  0.104
    2  0.018  0.012  0.012  0.062  0.000  0.000  0.000  0.000  0.000  0.104
tot    0.035  0.025  0.024  0.124  0.000  0.000  0.000  0.000  0.000  0.207
 
band     6 # energy   10.15358306 # occ.  0.00000000
 
ion      s     py     pz     px    dxy    dyz    dz2    dxz  x2-y2    tot
    1  0.006  0.006  0.003  0.078  0.000  0.000  0.000  0.000  0.000  0.093
    2  0.006  0.006  0.003  0.078  0.000  0.000  0.000  0.000  0.000  0.093
tot    0.012  0.012  0.006  0.155  0.000  0.000  0.000  0.000  0.000  0.185
 
band     7 # energy   11.04928484 # occ.  0.00000000
 
ion      s     py     pz     px    dxy    dyz    dz2    dxz  x2-y2    tot
    1  0.047  0.035  0.041  0.023  0.000  0.000  0.000  0.000  0.000  0.146
    2  0.047  0.035  0.041  0.023  0.000  0.000  0.000  0.000  0.000  0.146
tot    0.093  0.070  0.081  0.047  0.000  0.000  0.000  0.000  0.000  0.292
 
band     8 # energy   11.06348241 # occ.  0.00000000
 
ion      s     py     pz     px    dxy    dyz    dz2    dxz  x2-y2    tot
    1  0.053  0.049  0.049  0.009  0.000  0.000  0.000  0.000  0.000  0.160
    2  0.053  0.049  0.049  0.009  0.000  0.000  0.000  0.000  0.000  0.160
tot    0.105  0.098  0.098  0.018  0.000  0.000  0.000  0.000  0.000  0.320
 
band     9 # energy   16.09078000 # occ.  0.00000000
 
ion      s     py     pz     px    dxy    dyz    dz2    dxz  x2-y2    tot
    1  0.001  0.040  0.053  0.041  0.000  0.000  0.000  0.000  0.000  0.134
    2  0.001  0.046  0.057  0.036  0.000  0.000  0.000  0.000  0.000  0.141
tot    0.002  0.086  0.110  0.077  0.000  0.000  0.000  0.000  0.000  0.275
 
band    10 # energy   22.18633273 # occ.  0.00000000
 
ion      s     py     pz     px    dxy    dyz    dz2    dxz  x2-y2    tot
    1  0.001  0.011  0.008  0.003  0.000  0.000  0.000  0.000  0.000  0.022
    2  0.001  0.024  0.016  0.006  0.000  0.000  0.000  0.000  0.000  0.047
tot    0.002  0.035  0.024  0.008  0.000  0.000  0.000  0.000  0.000  0.069
 
band    11 # energy   24.12260175 # occ.  0.00000000
 
ion      s     py     pz     px    dxy    dyz    dz2    dxz  x2-y2    tot
    1  0.020  0.001  0.071  0.005  0.000  0.000  0.000  0.000  0.000  0.097
    2  0.014  0.008  0.003  0.008  0.000  0.000  0.000  0.000  0.000  0.032
tot    0.034  0.008  0.074  0.013  0.000  0.000  0.000  0.000  0.000  0.130
 
band    12 # energy   35.40212298 # occ.  0.00000000
 
ion      s     py     pz     px    dxy    dyz    dz2    dxz  x2-y2    tot
    1  0.077  0.001  0.001  0.004  0.000  0.000  0.000  0.000  0.000  0.083
    2  0.005  0.014  0.002  0.001  0.000  0.000  0.000  0.000  0.000  0.022
tot    0.082  0.015  0.004  0.005  0.000  0.000  0.000  0.000  0.000  0.105
 

 k-point   115 :    0.47857143 0.27142857 0.75000000     weight = 0.00555556

band     1 # energy   -1.99951963 # occ.  2.00000000
 
ion      s     py     pz     px    dxy    dyz    dz2    dxz  x2-y2    tot
    1  0.207  0.017  0.022  0.000  0.000  0.000  0.000  0.000  0.000  0.247
    2  0.207  0.017  0.022  0.000  0.000  0.000  0.000  0.000  0.000  0.247
tot    0.415  0.035  0.044  0.000  0.000  0.000  0.000  0.000  0.000  0.494
 
band     2 # energy   -1.64963876 # occ.  2.00000000
 
ion      s     py     pz     px    dxy    dyz    dz2    dxz  x2-y2    tot
    1  0.201  0.018  0.028  0.000  0.000  0.000  0.000  0.000  0.000  0.247
    2  0.201  0.018  0.028  0.000  0.000  0.000  0.000  0.000  0.000  0.247
tot    0.402  0.035  0.055  0.000  0.000  0.000  0.000  0.000  0.000  0.493
 
band     3 # energy    1.84286229 # occ.  2.00000000
 
ion      s     py     pz     px    dxy    dyz    dz2    dxz  x2-y2    tot
    1  0.000  0.048  0.045  0.067  0.000  0.000  0.000  0.000  0.000  0.159
    2  0.000  0.048  0.045  0.067  0.000  0.000  0.000  0.000  0.000  0.159
tot    0.000  0.096  0.090  0.133  0.000  0.000  0.000  0.000  0.000  0.319
 
band     4 # energy    2.17414254 # occ.  2.00000000
 
ion      s     py     pz     px    dxy    dyz    dz2    dxz  x2-y2    tot
    1  0.001  0.055  0.036  0.073  0.000  0.000  0.000  0.000  0.000  0.165
    2  0.001  0.055  0.036  0.073  0.000  0.000  0.000  0.000  0.000  0.165
tot    0.001  0.111  0.072  0.145  0.000  0.000  0.000  0.000  0.000  0.329
 
band     5 # energy    9.53425101 # occ.  0.00000000
 
ion      s     py     pz     px    dxy    dyz    dz2    dxz  x2-y2    tot
    1  0.020  0.014  0.014  0.058  0.000  0.000  0.000  0.000  0.000  0.106
    2  0.020  0.014  0.014  0.058  0.000  0.000  0.000  0.000  0.000  0.106
tot    0.041  0.027  0.028  0.116  0.000  0.000  0.000  0.000  0.000  0.212
 
band     6 # energy   10.15180887 # occ.  0.00000000
 
ion      s     py     pz     px    dxy    dyz    dz2    dxz  x2-y2    tot
    1  0.008  0.008  0.004  0.075  0.000  0.000  0.000  0.000  0.000  0.094
    2  0.008  0.008  0.004  0.075  0.000  0.000  0.000  0.000  0.000  0.094
tot    0.015  0.016  0.008  0.150  0.000  0.000  0.000  0.000  0.000  0.189
 
band     7 # energy   11.12502161 # occ.  0.00000000
 
ion      s     py     pz     px    dxy    dyz    dz2    dxz  x2-y2    tot
    1  0.050  0.048  0.048  0.012  0.000  0.000  0.000  0.000  0.000  0.158
    2  0.050  0.048  0.048  0.012  0.000  0.000  0.000  0.000  0.000  0.158
tot    0.101  0.096  0.096  0.024  0.000  0.000  0.000  0.000  0.000  0.317
 
band     8 # energy   11.13200560 # occ.  0.00000000
 
ion      s     py     pz     px    dxy    dyz    dz2    dxz  x2-y2    tot
    1  0.044  0.033  0.039  0.027  0.000  0.000  0.000  0.000  0.000  0.143
    2  0.044  0.033  0.039  0.027  0.000  0.000  0.000  0.000  0.000  0.143
tot    0.089  0.066  0.078  0.054  0.000  0.000  0.000  0.000  0.000  0.286
 
band     9 # energy   16.01987042 # occ.  0.00000000
 
ion      s     py     pz     px    dxy    dyz    dz2    dxz  x2-y2    tot
    1  0.001  0.042  0.056  0.039  0.000  0.000  0.000  0.000  0.000  0.138
    2  0.001  0.042  0.056  0.039  0.000  0.000  0.000  0.000  0.000  0.138
tot    0.002  0.085  0.112  0.077  0.000  0.000  0.000  0.000  0.000  0.276
 
band    10 # energy   16.66174105 # occ.  0.00000000
 
ion      s     py     pz     px    dxy    dyz    dz2    dxz  x2-y2    tot
    1  0.002  0.070  0.021  0.035  0.000  0.000  0.000  0.000  0.000  0.128
    2  0.002  0.070  0.021  0.035  0.000  0.000  0.000  0.000  0.000  0.128
tot    0.004  0.140  0.041  0.071  0.000  0.000  0.000  0.000  0.000  0.256
 
band    11 # energy   24.19781895 # occ.  0.00000000
 
ion      s     py     pz     px    dxy    dyz    dz2    dxz  x2-y2    tot
    1  0.016  0.002  0.022  0.015  0.000  0.000  0.000  0.000  0.000  0.056
    2  0.017  0.036  0.023  0.003  0.000  0.000  0.000  0.000  0.000  0.079
tot    0.033  0.038  0.045  0.018  0.000  0.000  0.000  0.000  0.000  0.134
 
band    12 # energy   24.97069770 # occ.  0.00000000
 
ion      s     py     pz     px    dxy    dyz    dz2    dxz  x2-y2    tot
    1  0.001  0.019  0.006  0.021  0.000  0.000  0.000  0.000  0.000  0.047
    2  0.026  0.042  0.016  0.014  0.000  0.000  0.000  0.000  0.000  0.099
tot    0.027  0.061  0.022  0.035  0.000  0.000  0.000  0.000  0.000  0.145
 

 k-point   116 :    0.47500000 0.27500000 0.75000000     weight = 0.00555556

band     1 # energy   -2.02636167 # occ.  2.00000000
 
ion      s     py     pz     px    dxy    dyz    dz2    dxz  x2-y2    tot
    1  0.208  0.017  0.022  0.000  0.000  0.000  0.000  0.000  0.000  0.247
    2  0.208  0.017  0.022  0.000  0.000  0.000  0.000  0.000  0.000  0.247
tot    0.416  0.034  0.044  0.000  0.000  0.000  0.000  0.000  0.000  0.494
 
band     2 # energy   -1.62669931 # occ.  2.00000000
 
ion      s     py     pz     px    dxy    dyz    dz2    dxz  x2-y2    tot
    1  0.200  0.017  0.029  0.000  0.000  0.000  0.000  0.000  0.000  0.246
    2  0.200  0.017  0.029  0.000  0.000  0.000  0.000  0.000  0.000  0.246
tot    0.401  0.034  0.057  0.001  0.000  0.000  0.000  0.000  0.000  0.493
 
band     3 # energy    1.82219422 # occ.  2.00000000
 
ion      s     py     pz     px    dxy    dyz    dz2    dxz  x2-y2    tot
    1  0.000  0.048  0.045  0.066  0.000  0.000  0.000  0.000  0.000  0.159
    2  0.000  0.048  0.045  0.066  0.000  0.000  0.000  0.000  0.000  0.159
tot    0.000  0.096  0.090  0.132  0.000  0.000  0.000  0.000  0.000  0.318
 
band     4 # energy    2.21483739 # occ.  2.00000000
 
ion      s     py     pz     px    dxy    dyz    dz2    dxz  x2-y2    tot
    1  0.001  0.057  0.034  0.073  0.000  0.000  0.000  0.000  0.000  0.166
    2  0.001  0.057  0.034  0.073  0.000  0.000  0.000  0.000  0.000  0.166
tot    0.002  0.114  0.068  0.147  0.000  0.000  0.000  0.000  0.000  0.331
 
band     5 # energy    9.40987823 # occ.  0.00000000
 
ion      s     py     pz     px    dxy    dyz    dz2    dxz  x2-y2    tot
    1  0.023  0.014  0.016  0.055  0.000  0.000  0.000  0.000  0.000  0.107
    2  0.023  0.014  0.016  0.055  0.000  0.000  0.000  0.000  0.000  0.108
tot    0.046  0.029  0.031  0.109  0.000  0.000  0.000  0.000  0.000  0.215
 
band     6 # energy   10.14756703 # occ.  0.00000000
 
ion      s     py     pz     px    dxy    dyz    dz2    dxz  x2-y2    tot
    1  0.009  0.009  0.005  0.072  0.000  0.000  0.000  0.000  0.000  0.096
    2  0.009  0.009  0.005  0.072  0.000  0.000  0.000  0.000  0.000  0.096
tot    0.018  0.019  0.010  0.145  0.000  0.000  0.000  0.000  0.000  0.192
 
band     7 # energy   11.19034614 # occ.  0.00000000
 
ion      s     py     pz     px    dxy    dyz    dz2    dxz  x2-y2    tot
    1  0.048  0.047  0.047  0.015  0.000  0.000  0.000  0.000  0.000  0.157
    2  0.048  0.047  0.047  0.015  0.000  0.000  0.000  0.000  0.000  0.157
tot    0.096  0.094  0.095  0.029  0.000  0.000  0.000  0.000  0.000  0.314
 
band     8 # energy   11.21936303 # occ.  0.00000000
 
ion      s     py     pz     px    dxy    dyz    dz2    dxz  x2-y2    tot
    1  0.042  0.031  0.037  0.030  0.000  0.000  0.000  0.000  0.000  0.141
    2  0.042  0.031  0.037  0.030  0.000  0.000  0.000  0.000  0.000  0.141
tot    0.085  0.062  0.075  0.060  0.000  0.000  0.000  0.000  0.000  0.282
 
band     9 # energy   15.94830192 # occ.  0.00000000
 
ion      s     py     pz     px    dxy    dyz    dz2    dxz  x2-y2    tot
    1  0.001  0.042  0.057  0.038  0.000  0.000  0.000  0.000  0.000  0.139
    2  0.001  0.042  0.057  0.038  0.000  0.000  0.000  0.000  0.000  0.139
tot    0.003  0.083  0.114  0.077  0.000  0.000  0.000  0.000  0.000  0.277
 
band    10 # energy   16.67091566 # occ.  0.00000000
 
ion      s     py     pz     px    dxy    dyz    dz2    dxz  x2-y2    tot
    1  0.003  0.074  0.016  0.034  0.000  0.000  0.000  0.000  0.000  0.127
    2  0.003  0.074  0.016  0.034  0.000  0.000  0.000  0.000  0.000  0.127
tot    0.006  0.147  0.032  0.069  0.000  0.000  0.000  0.000  0.000  0.253
 
band    11 # energy   22.68050525 # occ.  0.00000000
 
ion      s     py     pz     px    dxy    dyz    dz2    dxz  x2-y2    tot
    1  0.007  0.030  0.004  0.009  0.000  0.000  0.000  0.000  0.000  0.051
    2  0.004  0.002  0.027  0.000  0.000  0.000  0.000  0.000  0.000  0.033
tot    0.011  0.032  0.031  0.010  0.000  0.000  0.000  0.000  0.000  0.084
 
band    12 # energy   24.41751477 # occ.  0.00000000
 
ion      s     py     pz     px    dxy    dyz    dz2    dxz  x2-y2    tot
    1  0.010  0.009  0.038  0.010  0.000  0.000  0.000  0.000  0.000  0.067
    2  0.006  0.009  0.055  0.002  0.000  0.000  0.000  0.000  0.000  0.072
tot    0.017  0.018  0.093  0.012  0.000  0.000  0.000  0.000  0.000  0.140
 

 k-point   117 :    0.47142857 0.27857143 0.75000000     weight = 0.00555556

band     1 # energy   -2.05227050 # occ.  2.00000000
 
ion      s     py     pz     px    dxy    dyz    dz2    dxz  x2-y2    tot
    1  0.208  0.016  0.022  0.000  0.000  0.000  0.000  0.000  0.000  0.247
    2  0.208  0.016  0.022  0.000  0.000  0.000  0.000  0.000  0.000  0.247
tot    0.417  0.033  0.044  0.000  0.000  0.000  0.000  0.000  0.000  0.493
 
band     2 # energy   -1.60520576 # occ.  2.00000000
 
ion      s     py     pz     px    dxy    dyz    dz2    dxz  x2-y2    tot
    1  0.199  0.017  0.030  0.000  0.000  0.000  0.000  0.000  0.000  0.246
    2  0.199  0.017  0.030  0.000  0.000  0.000  0.000  0.000  0.000  0.246
tot    0.399  0.033  0.059  0.001  0.000  0.000  0.000  0.000  0.000  0.492
 
band     3 # energy    1.80218484 # occ.  2.00000000
 
ion      s     py     pz     px    dxy    dyz    dz2    dxz  x2-y2    tot
    1  0.000  0.048  0.045  0.066  0.000  0.000  0.000  0.000  0.000  0.159
    2  0.000  0.048  0.045  0.066  0.000  0.000  0.000  0.000  0.000  0.159
tot    0.000  0.097  0.089  0.131  0.000  0.000  0.000  0.000  0.000  0.318
 
band     4 # energy    2.25768953 # occ.  2.00000000
 
ion      s     py     pz     px    dxy    dyz    dz2    dxz  x2-y2    tot
    1  0.001  0.059  0.033  0.074  0.000  0.000  0.000  0.000  0.000  0.166
    2  0.001  0.059  0.033  0.074  0.000  0.000  0.000  0.000  0.000  0.166
tot    0.002  0.117  0.065  0.148  0.000  0.000  0.000  0.000  0.000  0.333
 
band     5 # energy    9.28468722 # occ.  0.00000000
 
ion      s     py     pz     px    dxy    dyz    dz2    dxz  x2-y2    tot
    1  0.025  0.015  0.017  0.052  0.000  0.000  0.000  0.000  0.000  0.109
    2  0.025  0.015  0.017  0.052  0.000  0.000  0.000  0.000  0.000  0.109
tot    0.050  0.030  0.034  0.103  0.000  0.000  0.000  0.000  0.000  0.217
 
band     6 # energy   10.14144368 # occ.  0.00000000
 
ion      s     py     pz     px    dxy    dyz    dz2    dxz  x2-y2    tot
    1  0.011  0.011  0.006  0.070  0.000  0.000  0.000  0.000  0.000  0.098
    2  0.011  0.011  0.006  0.070  0.000  0.000  0.000  0.000  0.000  0.098
tot    0.021  0.022  0.012  0.140  0.000  0.000  0.000  0.000  0.000  0.195
 
band     7 # energy   11.25887667 # occ.  0.00000000
 
ion      s     py     pz     px    dxy    dyz    dz2    dxz  x2-y2    tot
    1  0.046  0.046  0.046  0.017  0.000  0.000  0.000  0.000  0.000  0.156
    2  0.046  0.046  0.046  0.017  0.000  0.000  0.000  0.000  0.000  0.156
tot    0.092  0.093  0.093  0.034  0.000  0.000  0.000  0.000  0.000  0.312
 
band     8 # energy   11.31016218 # occ.  0.00000000
 
ion      s     py     pz     px    dxy    dyz    dz2    dxz  x2-y2    tot
    1  0.041  0.030  0.036  0.033  0.000  0.000  0.000  0.000  0.000  0.139
    2  0.041  0.030  0.036  0.033  0.000  0.000  0.000  0.000  0.000  0.139
tot    0.082  0.060  0.072  0.065  0.000  0.000  0.000  0.000  0.000  0.279
 
band     9 # energy   15.87546612 # occ.  0.00000000
 
ion      s     py     pz     px    dxy    dyz    dz2    dxz  x2-y2    tot
    1  0.002  0.041  0.058  0.038  0.000  0.000  0.000  0.000  0.000  0.139
    2  0.002  0.041  0.058  0.038  0.000  0.000  0.000  0.000  0.000  0.139
tot    0.004  0.082  0.116  0.077  0.000  0.000  0.000  0.000  0.000  0.278
 
band    10 # energy   16.66827658 # occ.  0.00000000
 
ion      s     py     pz     px    dxy    dyz    dz2    dxz  x2-y2    tot
    1  0.004  0.077  0.012  0.033  0.000  0.000  0.000  0.000  0.000  0.125
    2  0.004  0.077  0.012  0.033  0.000  0.000  0.000  0.000  0.000  0.125
tot    0.008  0.154  0.023  0.066  0.000  0.000  0.000  0.000  0.000  0.251
 
band    11 # energy   24.41980444 # occ.  0.00000000
 
ion      s     py     pz     px    dxy    dyz    dz2    dxz  x2-y2    tot
    1  0.020  0.016  0.003  0.012  0.000  0.000  0.000  0.000  0.000  0.052
    2  0.016  0.004  0.091  0.004  0.000  0.000  0.000  0.000  0.000  0.114
tot    0.035  0.020  0.094  0.016  0.000  0.000  0.000  0.000  0.000  0.166
 
band    12 # energy   33.65105892 # occ.  0.00000000
 
ion      s     py     pz     px    dxy    dyz    dz2    dxz  x2-y2    tot
    1  0.006  0.005  0.008  0.013  0.000  0.000  0.000  0.000  0.000  0.032
    2  0.032  0.005  0.001  0.016  0.000  0.000  0.000  0.000  0.000  0.054
tot    0.038  0.010  0.009  0.029  0.000  0.000  0.000  0.000  0.000  0.086
 

 k-point   118 :    0.46785714 0.28214286 0.75000000     weight = 0.00555556

band     1 # energy   -2.07724889 # occ.  2.00000000
 
ion      s     py     pz     px    dxy    dyz    dz2    dxz  x2-y2    tot
    1  0.209  0.016  0.022  0.000  0.000  0.000  0.000  0.000  0.000  0.247
    2  0.209  0.016  0.022  0.000  0.000  0.000  0.000  0.000  0.000  0.247
tot    0.417  0.032  0.044  0.001  0.000  0.000  0.000  0.000  0.000  0.493
 
band     2 # energy   -1.58512102 # occ.  2.00000000
 
ion      s     py     pz     px    dxy    dyz    dz2    dxz  x2-y2    tot
    1  0.199  0.016  0.031  0.001  0.000  0.000  0.000  0.000  0.000  0.246
    2  0.199  0.016  0.031  0.001  0.000  0.000  0.000  0.000  0.000  0.246
tot    0.397  0.032  0.061  0.001  0.000  0.000  0.000  0.000  0.000  0.492
 
band     3 # energy    1.78283927 # occ.  2.00000000
 
ion      s     py     pz     px    dxy    dyz    dz2    dxz  x2-y2    tot
    1  0.000  0.049  0.045  0.065  0.000  0.000  0.000  0.000  0.000  0.159
    2  0.000  0.049  0.045  0.065  0.000  0.000  0.000  0.000  0.000  0.159
tot    0.000  0.097  0.089  0.131  0.000  0.000  0.000  0.000  0.000  0.317
 
band     4 # energy    2.30256904 # occ.  2.00000000
 
ion      s     py     pz     px    dxy    dyz    dz2    dxz  x2-y2    tot
    1  0.001  0.060  0.031  0.075  0.000  0.000  0.000  0.000  0.000  0.167
    2  0.001  0.060  0.031  0.075  0.000  0.000  0.000  0.000  0.000  0.167
tot    0.003  0.121  0.062  0.149  0.000  0.000  0.000  0.000  0.000  0.335
 
band     5 # energy    9.15945624 # occ.  0.00000000
 
ion      s     py     pz     px    dxy    dyz    dz2    dxz  x2-y2    tot
    1  0.027  0.015  0.018  0.049  0.000  0.000  0.000  0.000  0.000  0.110
    2  0.027  0.015  0.018  0.049  0.000  0.000  0.000  0.000  0.000  0.110
tot    0.054  0.030  0.037  0.098  0.000  0.000  0.000  0.000  0.000  0.219
 
band     6 # energy   10.13390471 # occ.  0.00000000
 
ion      s     py     pz     px    dxy    dyz    dz2    dxz  x2-y2    tot
    1  0.012  0.013  0.007  0.068  0.000  0.000  0.000  0.000  0.000  0.099
    2  0.012  0.013  0.007  0.068  0.000  0.000  0.000  0.000  0.000  0.099
tot    0.024  0.025  0.013  0.135  0.000  0.000  0.000  0.000  0.000  0.198
 
band     7 # energy   11.33012179 # occ.  0.00000000
 
ion      s     py     pz     px    dxy    dyz    dz2    dxz  x2-y2    tot
    1  0.044  0.046  0.046  0.020  0.000  0.000  0.000  0.000  0.000  0.155
    2  0.044  0.046  0.046  0.020  0.000  0.000  0.000  0.000  0.000  0.155
tot    0.088  0.091  0.091  0.039  0.000  0.000  0.000  0.000  0.000  0.309
 
band     8 # energy   11.40359911 # occ.  0.00000000
 
ion      s     py     pz     px    dxy    dyz    dz2    dxz  x2-y2    tot
    1  0.040  0.029  0.035  0.035  0.000  0.000  0.000  0.000  0.000  0.138
    2  0.040  0.029  0.035  0.035  0.000  0.000  0.000  0.000  0.000  0.138
tot    0.079  0.057  0.070  0.069  0.000  0.000  0.000  0.000  0.000  0.276
 
band     9 # energy   15.80140773 # occ.  0.00000000
 
ion      s     py     pz     px    dxy    dyz    dz2    dxz  x2-y2    tot
    1  0.002  0.041  0.059  0.038  0.000  0.000  0.000  0.000  0.000  0.140
    2  0.002  0.041  0.059  0.038  0.000  0.000  0.000  0.000  0.000  0.140
tot    0.005  0.081  0.117  0.076  0.000  0.000  0.000  0.000  0.000  0.279
 
band    10 # energy   16.65335609 # occ.  0.00000000
 
ion      s     py     pz     px    dxy    dyz    dz2    dxz  x2-y2    tot
    1  0.005  0.080  0.008  0.032  0.000  0.000  0.000  0.000  0.000  0.124
    2  0.005  0.080  0.008  0.032  0.000  0.000  0.000  0.000  0.000  0.124
tot    0.010  0.159  0.016  0.063  0.000  0.000  0.000  0.000  0.000  0.249
 
band    11 # energy   24.30238994 # occ.  0.00000000
 
ion      s     py     pz     px    dxy    dyz    dz2    dxz  x2-y2    tot
    1  0.012  0.003  0.023  0.005  0.000  0.000  0.000  0.000  0.000  0.043
    2  0.001  0.008  0.062  0.003  0.000  0.000  0.000  0.000  0.000  0.073
tot    0.013  0.011  0.085  0.008  0.000  0.000  0.000  0.000  0.000  0.117
 
band    12 # energy   24.52704936 # occ.  0.00000000
 
ion      s     py     pz     px    dxy    dyz    dz2    dxz  x2-y2    tot
    1  0.056  0.010  0.019  0.002  0.000  0.000  0.000  0.000  0.000  0.085
    2  0.010  0.000  0.013  0.005  0.000  0.000  0.000  0.000  0.000  0.028
tot    0.066  0.010  0.031  0.007  0.000  0.000  0.000  0.000  0.000  0.113
 

 k-point   119 :    0.46428571 0.28571429 0.75000000     weight = 0.00555556

band     1 # energy   -2.10129900 # occ.  2.00000000
 
ion      s     py     pz     px    dxy    dyz    dz2    dxz  x2-y2    tot
    1  0.209  0.015  0.022  0.000  0.000  0.000  0.000  0.000  0.000  0.247
    2  0.209  0.015  0.022  0.000  0.000  0.000  0.000  0.000  0.000  0.247
tot    0.418  0.030  0.044  0.001  0.000  0.000  0.000  0.000  0.000  0.493
 
band     2 # energy   -1.56640299 # occ.  2.00000000
 
ion      s     py     pz     px    dxy    dyz    dz2    dxz  x2-y2    tot
    1  0.198  0.015  0.032  0.001  0.000  0.000  0.000  0.000  0.000  0.246
    2  0.198  0.015  0.032  0.001  0.000  0.000  0.000  0.000  0.000  0.246
tot    0.395  0.031  0.063  0.001  0.000  0.000  0.000  0.000  0.000  0.491
 
band     3 # energy    1.76416614 # occ.  2.00000000
 
ion      s     py     pz     px    dxy    dyz    dz2    dxz  x2-y2    tot
    1  0.000  0.049  0.044  0.065  0.000  0.000  0.000  0.000  0.000  0.158
    2  0.000  0.049  0.044  0.065  0.000  0.000  0.000  0.000  0.000  0.158
tot    0.000  0.098  0.089  0.130  0.000  0.000  0.000  0.000  0.000  0.317
 
band     4 # energy    2.34934651 # occ.  2.00000000
 
ion      s     py     pz     px    dxy    dyz    dz2    dxz  x2-y2    tot
    1  0.002  0.062  0.029  0.075  0.000  0.000  0.000  0.000  0.000  0.168
    2  0.002  0.062  0.029  0.075  0.000  0.000  0.000  0.000  0.000  0.168
tot    0.003  0.124  0.059  0.151  0.000  0.000  0.000  0.000  0.000  0.337
 
band     5 # energy    9.03481415 # occ.  0.00000000
 
ion      s     py     pz     px    dxy    dyz    dz2    dxz  x2-y2    tot
    1  0.029  0.015  0.020  0.047  0.000  0.000  0.000  0.000  0.000  0.110
    2  0.029  0.015  0.020  0.047  0.000  0.000  0.000  0.000  0.000  0.110
tot    0.057  0.030  0.039  0.093  0.000  0.000  0.000  0.000  0.000  0.220
 
band     6 # energy   10.12535728 # occ.  0.00000000
 
ion      s     py     pz     px    dxy    dyz    dz2    dxz  x2-y2    tot
    1  0.013  0.014  0.007  0.065  0.000  0.000  0.000  0.000  0.000  0.100
    2  0.013  0.014  0.007  0.065  0.000  0.000  0.000  0.000  0.000  0.100
tot    0.027  0.028  0.015  0.131  0.000  0.000  0.000  0.000  0.000  0.200
 
band     7 # energy   11.47038292 # occ.  0.00000000
 
ion      s     py     pz     px    dxy    dyz    dz2    dxz  x2-y2    tot
    1  0.005  0.063  0.071  0.008  0.000  0.000  0.000  0.000  0.000  0.147
    2  0.074  0.003  0.004  0.057  0.000  0.000  0.000  0.000  0.000  0.137
tot    0.079  0.066  0.075  0.064  0.000  0.000  0.000  0.000  0.000  0.284
 
band     8 # energy   15.72688315 # occ.  0.00000000
 
ion      s     py     pz     px    dxy    dyz    dz2    dxz  x2-y2    tot
    1  0.003  0.041  0.058  0.039  0.000  0.000  0.000  0.000  0.000  0.140
    2  0.003  0.041  0.060  0.038  0.000  0.000  0.000  0.000  0.000  0.142
tot    0.005  0.081  0.118  0.077  0.000  0.000  0.000  0.000  0.000  0.282
 
band     9 # energy   16.66150562 # occ.  0.00000000
 
ion      s     py     pz     px    dxy    dyz    dz2    dxz  x2-y2    tot
    1  0.008  0.094  0.000  0.025  0.000  0.000  0.000  0.000  0.000  0.127
    2  0.011  0.079  0.002  0.027  0.000  0.000  0.000  0.000  0.000  0.119
tot    0.019  0.173  0.002  0.052  0.000  0.000  0.000  0.000  0.000  0.246
 
band    10 # energy   19.38798126 # occ.  0.00000000
 
ion      s     py     pz     px    dxy    dyz    dz2    dxz  x2-y2    tot
    1  0.036  0.041  0.016  0.001  0.000  0.000  0.000  0.000  0.000  0.094
    2  0.004  0.067  0.109  0.007  0.000  0.000  0.000  0.000  0.000  0.187
tot    0.040  0.107  0.125  0.008  0.000  0.000  0.000  0.000  0.000  0.280
 
band    11 # energy   22.27743956 # occ.  0.00000000
 
ion      s     py     pz     px    dxy    dyz    dz2    dxz  x2-y2    tot
    1  0.013  0.007  0.035  0.022  0.000  0.000  0.000  0.000  0.000  0.077
    2  0.001  0.020  0.045  0.002  0.000  0.000  0.000  0.000  0.000  0.068
tot    0.015  0.026  0.080  0.024  0.000  0.000  0.000  0.000  0.000  0.145
 
band    12 # energy   24.75557863 # occ.  0.00000000
 
ion      s     py     pz     px    dxy    dyz    dz2    dxz  x2-y2    tot
    1  0.025  0.006  0.001  0.029  0.000  0.000  0.000  0.000  0.000  0.061
    2  0.023  0.021  0.008  0.003  0.000  0.000  0.000  0.000  0.000  0.055
tot    0.048  0.027  0.009  0.032  0.000  0.000  0.000  0.000  0.000  0.115
 

 k-point   120 :    0.46071429 0.28928571 0.75000000     weight = 0.00555556

band     1 # energy   -2.12441488 # occ.  2.00000000
 
ion      s     py     pz     px    dxy    dyz    dz2    dxz  x2-y2    tot
    1  0.209  0.015  0.022  0.000  0.000  0.000  0.000  0.000  0.000  0.247
    2  0.209  0.015  0.022  0.000  0.000  0.000  0.000  0.000  0.000  0.247
tot    0.419  0.029  0.044  0.001  0.000  0.000  0.000  0.000  0.000  0.493
 
band     2 # energy   -1.54899677 # occ.  2.00000000
 
ion      s     py     pz     px    dxy    dyz    dz2    dxz  x2-y2    tot
    1  0.197  0.015  0.033  0.001  0.000  0.000  0.000  0.000  0.000  0.245
    2  0.197  0.015  0.033  0.001  0.000  0.000  0.000  0.000  0.000  0.245
tot    0.394  0.030  0.065  0.002  0.000  0.000  0.000  0.000  0.000  0.490
 
band     3 # energy    1.74617415 # occ.  2.00000000
 
ion      s     py     pz     px    dxy    dyz    dz2    dxz  x2-y2    tot
    1  0.000  0.049  0.044  0.065  0.000  0.000  0.000  0.000  0.000  0.158
    2  0.000  0.049  0.044  0.065  0.000  0.000  0.000  0.000  0.000  0.158
tot    0.000  0.099  0.089  0.129  0.000  0.000  0.000  0.000  0.000  0.316
 
band     4 # energy    2.39787898 # occ.  2.00000000
 
ion      s     py     pz     px    dxy    dyz    dz2    dxz  x2-y2    tot
    1  0.002  0.064  0.028  0.076  0.000  0.000  0.000  0.000  0.000  0.170
    2  0.002  0.064  0.028  0.076  0.000  0.000  0.000  0.000  0.000  0.170
tot    0.004  0.128  0.055  0.152  0.000  0.000  0.000  0.000  0.000  0.339
 
band     5 # energy    8.91121106 # occ.  0.00000000
 
ion      s     py     pz     px    dxy    dyz    dz2    dxz  x2-y2    tot
    1  0.030  0.015  0.021  0.044  0.000  0.000  0.000  0.000  0.000  0.110
    2  0.030  0.015  0.021  0.044  0.000  0.000  0.000  0.000  0.000  0.110
tot    0.061  0.030  0.042  0.089  0.000  0.000  0.000  0.000  0.000  0.221
 
band     6 # energy   10.11609054 # occ.  0.00000000
 
ion      s     py     pz     px    dxy    dyz    dz2    dxz  x2-y2    tot
    1  0.015  0.015  0.008  0.063  0.000  0.000  0.000  0.000  0.000  0.101
    2  0.015  0.015  0.008  0.063  0.000  0.000  0.000  0.000  0.000  0.101
tot    0.029  0.031  0.016  0.127  0.000  0.000  0.000  0.000  0.000  0.203
 
band     7 # energy   11.47903351 # occ.  0.00000000
 
ion      s     py     pz     px    dxy    dyz    dz2    dxz  x2-y2    tot
    1  0.040  0.045  0.044  0.024  0.000  0.000  0.000  0.000  0.000  0.153
    2  0.040  0.045  0.044  0.024  0.000  0.000  0.000  0.000  0.000  0.153
tot    0.080  0.089  0.088  0.048  0.000  0.000  0.000  0.000  0.000  0.306
 
band     8 # energy   11.59654587 # occ.  0.00000000
 
ion      s     py     pz     px    dxy    dyz    dz2    dxz  x2-y2    tot
    1  0.038  0.027  0.033  0.038  0.000  0.000  0.000  0.000  0.000  0.136
    2  0.038  0.027  0.033  0.038  0.000  0.000  0.000  0.000  0.000  0.136
tot    0.075  0.054  0.066  0.077  0.000  0.000  0.000  0.000  0.000  0.272
 
band     9 # energy   15.65002522 # occ.  0.00000000
 
ion      s     py     pz     px    dxy    dyz    dz2    dxz  x2-y2    tot
    1  0.003  0.040  0.060  0.038  0.000  0.000  0.000  0.000  0.000  0.141
    2  0.003  0.040  0.060  0.038  0.000  0.000  0.000  0.000  0.000  0.141
tot    0.006  0.079  0.120  0.075  0.000  0.000  0.000  0.000  0.000  0.281
 
band    10 # energy   16.58757494 # occ.  0.00000000
 
ion      s     py     pz     px    dxy    dyz    dz2    dxz  x2-y2    tot
    1  0.008  0.083  0.003  0.029  0.000  0.000  0.000  0.000  0.000  0.122
    2  0.008  0.083  0.003  0.029  0.000  0.000  0.000  0.000  0.000  0.122
tot    0.015  0.166  0.005  0.057  0.000  0.000  0.000  0.000  0.000  0.244
 
band    11 # energy   23.94774121 # occ.  0.00000000
 
ion      s     py     pz     px    dxy    dyz    dz2    dxz  x2-y2    tot
    1  0.013  0.019  0.017  0.018  0.000  0.000  0.000  0.000  0.000  0.067
    2  0.010  0.001  0.058  0.001  0.000  0.000  0.000  0.000  0.000  0.071
tot    0.023  0.020  0.075  0.019  0.000  0.000  0.000  0.000  0.000  0.137
 
band    12 # energy   28.96843198 # occ.  0.00000000
 
ion      s     py     pz     px    dxy    dyz    dz2    dxz  x2-y2    tot
    1  0.001  0.009  0.002  0.046  0.000  0.000  0.000  0.000  0.000  0.057
    2  0.012  0.007  0.012  0.003  0.000  0.000  0.000  0.000  0.000  0.034
tot    0.012  0.016  0.014  0.049  0.000  0.000  0.000  0.000  0.000  0.092
 

 k-point   121 :    0.45714286 0.29285714 0.75000000     weight = 0.00555556

band     1 # energy   -2.14659702 # occ.  2.00000000
 
ion      s     py     pz     px    dxy    dyz    dz2    dxz  x2-y2    tot
    1  0.210  0.014  0.022  0.001  0.000  0.000  0.000  0.000  0.000  0.247
    2  0.210  0.014  0.022  0.001  0.000  0.000  0.000  0.000  0.000  0.247
tot    0.419  0.028  0.045  0.001  0.000  0.000  0.000  0.000  0.000  0.493
 
band     2 # energy   -1.53285975 # occ.  2.00000000
 
ion      s     py     pz     px    dxy    dyz    dz2    dxz  x2-y2    tot
    1  0.196  0.014  0.034  0.001  0.000  0.000  0.000  0.000  0.000  0.245
    2  0.196  0.014  0.034  0.001  0.000  0.000  0.000  0.000  0.000  0.245
tot    0.392  0.029  0.067  0.002  0.000  0.000  0.000  0.000  0.000  0.490
 
band     3 # energy    1.72886763 # occ.  2.00000000
 
ion      s     py     pz     px    dxy    dyz    dz2    dxz  x2-y2    tot
    1  0.000  0.050  0.044  0.064  0.000  0.000  0.000  0.000  0.000  0.158
    2  0.000  0.050  0.044  0.064  0.000  0.000  0.000  0.000  0.000  0.158
tot    0.000  0.099  0.088  0.128  0.000  0.000  0.000  0.000  0.000  0.316
 
band     4 # energy    2.44800610 # occ.  2.00000000
 
ion      s     py     pz     px    dxy    dyz    dz2    dxz  x2-y2    tot
    1  0.002  0.066  0.026  0.077  0.000  0.000  0.000  0.000  0.000  0.171
    2  0.002  0.066  0.026  0.077  0.000  0.000  0.000  0.000  0.000  0.171
tot    0.004  0.131  0.052  0.154  0.000  0.000  0.000  0.000  0.000  0.342
 
band     5 # energy    8.78899457 # occ.  0.00000000
 
ion      s     py     pz     px    dxy    dyz    dz2    dxz  x2-y2    tot
    1  0.032  0.015  0.022  0.042  0.000  0.000  0.000  0.000  0.000  0.111
    2  0.032  0.015  0.022  0.042  0.000  0.000  0.000  0.000  0.000  0.111
tot    0.064  0.029  0.044  0.085  0.000  0.000  0.000  0.000  0.000  0.221
 
band     6 # energy   10.10633381 # occ.  0.00000000
 
ion      s     py     pz     px    dxy    dyz    dz2    dxz  x2-y2    tot
    1  0.016  0.017  0.009  0.061  0.000  0.000  0.000  0.000  0.000  0.102
    2  0.016  0.017  0.009  0.061  0.000  0.000  0.000  0.000  0.000  0.102
tot    0.031  0.033  0.017  0.123  0.000  0.000  0.000  0.000  0.000  0.205
 
band     7 # energy   11.55611767 # occ.  0.00000000
 
ion      s     py     pz     px    dxy    dyz    dz2    dxz  x2-y2    tot
    1  0.038  0.044  0.043  0.026  0.000  0.000  0.000  0.000  0.000  0.152
    2  0.038  0.044  0.043  0.026  0.000  0.000  0.000  0.000  0.000  0.152
tot    0.077  0.089  0.087  0.052  0.000  0.000  0.000  0.000  0.000  0.304
 
band     8 # energy   11.69538847 # occ.  0.00000000
 
ion      s     py     pz     px    dxy    dyz    dz2    dxz  x2-y2    tot
    1  0.037  0.026  0.032  0.040  0.000  0.000  0.000  0.000  0.000  0.135
    2  0.037  0.026  0.032  0.040  0.000  0.000  0.000  0.000  0.000  0.135
tot    0.074  0.052  0.065  0.080  0.000  0.000  0.000  0.000  0.000  0.271
 
band     9 # energy   15.57281076 # occ.  0.00000000
 
ion      s     py     pz     px    dxy    dyz    dz2    dxz  x2-y2    tot
    1  0.004  0.039  0.061  0.037  0.000  0.000  0.000  0.000  0.000  0.141
    2  0.004  0.039  0.061  0.037  0.000  0.000  0.000  0.000  0.000  0.141
tot    0.007  0.078  0.121  0.075  0.000  0.000  0.000  0.000  0.000  0.282
 
band    10 # energy   16.53791355 # occ.  0.00000000
 
ion      s     py     pz     px    dxy    dyz    dz2    dxz  x2-y2    tot
    1  0.009  0.084  0.001  0.027  0.000  0.000  0.000  0.000  0.000  0.121
    2  0.009  0.084  0.001  0.027  0.000  0.000  0.000  0.000  0.000  0.121
tot    0.018  0.168  0.002  0.054  0.000  0.000  0.000  0.000  0.000  0.242
 
band    11 # energy   23.53590268 # occ.  0.00000000
 
ion      s     py     pz     px    dxy    dyz    dz2    dxz  x2-y2    tot
    1  0.012  0.001  0.009  0.005  0.000  0.000  0.000  0.000  0.000  0.027
    2  0.001  0.002  0.059  0.003  0.000  0.000  0.000  0.000  0.000  0.065
tot    0.013  0.003  0.068  0.008  0.000  0.000  0.000  0.000  0.000  0.092
 
band    12 # energy   24.57479016 # occ.  0.00000000
 
ion      s     py     pz     px    dxy    dyz    dz2    dxz  x2-y2    tot
    1  0.008  0.021  0.021  0.006  0.000  0.000  0.000  0.000  0.000  0.055
    2  0.035  0.014  0.026  0.027  0.000  0.000  0.000  0.000  0.000  0.102
tot    0.043  0.035  0.046  0.033  0.000  0.000  0.000  0.000  0.000  0.157
 

 k-point   122 :    0.45357143 0.29642857 0.75000000     weight = 0.00555556

band     1 # energy   -2.16784342 # occ.  2.00000000
 
ion      s     py     pz     px    dxy    dyz    dz2    dxz  x2-y2    tot
    1  0.210  0.014  0.022  0.001  0.000  0.000  0.000  0.000  0.000  0.247
    2  0.210  0.014  0.022  0.001  0.000  0.000  0.000  0.000  0.000  0.247
tot    0.420  0.027  0.045  0.001  0.000  0.000  0.000  0.000  0.000  0.493
 
band     2 # energy   -1.51793411 # occ.  2.00000000
 
ion      s     py     pz     px    dxy    dyz    dz2    dxz  x2-y2    tot
    1  0.195  0.014  0.035  0.001  0.000  0.000  0.000  0.000  0.000  0.244
    2  0.195  0.014  0.035  0.001  0.000  0.000  0.000  0.000  0.000  0.244
tot    0.390  0.028  0.069  0.002  0.000  0.000  0.000  0.000  0.000  0.489
 
band     3 # energy    1.71225423 # occ.  2.00000000
 
ion      s     py     pz     px    dxy    dyz    dz2    dxz  x2-y2    tot
    1  0.000  0.050  0.044  0.064  0.000  0.000  0.000  0.000  0.000  0.158
    2  0.000  0.050  0.044  0.064  0.000  0.000  0.000  0.000  0.000  0.158
tot    0.000  0.100  0.088  0.127  0.000  0.000  0.000  0.000  0.000  0.316
 
band     4 # energy    2.49955324 # occ.  2.00000000
 
ion      s     py     pz     px    dxy    dyz    dz2    dxz  x2-y2    tot
    1  0.002  0.067  0.024  0.078  0.000  0.000  0.000  0.000  0.000  0.172
    2  0.002  0.067  0.024  0.078  0.000  0.000  0.000  0.000  0.000  0.172
tot    0.005  0.135  0.049  0.156  0.000  0.000  0.000  0.000  0.000  0.344
 
band     5 # energy    8.66846172 # occ.  0.00000000
 
ion      s     py     pz     px    dxy    dyz    dz2    dxz  x2-y2    tot
    1  0.033  0.014  0.023  0.040  0.000  0.000  0.000  0.000  0.000  0.110
    2  0.033  0.014  0.023  0.040  0.000  0.000  0.000  0.000  0.000  0.110
tot    0.066  0.028  0.046  0.081  0.000  0.000  0.000  0.000  0.000  0.221
 
band     6 # energy   10.09630563 # occ.  0.00000000
 
ion      s     py     pz     px    dxy    dyz    dz2    dxz  x2-y2    tot
    1  0.017  0.018  0.009  0.060  0.000  0.000  0.000  0.000  0.000  0.103
    2  0.017  0.018  0.009  0.060  0.000  0.000  0.000  0.000  0.000  0.103
tot    0.033  0.035  0.019  0.119  0.000  0.000  0.000  0.000  0.000  0.206
 
band     7 # energy   11.63464767 # occ.  0.00000000
 
ion      s     py     pz     px    dxy    dyz    dz2    dxz  x2-y2    tot
    1  0.037  0.044  0.043  0.028  0.000  0.000  0.000  0.000  0.000  0.152
    2  0.037  0.044  0.043  0.028  0.000  0.000  0.000  0.000  0.000  0.152
tot    0.073  0.088  0.086  0.056  0.000  0.000  0.000  0.000  0.000  0.303
 
band     8 # energy   11.79557483 # occ.  0.00000000
 
ion      s     py     pz     px    dxy    dyz    dz2    dxz  x2-y2    tot
    1  0.036  0.026  0.032  0.041  0.000  0.000  0.000  0.000  0.000  0.135
    2  0.036  0.026  0.032  0.041  0.000  0.000  0.000  0.000  0.000  0.135
tot    0.072  0.051  0.064  0.083  0.000  0.000  0.000  0.000  0.000  0.269
 
band     9 # energy   15.49467345 # occ.  0.00000000
 
ion      s     py     pz     px    dxy    dyz    dz2    dxz  x2-y2    tot
    1  0.004  0.039  0.061  0.037  0.000  0.000  0.000  0.000  0.000  0.141
    2  0.004  0.039  0.061  0.037  0.000  0.000  0.000  0.000  0.000  0.141
tot    0.009  0.078  0.122  0.074  0.000  0.000  0.000  0.000  0.000  0.283
 
band    10 # energy   16.47847214 # occ.  0.00000000
 
ion      s     py     pz     px    dxy    dyz    dz2    dxz  x2-y2    tot
    1  0.010  0.084  0.000  0.026  0.000  0.000  0.000  0.000  0.000  0.120
    2  0.010  0.084  0.000  0.026  0.000  0.000  0.000  0.000  0.000  0.120
tot    0.021  0.168  0.001  0.051  0.000  0.000  0.000  0.000  0.000  0.240
 
band    11 # energy   18.69297310 # occ.  0.00000000
 
ion      s     py     pz     px    dxy    dyz    dz2    dxz  x2-y2    tot
    1  0.020  0.000  0.097  0.010  0.000  0.000  0.000  0.000  0.000  0.127
    2  0.017  0.002  0.110  0.011  0.000  0.000  0.000  0.000  0.000  0.140
tot    0.037  0.002  0.207  0.021  0.000  0.000  0.000  0.000  0.000  0.267
 
band    12 # energy   23.44458353 # occ.  0.00000000
 
ion      s     py     pz     px    dxy    dyz    dz2    dxz  x2-y2    tot
    1  0.010  0.002  0.026  0.023  0.000  0.000  0.000  0.000  0.000  0.061
    2  0.002  0.009  0.054  0.002  0.000  0.000  0.000  0.000  0.000  0.066
tot    0.011  0.011  0.080  0.025  0.000  0.000  0.000  0.000  0.000  0.127
 

 k-point   123 :    0.45000000 0.30000000 0.75000000     weight = 0.00555556

band     1 # energy   -2.18815300 # occ.  2.00000000
 
ion      s     py     pz     px    dxy    dyz    dz2    dxz  x2-y2    tot
    1  0.210  0.013  0.022  0.001  0.000  0.000  0.000  0.000  0.000  0.247
    2  0.210  0.013  0.022  0.001  0.000  0.000  0.000  0.000  0.000  0.247
tot    0.421  0.026  0.045  0.001  0.000  0.000  0.000  0.000  0.000  0.493
 
band     2 # energy   -1.50416435 # occ.  2.00000000
 
ion      s     py     pz     px    dxy    dyz    dz2    dxz  x2-y2    tot
    1  0.194  0.013  0.035  0.001  0.000  0.000  0.000  0.000  0.000  0.244
    2  0.194  0.013  0.035  0.001  0.000  0.000  0.000  0.000  0.000  0.244
tot    0.388  0.026  0.071  0.003  0.000  0.000  0.000  0.000  0.000  0.488
 
band     3 # energy    1.69633965 # occ.  2.00000000
 
ion      s     py     pz     px    dxy    dyz    dz2    dxz  x2-y2    tot
    1  0.000  0.050  0.044  0.063  0.000  0.000  0.000  0.000  0.000  0.158
    2  0.000  0.050  0.044  0.063  0.000  0.000  0.000  0.000  0.000  0.158
tot    0.000  0.100  0.088  0.127  0.000  0.000  0.000  0.000  0.000  0.315
 
band     4 # energy    2.55233040 # occ.  2.00000000
 
ion      s     py     pz     px    dxy    dyz    dz2    dxz  x2-y2    tot
    1  0.003  0.069  0.023  0.079  0.000  0.000  0.000  0.000  0.000  0.173
    2  0.003  0.069  0.023  0.079  0.000  0.000  0.000  0.000  0.000  0.173
tot    0.005  0.138  0.046  0.157  0.000  0.000  0.000  0.000  0.000  0.347
 
band     5 # energy    8.54987744 # occ.  0.00000000
 
ion      s     py     pz     px    dxy    dyz    dz2    dxz  x2-y2    tot
    1  0.034  0.014  0.024  0.038  0.000  0.000  0.000  0.000  0.000  0.110
    2  0.034  0.014  0.024  0.038  0.000  0.000  0.000  0.000  0.000  0.110
tot    0.069  0.027  0.047  0.077  0.000  0.000  0.000  0.000  0.000  0.220
 
band     6 # energy   10.08615889 # occ.  0.00000000
 
ion      s     py     pz     px    dxy    dyz    dz2    dxz  x2-y2    tot
    1  0.017  0.019  0.010  0.058  0.000  0.000  0.000  0.000  0.000  0.104
    2  0.017  0.019  0.010  0.058  0.000  0.000  0.000  0.000  0.000  0.104
tot    0.035  0.038  0.020  0.116  0.000  0.000  0.000  0.000  0.000  0.208
 
band     7 # energy   11.71443528 # occ.  0.00000000
 
ion      s     py     pz     px    dxy    dyz    dz2    dxz  x2-y2    tot
    1  0.035  0.044  0.042  0.030  0.000  0.000  0.000  0.000  0.000  0.151
    2  0.035  0.044  0.042  0.030  0.000  0.000  0.000  0.000  0.000  0.151
tot    0.070  0.088  0.085  0.060  0.000  0.000  0.000  0.000  0.000  0.302
 
band     8 # energy   11.89696462 # occ.  0.00000000
 
ion      s     py     pz     px    dxy    dyz    dz2    dxz  x2-y2    tot
    1  0.035  0.025  0.031  0.043  0.000  0.000  0.000  0.000  0.000  0.134
    2  0.035  0.025  0.031  0.043  0.000  0.000  0.000  0.000  0.000  0.134
tot    0.071  0.050  0.062  0.086  0.000  0.000  0.000  0.000  0.000  0.269
 
band     9 # energy   15.41567309 # occ.  0.00000000
 
ion      s     py     pz     px    dxy    dyz    dz2    dxz  x2-y2    tot
    1  0.005  0.038  0.062  0.037  0.000  0.000  0.000  0.000  0.000  0.142
    2  0.005  0.038  0.062  0.037  0.000  0.000  0.000  0.000  0.000  0.142
tot    0.010  0.077  0.124  0.074  0.000  0.000  0.000  0.000  0.000  0.284
 
band    10 # energy   16.41039962 # occ.  0.00000000
 
ion      s     py     pz     px    dxy    dyz    dz2    dxz  x2-y2    tot
    1  0.012  0.083  0.000  0.024  0.000  0.000  0.000  0.000  0.000  0.119
    2  0.012  0.083  0.000  0.024  0.000  0.000  0.000  0.000  0.000  0.119
tot    0.023  0.167  0.000  0.048  0.000  0.000  0.000  0.000  0.000  0.239
 
band    11 # energy   18.74473504 # occ.  0.00000000
 
ion      s     py     pz     px    dxy    dyz    dz2    dxz  x2-y2    tot
    1  0.017  0.000  0.104  0.012  0.000  0.000  0.000  0.000  0.000  0.134
    2  0.017  0.000  0.105  0.012  0.000  0.000  0.000  0.000  0.000  0.134
tot    0.034  0.001  0.209  0.024  0.000  0.000  0.000  0.000  0.000  0.268
 
band    12 # energy   23.33300217 # occ.  0.00000000
 
ion      s     py     pz     px    dxy    dyz    dz2    dxz  x2-y2    tot
    1  0.014  0.003  0.038  0.009  0.000  0.000  0.000  0.000  0.000  0.064
    2  0.003  0.007  0.075  0.009  0.000  0.000  0.000  0.000  0.000  0.094
tot    0.017  0.009  0.113  0.018  0.000  0.000  0.000  0.000  0.000  0.158
 

 k-point   124 :    0.44642857 0.30357143 0.75000000     weight = 0.00555556

band     1 # energy   -2.20752478 # occ.  2.00000000
 
ion      s     py     pz     px    dxy    dyz    dz2    dxz  x2-y2    tot
    1  0.211  0.013  0.022  0.001  0.000  0.000  0.000  0.000  0.000  0.246
    2  0.211  0.013  0.022  0.001  0.000  0.000  0.000  0.000  0.000  0.246
tot    0.421  0.025  0.045  0.002  0.000  0.000  0.000  0.000  0.000  0.493
 
band     2 # energy   -1.49149382 # occ.  2.00000000
 
ion      s     py     pz     px    dxy    dyz    dz2    dxz  x2-y2    tot
    1  0.193  0.013  0.036  0.001  0.000  0.000  0.000  0.000  0.000  0.244
    2  0.193  0.013  0.036  0.001  0.000  0.000  0.000  0.000  0.000  0.244
tot    0.387  0.025  0.072  0.003  0.000  0.000  0.000  0.000  0.000  0.487
 
band     3 # energy    1.68112957 # occ.  2.00000000
 
ion      s     py     pz     px    dxy    dyz    dz2    dxz  x2-y2    tot
    1  0.000  0.051  0.044  0.063  0.000  0.000  0.000  0.000  0.000  0.157
    2  0.000  0.051  0.044  0.063  0.000  0.000  0.000  0.000  0.000  0.157
tot    0.000  0.101  0.088  0.126  0.000  0.000  0.000  0.000  0.000  0.315
 
band     4 # energy    2.60613172 # occ.  2.00000000
 
ion      s     py     pz     px    dxy    dyz    dz2    dxz  x2-y2    tot
    1  0.003  0.071  0.021  0.080  0.000  0.000  0.000  0.000  0.000  0.175
    2  0.003  0.071  0.021  0.080  0.000  0.000  0.000  0.000  0.000  0.175
tot    0.005  0.142  0.043  0.159  0.000  0.000  0.000  0.000  0.000  0.349
 
band     5 # energy    8.43348865 # occ.  0.00000000
 
ion      s     py     pz     px    dxy    dyz    dz2    dxz  x2-y2    tot
    1  0.036  0.013  0.025  0.036  0.000  0.000  0.000  0.000  0.000  0.110
    2  0.036  0.013  0.025  0.036  0.000  0.000  0.000  0.000  0.000  0.110
tot    0.071  0.026  0.049  0.073  0.000  0.000  0.000  0.000  0.000  0.220
 
band     6 # energy   10.07602833 # occ.  0.00000000
 
ion      s     py     pz     px    dxy    dyz    dz2    dxz  x2-y2    tot
    1  0.018  0.020  0.010  0.056  0.000  0.000  0.000  0.000  0.000  0.105
    2  0.018  0.020  0.010  0.056  0.000  0.000  0.000  0.000  0.000  0.105
tot    0.036  0.040  0.020  0.113  0.000  0.000  0.000  0.000  0.000  0.209
 
band     7 # energy   11.79531284 # occ.  0.00000000
 
ion      s     py     pz     px    dxy    dyz    dz2    dxz  x2-y2    tot
    1  0.034  0.044  0.042  0.032  0.000  0.000  0.000  0.000  0.000  0.151
    2  0.034  0.044  0.042  0.032  0.000  0.000  0.000  0.000  0.000  0.151
tot    0.067  0.088  0.083  0.063  0.000  0.000  0.000  0.000  0.000  0.301
 
band     8 # energy   11.99945019 # occ.  0.00000000
 
ion      s     py     pz     px    dxy    dyz    dz2    dxz  x2-y2    tot
    1  0.035  0.025  0.031  0.044  0.000  0.000  0.000  0.000  0.000  0.134
    2  0.035  0.025  0.031  0.044  0.000  0.000  0.000  0.000  0.000  0.134
tot    0.070  0.049  0.061  0.088  0.000  0.000  0.000  0.000  0.000  0.268
 
band     9 # energy   15.33587181 # occ.  0.00000000
 
ion      s     py     pz     px    dxy    dyz    dz2    dxz  x2-y2    tot
    1  0.006  0.038  0.062  0.036  0.000  0.000  0.000  0.000  0.000  0.142
    2  0.006  0.038  0.062  0.036  0.000  0.000  0.000  0.000  0.000  0.142
tot    0.011  0.076  0.125  0.073  0.000  0.000  0.000  0.000  0.000  0.284
 
band    10 # energy   16.33484830 # occ.  0.00000000
 
ion      s     py     pz     px    dxy    dyz    dz2    dxz  x2-y2    tot
    1  0.013  0.083  0.000  0.023  0.000  0.000  0.000  0.000  0.000  0.118
    2  0.013  0.083  0.000  0.023  0.000  0.000  0.000  0.000  0.000  0.118
tot    0.025  0.165  0.000  0.046  0.000  0.000  0.000  0.000  0.000  0.237
 
band    11 # energy   18.80511860 # occ.  0.00000000
 
ion      s     py     pz     px    dxy    dyz    dz2    dxz  x2-y2    tot
    1  0.016  0.000  0.105  0.013  0.000  0.000  0.000  0.000  0.000  0.134
    2  0.016  0.000  0.105  0.013  0.000  0.000  0.000  0.000  0.000  0.134
tot    0.032  0.000  0.209  0.026  0.000  0.000  0.000  0.000  0.000  0.268
 
band    12 # energy   19.97421889 # occ.  0.00000000
 
ion      s     py     pz     px    dxy    dyz    dz2    dxz  x2-y2    tot
    1  0.014  0.074  0.036  0.003  0.000  0.000  0.000  0.000  0.000  0.127
    2  0.015  0.070  0.039  0.004  0.000  0.000  0.000  0.000  0.000  0.127
tot    0.029  0.143  0.075  0.007  0.000  0.000  0.000  0.000  0.000  0.254
 

 k-point   125 :    0.44285714 0.30714286 0.75000000     weight = 0.00555556

band     1 # energy   -2.22595770 # occ.  2.00000000
 
ion      s     py     pz     px    dxy    dyz    dz2    dxz  x2-y2    tot
    1  0.211  0.012  0.023  0.001  0.000  0.000  0.000  0.000  0.000  0.246
    2  0.211  0.012  0.023  0.001  0.000  0.000  0.000  0.000  0.000  0.246
tot    0.422  0.024  0.045  0.002  0.000  0.000  0.000  0.000  0.000  0.493
 
band     2 # energy   -1.47986538 # occ.  2.00000000
 
ion      s     py     pz     px    dxy    dyz    dz2    dxz  x2-y2    tot
    1  0.192  0.012  0.037  0.002  0.000  0.000  0.000  0.000  0.000  0.243
    2  0.192  0.012  0.037  0.002  0.000  0.000  0.000  0.000  0.000  0.243
tot    0.385  0.025  0.074  0.003  0.000  0.000  0.000  0.000  0.000  0.487
 
band     3 # energy    1.66662966 # occ.  2.00000000
 
ion      s     py     pz     px    dxy    dyz    dz2    dxz  x2-y2    tot
    1  0.000  0.051  0.044  0.063  0.000  0.000  0.000  0.000  0.000  0.157
    2  0.000  0.051  0.044  0.063  0.000  0.000  0.000  0.000  0.000  0.157
tot    0.000  0.102  0.088  0.125  0.000  0.000  0.000  0.000  0.000  0.315
 
band     4 # energy    2.66073491 # occ.  2.00000000
 
ion      s     py     pz     px    dxy    dyz    dz2    dxz  x2-y2    tot
    1  0.003  0.073  0.020  0.081  0.000  0.000  0.000  0.000  0.000  0.176
    2  0.003  0.073  0.020  0.081  0.000  0.000  0.000  0.000  0.000  0.176
tot    0.006  0.146  0.040  0.161  0.000  0.000  0.000  0.000  0.000  0.352
 
band     5 # energy    8.31953682 # occ.  0.00000000
 
ion      s     py     pz     px    dxy    dyz    dz2    dxz  x2-y2    tot
    1  0.037  0.012  0.026  0.034  0.000  0.000  0.000  0.000  0.000  0.109
    2  0.037  0.012  0.026  0.034  0.000  0.000  0.000  0.000  0.000  0.109
tot    0.074  0.025  0.051  0.069  0.000  0.000  0.000  0.000  0.000  0.219
 
band     6 # energy   10.06601770 # occ.  0.00000000
 
ion      s     py     pz     px    dxy    dyz    dz2    dxz  x2-y2    tot
    1  0.019  0.021  0.011  0.055  0.000  0.000  0.000  0.000  0.000  0.105
    2  0.019  0.021  0.011  0.055  0.000  0.000  0.000  0.000  0.000  0.105
tot    0.038  0.042  0.021  0.110  0.000  0.000  0.000  0.000  0.000  0.210
 
band     7 # energy   11.87714377 # occ.  0.00000000
 
ion      s     py     pz     px    dxy    dyz    dz2    dxz  x2-y2    tot
    1  0.032  0.044  0.041  0.033  0.000  0.000  0.000  0.000  0.000  0.150
    2  0.032  0.044  0.041  0.033  0.000  0.000  0.000  0.000  0.000  0.150
tot    0.064  0.088  0.082  0.066  0.000  0.000  0.000  0.000  0.000  0.301
 
band     8 # energy   12.10294055 # occ.  0.00000000
 
ion      s     py     pz     px    dxy    dyz    dz2    dxz  x2-y2    tot
    1  0.034  0.024  0.030  0.045  0.000  0.000  0.000  0.000  0.000  0.134
    2  0.034  0.024  0.030  0.045  0.000  0.000  0.000  0.000  0.000  0.134
tot    0.069  0.048  0.060  0.091  0.000  0.000  0.000  0.000  0.000  0.267
 
band     9 # energy   15.25532746 # occ.  0.00000000
 
ion      s     py     pz     px    dxy    dyz    dz2    dxz  x2-y2    tot
    1  0.006  0.038  0.063  0.036  0.000  0.000  0.000  0.000  0.000  0.142
    2  0.006  0.038  0.063  0.036  0.000  0.000  0.000  0.000  0.000  0.142
tot    0.012  0.075  0.126  0.072  0.000  0.000  0.000  0.000  0.000  0.285
 
band    10 # energy   16.25288278 # occ.  0.00000000
 
ion      s     py     pz     px    dxy    dyz    dz2    dxz  x2-y2    tot
    1  0.014  0.082  0.000  0.022  0.000  0.000  0.000  0.000  0.000  0.118
    2  0.014  0.082  0.000  0.022  0.000  0.000  0.000  0.000  0.000  0.118
tot    0.027  0.163  0.001  0.044  0.000  0.000  0.000  0.000  0.000  0.235
 
band    11 # energy   19.86591111 # occ.  0.00000000
 
ion      s     py     pz     px    dxy    dyz    dz2    dxz  x2-y2    tot
    1  0.006  0.043  0.090  0.013  0.000  0.000  0.000  0.000  0.000  0.152
    2  0.012  0.048  0.060  0.009  0.000  0.000  0.000  0.000  0.000  0.129
tot    0.018  0.091  0.150  0.023  0.000  0.000  0.000  0.000  0.000  0.281
 
band    12 # energy   25.30490547 # occ.  0.00000000
 
ion      s     py     pz     px    dxy    dyz    dz2    dxz  x2-y2    tot
    1  0.051  0.001  0.017  0.025  0.000  0.000  0.000  0.000  0.000  0.094
    2  0.004  0.021  0.013  0.008  0.000  0.000  0.000  0.000  0.000  0.045
tot    0.054  0.022  0.030  0.033  0.000  0.000  0.000  0.000  0.000  0.139
 

 k-point   126 :    0.43928571 0.31071429 0.75000000     weight = 0.00555556

band     1 # energy   -2.24345660 # occ.  2.00000000
 
ion      s     py     pz     px    dxy    dyz    dz2    dxz  x2-y2    tot
    1  0.211  0.012  0.023  0.001  0.000  0.000  0.000  0.000  0.000  0.246
    2  0.211  0.012  0.023  0.001  0.000  0.000  0.000  0.000  0.000  0.246
tot    0.422  0.023  0.045  0.002  0.000  0.000  0.000  0.000  0.000  0.493
 
band     2 # energy   -1.46922237 # occ.  2.00000000
 
ion      s     py     pz     px    dxy    dyz    dz2    dxz  x2-y2    tot
    1  0.192  0.012  0.038  0.002  0.000  0.000  0.000  0.000  0.000  0.243
    2  0.192  0.012  0.038  0.002  0.000  0.000  0.000  0.000  0.000  0.243
tot    0.383  0.024  0.075  0.004  0.000  0.000  0.000  0.000  0.000  0.486
 
band     3 # energy    1.65284442 # occ.  2.00000000
 
ion      s     py     pz     px    dxy    dyz    dz2    dxz  x2-y2    tot
    1  0.000  0.051  0.044  0.062  0.000  0.000  0.000  0.000  0.000  0.157
    2  0.000  0.051  0.044  0.062  0.000  0.000  0.000  0.000  0.000  0.157
tot    0.000  0.102  0.088  0.124  0.000  0.000  0.000  0.000  0.000  0.314
 
band     4 # energy    2.71589897 # occ.  2.00000000
 
ion      s     py     pz     px    dxy    dyz    dz2    dxz  x2-y2    tot
    1  0.003  0.075  0.018  0.082  0.000  0.000  0.000  0.000  0.000  0.178
    2  0.003  0.075  0.018  0.082  0.000  0.000  0.000  0.000  0.000  0.178
tot    0.006  0.149  0.037  0.163  0.000  0.000  0.000  0.000  0.000  0.355
 
band     5 # energy    8.20826495 # occ.  0.00000000
 
ion      s     py     pz     px    dxy    dyz    dz2    dxz  x2-y2    tot
    1  0.038  0.012  0.026  0.033  0.000  0.000  0.000  0.000  0.000  0.109
    2  0.038  0.012  0.026  0.033  0.000  0.000  0.000  0.000  0.000  0.109
tot    0.076  0.023  0.053  0.065  0.000  0.000  0.000  0.000  0.000  0.218
 
band     6 # energy   10.05620283 # occ.  0.00000000
 
ion      s     py     pz     px    dxy    dyz    dz2    dxz  x2-y2    tot
    1  0.019  0.022  0.011  0.053  0.000  0.000  0.000  0.000  0.000  0.106
    2  0.019  0.022  0.011  0.053  0.000  0.000  0.000  0.000  0.000  0.106
tot    0.039  0.044  0.022  0.107  0.000  0.000  0.000  0.000  0.000  0.212
 
band     7 # energy   11.95980219 # occ.  0.00000000
 
ion      s     py     pz     px    dxy    dyz    dz2    dxz  x2-y2    tot
    1  0.031  0.044  0.041  0.035  0.000  0.000  0.000  0.000  0.000  0.150
    2  0.031  0.044  0.041  0.035  0.000  0.000  0.000  0.000  0.000  0.150
tot    0.061  0.088  0.081  0.070  0.000  0.000  0.000  0.000  0.000  0.300
 
band     8 # energy   12.20736607 # occ.  0.00000000
 
ion      s     py     pz     px    dxy    dyz    dz2    dxz  x2-y2    tot
    1  0.034  0.024  0.029  0.046  0.000  0.000  0.000  0.000  0.000  0.133
    2  0.034  0.024  0.029  0.046  0.000  0.000  0.000  0.000  0.000  0.133
tot    0.068  0.048  0.059  0.093  0.000  0.000  0.000  0.000  0.000  0.267
 
band     9 # energy   15.17409454 # occ.  0.00000000
 
ion      s     py     pz     px    dxy    dyz    dz2    dxz  x2-y2    tot
    1  0.007  0.037  0.063  0.036  0.000  0.000  0.000  0.000  0.000  0.143
    2  0.007  0.037  0.063  0.036  0.000  0.000  0.000  0.000  0.000  0.143
tot    0.014  0.074  0.127  0.071  0.000  0.000  0.000  0.000  0.000  0.285
 
band    10 # energy   16.16546117 # occ.  0.00000000
 
ion      s     py     pz     px    dxy    dyz    dz2    dxz  x2-y2    tot
    1  0.015  0.080  0.001  0.021  0.000  0.000  0.000  0.000  0.000  0.117
    2  0.015  0.080  0.001  0.021  0.000  0.000  0.000  0.000  0.000  0.117
tot    0.029  0.161  0.002  0.041  0.000  0.000  0.000  0.000  0.000  0.234
 
band    11 # energy   23.27700475 # occ.  0.00000000
 
ion      s     py     pz     px    dxy    dyz    dz2    dxz  x2-y2    tot
    1  0.000  0.019  0.075  0.006  0.000  0.000  0.000  0.000  0.000  0.099
    2  0.013  0.010  0.026  0.059  0.000  0.000  0.000  0.000  0.000  0.108
tot    0.013  0.028  0.101  0.065  0.000  0.000  0.000  0.000  0.000  0.207
 
band    12 # energy   24.74954581 # occ.  0.00000000
 
ion      s     py     pz     px    dxy    dyz    dz2    dxz  x2-y2    tot
    1  0.047  0.001  0.004  0.019  0.000  0.000  0.000  0.000  0.000  0.071
    2  0.015  0.002  0.006  0.010  0.000  0.000  0.000  0.000  0.000  0.033
tot    0.062  0.003  0.010  0.029  0.000  0.000  0.000  0.000  0.000  0.104
 

 k-point   127 :    0.43571429 0.31428571 0.75000000     weight = 0.00555556

band     1 # energy   -2.26000900 # occ.  2.00000000
 
ion      s     py     pz     px    dxy    dyz    dz2    dxz  x2-y2    tot
    1  0.211  0.011  0.023  0.001  0.000  0.000  0.000  0.000  0.000  0.246
    2  0.211  0.011  0.023  0.001  0.000  0.000  0.000  0.000  0.000  0.246
tot    0.423  0.022  0.045  0.002  0.000  0.000  0.000  0.000  0.000  0.493
 
band     2 # energy   -1.45950842 # occ.  2.00000000
 
ion      s     py     pz     px    dxy    dyz    dz2    dxz  x2-y2    tot
    1  0.191  0.011  0.038  0.002  0.000  0.000  0.000  0.000  0.000  0.243
    2  0.191  0.011  0.038  0.002  0.000  0.000  0.000  0.000  0.000  0.243
tot    0.382  0.023  0.077  0.004  0.000  0.000  0.000  0.000  0.000  0.485
 
band     3 # energy    1.63977952 # occ.  2.00000000
 
ion      s     py     pz     px    dxy    dyz    dz2    dxz  x2-y2    tot
    1  0.000  0.051  0.044  0.062  0.000  0.000  0.000  0.000  0.000  0.157
    2  0.000  0.051  0.044  0.062  0.000  0.000  0.000  0.000  0.000  0.157
tot    0.000  0.103  0.087  0.124  0.000  0.000  0.000  0.000  0.000  0.314
 
band     4 # energy    2.77136376 # occ.  2.00000000
 
ion      s     py     pz     px    dxy    dyz    dz2    dxz  x2-y2    tot
    1  0.003  0.077  0.017  0.083  0.000  0.000  0.000  0.000  0.000  0.179
    2  0.003  0.077  0.017  0.083  0.000  0.000  0.000  0.000  0.000  0.179
tot    0.006  0.153  0.034  0.165  0.000  0.000  0.000  0.000  0.000  0.358
 
band     5 # energy    8.09992465 # occ.  0.00000000
 
ion      s     py     pz     px    dxy    dyz    dz2    dxz  x2-y2    tot
    1  0.039  0.011  0.027  0.031  0.000  0.000  0.000  0.000  0.000  0.108
    2  0.039  0.011  0.027  0.031  0.000  0.000  0.000  0.000  0.000  0.108
tot    0.079  0.022  0.055  0.061  0.000  0.000  0.000  0.000  0.000  0.216
 
band     6 # energy   10.04667656 # occ.  0.00000000
 
ion      s     py     pz     px    dxy    dyz    dz2    dxz  x2-y2    tot
    1  0.020  0.023  0.011  0.052  0.000  0.000  0.000  0.000  0.000  0.106
    2  0.020  0.023  0.011  0.052  0.000  0.000  0.000  0.000  0.000  0.106
tot    0.040  0.045  0.023  0.104  0.000  0.000  0.000  0.000  0.000  0.212
 
band     7 # energy   12.08218148 # occ.  0.00000000
 
ion      s     py     pz     px    dxy    dyz    dz2    dxz  x2-y2    tot
    1  0.009  0.063  0.061  0.011  0.000  0.000  0.000  0.000  0.000  0.143
    2  0.051  0.020  0.016  0.065  0.000  0.000  0.000  0.000  0.000  0.152
tot    0.060  0.083  0.077  0.076  0.000  0.000  0.000  0.000  0.000  0.295
 
band     8 # energy   15.08993769 # occ.  0.00000000
 
ion      s     py     pz     px    dxy    dyz    dz2    dxz  x2-y2    tot
    1  0.006  0.036  0.067  0.039  0.000  0.000  0.000  0.000  0.000  0.148
    2  0.009  0.041  0.056  0.034  0.000  0.000  0.000  0.000  0.000  0.139
tot    0.014  0.077  0.123  0.072  0.000  0.000  0.000  0.000  0.000  0.287
 
band     9 # energy   16.07564619 # occ.  0.00000000
 
ion      s     py     pz     px    dxy    dyz    dz2    dxz  x2-y2    tot
    1  0.017  0.080  0.003  0.021  0.000  0.000  0.000  0.000  0.000  0.121
    2  0.017  0.081  0.003  0.020  0.000  0.000  0.000  0.000  0.000  0.121
tot    0.034  0.162  0.006  0.041  0.000  0.000  0.000  0.000  0.000  0.242
 
band    10 # energy   19.51911893 # occ.  0.00000000
 
ion      s     py     pz     px    dxy    dyz    dz2    dxz  x2-y2    tot
    1  0.017  0.035  0.073  0.013  0.000  0.000  0.000  0.000  0.000  0.138
    2  0.010  0.021  0.130  0.017  0.000  0.000  0.000  0.000  0.000  0.177
tot    0.027  0.056  0.203  0.029  0.000  0.000  0.000  0.000  0.000  0.315
 
band    11 # energy   22.21801625 # occ.  0.00000000
 
ion      s     py     pz     px    dxy    dyz    dz2    dxz  x2-y2    tot
    1  0.002  0.011  0.141  0.017  0.000  0.000  0.000  0.000  0.000  0.171
    2  0.004  0.034  0.061  0.025  0.000  0.000  0.000  0.000  0.000  0.125
tot    0.007  0.045  0.202  0.042  0.000  0.000  0.000  0.000  0.000  0.296
 
band    12 # energy   28.12515235 # occ.  0.00000000
 
ion      s     py     pz     px    dxy    dyz    dz2    dxz  x2-y2    tot
    1  0.013  0.004  0.004  0.026  0.000  0.000  0.000  0.000  0.000  0.047
    2  0.002  0.000  0.009  0.065  0.000  0.000  0.000  0.000  0.000  0.077
tot    0.015  0.004  0.014  0.091  0.000  0.000  0.000  0.000  0.000  0.123
 

 k-point   128 :    0.43214286 0.31785714 0.75000000     weight = 0.00555556

band     1 # energy   -2.27561986 # occ.  2.00000000
 
ion      s     py     pz     px    dxy    dyz    dz2    dxz  x2-y2    tot
    1  0.212  0.011  0.023  0.001  0.000  0.000  0.000  0.000  0.000  0.246
    2  0.212  0.011  0.023  0.001  0.000  0.000  0.000  0.000  0.000  0.246
tot    0.423  0.022  0.045  0.003  0.000  0.000  0.000  0.000  0.000  0.493
 
band     2 # energy   -1.45066867 # occ.  2.00000000
 
ion      s     py     pz     px    dxy    dyz    dz2    dxz  x2-y2    tot
    1  0.190  0.011  0.039  0.002  0.000  0.000  0.000  0.000  0.000  0.242
    2  0.190  0.011  0.039  0.002  0.000  0.000  0.000  0.000  0.000  0.242
tot    0.380  0.022  0.078  0.004  0.000  0.000  0.000  0.000  0.000  0.484
 
band     3 # energy    1.62743882 # occ.  2.00000000
 
ion      s     py     pz     px    dxy    dyz    dz2    dxz  x2-y2    tot
    1  0.000  0.052  0.044  0.061  0.000  0.000  0.000  0.000  0.000  0.157
    2  0.000  0.052  0.044  0.061  0.000  0.000  0.000  0.000  0.000  0.157
tot    0.000  0.103  0.087  0.123  0.000  0.000  0.000  0.000  0.000  0.314
 
band     4 # energy    2.82684821 # occ.  2.00000000
 
ion      s     py     pz     px    dxy    dyz    dz2    dxz  x2-y2    tot
    1  0.003  0.078  0.015  0.084  0.000  0.000  0.000  0.000  0.000  0.181
    2  0.003  0.078  0.015  0.084  0.000  0.000  0.000  0.000  0.000  0.181
tot    0.006  0.157  0.031  0.168  0.000  0.000  0.000  0.000  0.000  0.361
 
band     5 # energy    7.99478010 # occ.  0.00000000
 
ion      s     py     pz     px    dxy    dyz    dz2    dxz  x2-y2    tot
    1  0.040  0.010  0.028  0.029  0.000  0.000  0.000  0.000  0.000  0.107
    2  0.040  0.010  0.028  0.029  0.000  0.000  0.000  0.000  0.000  0.107
tot    0.081  0.020  0.057  0.057  0.000  0.000  0.000  0.000  0.000  0.215
 
band     6 # energy   10.03748604 # occ.  0.00000000
 
ion      s     py     pz     px    dxy    dyz    dz2    dxz  x2-y2    tot
    1  0.021  0.024  0.012  0.051  0.000  0.000  0.000  0.000  0.000  0.107
    2  0.021  0.024  0.012  0.051  0.000  0.000  0.000  0.000  0.000  0.107
tot    0.041  0.047  0.023  0.102  0.000  0.000  0.000  0.000  0.000  0.213
 
band     7 # energy   12.12715783 # occ.  0.00000000
 
ion      s     py     pz     px    dxy    dyz    dz2    dxz  x2-y2    tot
    1  0.028  0.045  0.040  0.038  0.000  0.000  0.000  0.000  0.000  0.150
    2  0.028  0.045  0.040  0.038  0.000  0.000  0.000  0.000  0.000  0.150
tot    0.056  0.089  0.079  0.076  0.000  0.000  0.000  0.000  0.000  0.300
 
band     8 # energy   12.41877106 # occ.  0.00000000
 
ion      s     py     pz     px    dxy    dyz    dz2    dxz  x2-y2    tot
    1  0.033  0.023  0.028  0.049  0.000  0.000  0.000  0.000  0.000  0.133
    2  0.033  0.023  0.028  0.049  0.000  0.000  0.000  0.000  0.000  0.133
tot    0.066  0.046  0.057  0.097  0.000  0.000  0.000  0.000  0.000  0.267
 
band     9 # energy   15.00982332 # occ.  0.00000000
 
ion      s     py     pz     px    dxy    dyz    dz2    dxz  x2-y2    tot
    1  0.008  0.036  0.064  0.034  0.000  0.000  0.000  0.000  0.000  0.143
    2  0.008  0.036  0.064  0.034  0.000  0.000  0.000  0.000  0.000  0.143
tot    0.017  0.072  0.129  0.069  0.000  0.000  0.000  0.000  0.000  0.286
 
band    10 # energy   15.97748900 # occ.  0.00000000
 
ion      s     py     pz     px    dxy    dyz    dz2    dxz  x2-y2    tot
    1  0.016  0.078  0.003  0.019  0.000  0.000  0.000  0.000  0.000  0.115
    2  0.016  0.078  0.003  0.019  0.000  0.000  0.000  0.000  0.000  0.115
tot    0.032  0.155  0.005  0.038  0.000  0.000  0.000  0.000  0.000  0.231
 
band    11 # energy   20.05042623 # occ.  0.00000000
 
ion      s     py     pz     px    dxy    dyz    dz2    dxz  x2-y2    tot
    1  0.011  0.022  0.085  0.017  0.000  0.000  0.000  0.000  0.000  0.134
    2  0.010  0.063  0.047  0.006  0.000  0.000  0.000  0.000  0.000  0.127
tot    0.021  0.085  0.132  0.023  0.000  0.000  0.000  0.000  0.000  0.262
 
band    12 # energy   22.50566517 # occ.  0.00000000
 
ion      s     py     pz     px    dxy    dyz    dz2    dxz  x2-y2    tot
    1  0.008  0.006  0.052  0.006  0.000  0.000  0.000  0.000  0.000  0.072
    2  0.021  0.009  0.064  0.011  0.000  0.000  0.000  0.000  0.000  0.105
tot    0.029  0.015  0.116  0.018  0.000  0.000  0.000  0.000  0.000  0.178
 

 k-point   129 :    0.42857143 0.32142857 0.75000000     weight = 0.00555556

band     1 # energy   -2.29028783 # occ.  2.00000000
 
ion      s     py     pz     px    dxy    dyz    dz2    dxz  x2-y2    tot
    1  0.212  0.010  0.023  0.002  0.000  0.000  0.000  0.000  0.000  0.246
    2  0.212  0.010  0.023  0.002  0.000  0.000  0.000  0.000  0.000  0.246
tot    0.424  0.021  0.045  0.003  0.000  0.000  0.000  0.000  0.000  0.493
 
band     2 # energy   -1.44264988 # occ.  2.00000000
 
ion      s     py     pz     px    dxy    dyz    dz2    dxz  x2-y2    tot
    1  0.189  0.010  0.040  0.002  0.000  0.000  0.000  0.000  0.000  0.242
    2  0.189  0.010  0.040  0.002  0.000  0.000  0.000  0.000  0.000  0.242
tot    0.379  0.021  0.079  0.005  0.000  0.000  0.000  0.000  0.000  0.484
 
band     3 # energy    1.61582624 # occ.  2.00000000
 
ion      s     py     pz     px    dxy    dyz    dz2    dxz  x2-y2    tot
    1  0.000  0.052  0.044  0.061  0.000  0.000  0.000  0.000  0.000  0.157
    2  0.000  0.052  0.044  0.061  0.000  0.000  0.000  0.000  0.000  0.157
tot    0.000  0.104  0.087  0.122  0.000  0.000  0.000  0.000  0.000  0.313
 
band     4 # energy    2.88205364 # occ.  2.00000000
 
ion      s     py     pz     px    dxy    dyz    dz2    dxz  x2-y2    tot
    1  0.003  0.080  0.014  0.085  0.000  0.000  0.000  0.000  0.000  0.182
    2  0.003  0.080  0.014  0.085  0.000  0.000  0.000  0.000  0.000  0.182
tot    0.006  0.161  0.028  0.170  0.000  0.000  0.000  0.000  0.000  0.364
 
band     5 # energy    7.89307184 # occ.  0.00000000
 
ion      s     py     pz     px    dxy    dyz    dz2    dxz  x2-y2    tot
    1  0.042  0.009  0.029  0.027  0.000  0.000  0.000  0.000  0.000  0.107
    2  0.042  0.009  0.029  0.027  0.000  0.000  0.000  0.000  0.000  0.107
tot    0.083  0.018  0.058  0.053  0.000  0.000  0.000  0.000  0.000  0.213
 
band     6 # energy   10.02867915 # occ.  0.00000000
 
ion      s     py     pz     px    dxy    dyz    dz2    dxz  x2-y2    tot
    1  0.021  0.025  0.012  0.050  0.000  0.000  0.000  0.000  0.000  0.107
    2  0.021  0.025  0.012  0.050  0.000  0.000  0.000  0.000  0.000  0.107
tot    0.042  0.049  0.024  0.099  0.000  0.000  0.000  0.000  0.000  0.214
 
band     7 # energy   12.21159287 # occ.  0.00000000
 
ion      s     py     pz     px    dxy    dyz    dz2    dxz  x2-y2    tot
    1  0.027  0.045  0.039  0.039  0.000  0.000  0.000  0.000  0.000  0.150
    2  0.027  0.045  0.039  0.039  0.000  0.000  0.000  0.000  0.000  0.150
tot    0.053  0.090  0.078  0.078  0.000  0.000  0.000  0.000  0.000  0.300
 
band     8 # energy   12.52561722 # occ.  0.00000000
 
ion      s     py     pz     px    dxy    dyz    dz2    dxz  x2-y2    tot
    1  0.033  0.023  0.028  0.050  0.000  0.000  0.000  0.000  0.000  0.134
    2  0.033  0.023  0.028  0.050  0.000  0.000  0.000  0.000  0.000  0.134
tot    0.065  0.046  0.056  0.100  0.000  0.000  0.000  0.000  0.000  0.267
 
band     9 # energy   14.92683055 # occ.  0.00000000
 
ion      s     py     pz     px    dxy    dyz    dz2    dxz  x2-y2    tot
    1  0.009  0.035  0.065  0.034  0.000  0.000  0.000  0.000  0.000  0.143
    2  0.009  0.035  0.065  0.034  0.000  0.000  0.000  0.000  0.000  0.143
tot    0.018  0.071  0.130  0.068  0.000  0.000  0.000  0.000  0.000  0.286
 
band    10 # energy   15.87808861 # occ.  0.00000000
 
ion      s     py     pz     px    dxy    dyz    dz2    dxz  x2-y2    tot
    1  0.017  0.076  0.004  0.018  0.000  0.000  0.000  0.000  0.000  0.115
    2  0.017  0.076  0.004  0.018  0.000  0.000  0.000  0.000  0.000  0.115
tot    0.033  0.152  0.007  0.036  0.000  0.000  0.000  0.000  0.000  0.229
 
band    11 # energy   19.19417979 # occ.  0.00000000
 
ion      s     py     pz     px    dxy    dyz    dz2    dxz  x2-y2    tot
    1  0.011  0.002  0.104  0.018  0.000  0.000  0.000  0.000  0.000  0.134
    2  0.012  0.003  0.099  0.017  0.000  0.000  0.000  0.000  0.000  0.131
tot    0.023  0.005  0.203  0.035  0.000  0.000  0.000  0.000  0.000  0.265
 
band    12 # energy   20.71847531 # occ.  0.00000000
 
ion      s     py     pz     px    dxy    dyz    dz2    dxz  x2-y2    tot
    1  0.006  0.058  0.030  0.004  0.000  0.000  0.000  0.000  0.000  0.099
    2  0.012  0.053  0.031  0.009  0.000  0.000  0.000  0.000  0.000  0.106
tot    0.018  0.112  0.061  0.013  0.000  0.000  0.000  0.000  0.000  0.204
 

 k-point   130 :    0.42500000 0.32500000 0.75000000     weight = 0.00555556

band     1 # energy   -2.30401324 # occ.  2.00000000
 
ion      s     py     pz     px    dxy    dyz    dz2    dxz  x2-y2    tot
    1  0.212  0.010  0.023  0.002  0.000  0.000  0.000  0.000  0.000  0.246
    2  0.212  0.010  0.023  0.002  0.000  0.000  0.000  0.000  0.000  0.246
tot    0.424  0.020  0.046  0.003  0.000  0.000  0.000  0.000  0.000  0.493
 
band     2 # energy   -1.43540096 # occ.  2.00000000
 
ion      s     py     pz     px    dxy    dyz    dz2    dxz  x2-y2    tot
    1  0.189  0.010  0.040  0.003  0.000  0.000  0.000  0.000  0.000  0.241
    2  0.189  0.010  0.040  0.003  0.000  0.000  0.000  0.000  0.000  0.241
tot    0.377  0.020  0.080  0.005  0.000  0.000  0.000  0.000  0.000  0.483
 
band     3 # energy    1.60494591 # occ.  2.00000000
 
ion      s     py     pz     px    dxy    dyz    dz2    dxz  x2-y2    tot
    1  0.000  0.052  0.043  0.061  0.000  0.000  0.000  0.000  0.000  0.157
    2  0.000  0.052  0.043  0.061  0.000  0.000  0.000  0.000  0.000  0.157
tot    0.000  0.105  0.087  0.122  0.000  0.000  0.000  0.000  0.000  0.313
 
band     4 # energy    2.93664386 # occ.  2.00000000
 
ion      s     py     pz     px    dxy    dyz    dz2    dxz  x2-y2    tot
    1  0.003  0.082  0.012  0.086  0.000  0.000  0.000  0.000  0.000  0.184
    2  0.003  0.082  0.012  0.086  0.000  0.000  0.000  0.000  0.000  0.184
tot    0.006  0.164  0.025  0.172  0.000  0.000  0.000  0.000  0.000  0.368
 
band     5 # energy    7.79518215 # occ.  0.00000000
 
ion      s     py     pz     px    dxy    dyz    dz2    dxz  x2-y2    tot
    1  0.043  0.008  0.030  0.025  0.000  0.000  0.000  0.000  0.000  0.106
    2  0.043  0.008  0.030  0.025  0.000  0.000  0.000  0.000  0.000  0.106
tot    0.085  0.016  0.060  0.049  0.000  0.000  0.000  0.000  0.000  0.211
 
band     6 # energy   10.02030337 # occ.  0.00000000
 
ion      s     py     pz     px    dxy    dyz    dz2    dxz  x2-y2    tot
    1  0.021  0.025  0.012  0.049  0.000  0.000  0.000  0.000  0.000  0.107
    2  0.021  0.025  0.012  0.049  0.000  0.000  0.000  0.000  0.000  0.107
tot    0.043  0.051  0.024  0.097  0.000  0.000  0.000  0.000  0.000  0.215
 
band     7 # energy   12.29646624 # occ.  0.00000000
 
ion      s     py     pz     px    dxy    dyz    dz2    dxz  x2-y2    tot
    1  0.025  0.045  0.038  0.041  0.000  0.000  0.000  0.000  0.000  0.150
    2  0.025  0.045  0.038  0.041  0.000  0.000  0.000  0.000  0.000  0.150
tot    0.051  0.091  0.077  0.081  0.000  0.000  0.000  0.000  0.000  0.300
 
band     8 # energy   12.63319726 # occ.  0.00000000
 
ion      s     py     pz     px    dxy    dyz    dz2    dxz  x2-y2    tot
    1  0.032  0.023  0.028  0.051  0.000  0.000  0.000  0.000  0.000  0.134
    2  0.032  0.023  0.028  0.051  0.000  0.000  0.000  0.000  0.000  0.134
tot    0.065  0.046  0.055  0.102  0.000  0.000  0.000  0.000  0.000  0.267
 
band     9 # energy   14.84351329 # occ.  0.00000000
 
ion      s     py     pz     px    dxy    dyz    dz2    dxz  x2-y2    tot
    1  0.010  0.035  0.065  0.033  0.000  0.000  0.000  0.000  0.000  0.143
    2  0.010  0.035  0.065  0.033  0.000  0.000  0.000  0.000  0.000  0.143
tot    0.020  0.070  0.131  0.066  0.000  0.000  0.000  0.000  0.000  0.287
 
band    10 # energy   15.77612679 # occ.  0.00000000
 
ion      s     py     pz     px    dxy    dyz    dz2    dxz  x2-y2    tot
    1  0.017  0.075  0.004  0.017  0.000  0.000  0.000  0.000  0.000  0.114
    2  0.017  0.075  0.004  0.017  0.000  0.000  0.000  0.000  0.000  0.114
tot    0.034  0.149  0.009  0.035  0.000  0.000  0.000  0.000  0.000  0.227
 
band    11 # energy   19.28100661 # occ.  0.00000000
 
ion      s     py     pz     px    dxy    dyz    dz2    dxz  x2-y2    tot
    1  0.011  0.003  0.101  0.018  0.000  0.000  0.000  0.000  0.000  0.133
    2  0.011  0.003  0.101  0.018  0.000  0.000  0.000  0.000  0.000  0.134
tot    0.022  0.006  0.203  0.036  0.000  0.000  0.000  0.000  0.000  0.267
 
band    12 # energy   20.46277424 # occ.  0.00000000
 
ion      s     py     pz     px    dxy    dyz    dz2    dxz  x2-y2    tot
    1  0.007  0.084  0.027  0.004  0.000  0.000  0.000  0.000  0.000  0.121
    2  0.010  0.064  0.040  0.007  0.000  0.000  0.000  0.000  0.000  0.121
tot    0.016  0.148  0.066  0.011  0.000  0.000  0.000  0.000  0.000  0.242
 

 k-point   131 :    0.42142857 0.32857143 0.75000000     weight = 0.00555556

band     1 # energy   -2.31679490 # occ.  2.00000000
 
ion      s     py     pz     px    dxy    dyz    dz2    dxz  x2-y2    tot
    1  0.212  0.009  0.023  0.002  0.000  0.000  0.000  0.000  0.000  0.246
    2  0.212  0.009  0.023  0.002  0.000  0.000  0.000  0.000  0.000  0.246
tot    0.424  0.019  0.046  0.004  0.000  0.000  0.000  0.000  0.000  0.493
 
band     2 # energy   -1.42887293 # occ.  2.00000000
 
ion      s     py     pz     px    dxy    dyz    dz2    dxz  x2-y2    tot
    1  0.188  0.010  0.041  0.003  0.000  0.000  0.000  0.000  0.000  0.241
    2  0.188  0.010  0.041  0.003  0.000  0.000  0.000  0.000  0.000  0.241
tot    0.376  0.019  0.082  0.006  0.000  0.000  0.000  0.000  0.000  0.482
 
band     3 # energy    1.59480118 # occ.  2.00000000
 
ion      s     py     pz     px    dxy    dyz    dz2    dxz  x2-y2    tot
    1  0.000  0.053  0.043  0.060  0.000  0.000  0.000  0.000  0.000  0.156
    2  0.000  0.053  0.043  0.060  0.000  0.000  0.000  0.000  0.000  0.156
tot    0.000  0.105  0.087  0.121  0.000  0.000  0.000  0.000  0.000  0.313
 
band     4 # energy    2.99027242 # occ.  2.00000000
 
ion      s     py     pz     px    dxy    dyz    dz2    dxz  x2-y2    tot
    1  0.003  0.084  0.011  0.088  0.000  0.000  0.000  0.000  0.000  0.185
    2  0.003  0.084  0.011  0.088  0.000  0.000  0.000  0.000  0.000  0.185
tot    0.006  0.168  0.022  0.175  0.000  0.000  0.000  0.000  0.000  0.371
 
band     5 # energy    7.70139460 # occ.  0.00000000
 
ion      s     py     pz     px    dxy    dyz    dz2    dxz  x2-y2    tot
    1  0.044  0.007  0.031  0.023  0.000  0.000  0.000  0.000  0.000  0.105
    2  0.044  0.007  0.031  0.023  0.000  0.000  0.000  0.000  0.000  0.105
tot    0.087  0.014  0.062  0.045  0.000  0.000  0.000  0.000  0.000  0.209
 
band     6 # energy   10.01239038 # occ.  0.00000000
 
ion      s     py     pz     px    dxy    dyz    dz2    dxz  x2-y2    tot
    1  0.022  0.026  0.012  0.048  0.000  0.000  0.000  0.000  0.000  0.108
    2  0.022  0.026  0.012  0.048  0.000  0.000  0.000  0.000  0.000  0.108
tot    0.043  0.052  0.024  0.095  0.000  0.000  0.000  0.000  0.000  0.215
 
band     7 # energy   12.38162132 # occ.  0.00000000
 
ion      s     py     pz     px    dxy    dyz    dz2    dxz  x2-y2    tot
    1  0.024  0.046  0.038  0.042  0.000  0.000  0.000  0.000  0.000  0.150
    2  0.024  0.046  0.038  0.042  0.000  0.000  0.000  0.000  0.000  0.150
tot    0.048  0.092  0.075  0.084  0.000  0.000  0.000  0.000  0.000  0.300
 
band     8 # energy   12.74143788 # occ.  0.00000000
 
ion      s     py     pz     px    dxy    dyz    dz2    dxz  x2-y2    tot
    1  0.032  0.023  0.027  0.052  0.000  0.000  0.000  0.000  0.000  0.134
    2  0.032  0.023  0.027  0.052  0.000  0.000  0.000  0.000  0.000  0.134
tot    0.064  0.046  0.054  0.104  0.000  0.000  0.000  0.000  0.000  0.268
 
band     9 # energy   14.75987293 # occ.  0.00000000
 
ion      s     py     pz     px    dxy    dyz    dz2    dxz  x2-y2    tot
    1  0.011  0.034  0.066  0.032  0.000  0.000  0.000  0.000  0.000  0.143
    2  0.011  0.034  0.066  0.032  0.000  0.000  0.000  0.000  0.000  0.143
tot    0.022  0.068  0.132  0.065  0.000  0.000  0.000  0.000  0.000  0.287
 
band    10 # energy   15.67186721 # occ.  0.00000000
 
ion      s     py     pz     px    dxy    dyz    dz2    dxz  x2-y2    tot
    1  0.018  0.073  0.005  0.017  0.000  0.000  0.000  0.000  0.000  0.113
    2  0.018  0.073  0.005  0.017  0.000  0.000  0.000  0.000  0.000  0.113
tot    0.035  0.146  0.011  0.034  0.000  0.000  0.000  0.000  0.000  0.226
 
band    11 # energy   19.37253311 # occ.  0.00000000
 
ion      s     py     pz     px    dxy    dyz    dz2    dxz  x2-y2    tot
    1  0.010  0.004  0.101  0.019  0.000  0.000  0.000  0.000  0.000  0.134
    2  0.010  0.004  0.103  0.019  0.000  0.000  0.000  0.000  0.000  0.136
tot    0.020  0.008  0.203  0.038  0.000  0.000  0.000  0.000  0.000  0.270
 
band    12 # energy   20.59457809 # occ.  0.00000000
 
ion      s     py     pz     px    dxy    dyz    dz2    dxz  x2-y2    tot
    1  0.010  0.060  0.035  0.011  0.000  0.000  0.000  0.000  0.000  0.116
    2  0.007  0.077  0.024  0.006  0.000  0.000  0.000  0.000  0.000  0.115
tot    0.018  0.137  0.059  0.017  0.000  0.000  0.000  0.000  0.000  0.231
 

 k-point   132 :    0.41785714 0.33214286 0.75000000     weight = 0.00555556

band     1 # energy   -2.32862988 # occ.  2.00000000
 
ion      s     py     pz     px    dxy    dyz    dz2    dxz  x2-y2    tot
    1  0.212  0.009  0.023  0.002  0.000  0.000  0.000  0.000  0.000  0.246
    2  0.212  0.009  0.023  0.002  0.000  0.000  0.000  0.000  0.000  0.246
tot    0.425  0.018  0.046  0.004  0.000  0.000  0.000  0.000  0.000  0.493
 
band     2 # energy   -1.42301944 # occ.  2.00000000
 
ion      s     py     pz     px    dxy    dyz    dz2    dxz  x2-y2    tot
    1  0.187  0.009  0.041  0.003  0.000  0.000  0.000  0.000  0.000  0.241
    2  0.187  0.009  0.041  0.003  0.000  0.000  0.000  0.000  0.000  0.241
tot    0.375  0.019  0.083  0.006  0.000  0.000  0.000  0.000  0.000  0.482
 
band     3 # energy    1.58539647 # occ.  2.00000000
 
ion      s     py     pz     px    dxy    dyz    dz2    dxz  x2-y2    tot
    1  0.000  0.053  0.043  0.060  0.000  0.000  0.000  0.000  0.000  0.156
    2  0.000  0.053  0.043  0.060  0.000  0.000  0.000  0.000  0.000  0.156
tot    0.000  0.106  0.087  0.120  0.000  0.000  0.000  0.000  0.000  0.313
 
band     4 # energy    3.04256588 # occ.  2.00000000
 
ion      s     py     pz     px    dxy    dyz    dz2    dxz  x2-y2    tot
    1  0.003  0.086  0.010  0.089  0.000  0.000  0.000  0.000  0.000  0.187
    2  0.003  0.086  0.010  0.089  0.000  0.000  0.000  0.000  0.000  0.187
tot    0.005  0.172  0.019  0.178  0.000  0.000  0.000  0.000  0.000  0.374
 
band     5 # energy    7.61206777 # occ.  0.00000000
 
ion      s     py     pz     px    dxy    dyz    dz2    dxz  x2-y2    tot
    1  0.045  0.006  0.032  0.021  0.000  0.000  0.000  0.000  0.000  0.103
    2  0.045  0.006  0.032  0.021  0.000  0.000  0.000  0.000  0.000  0.103
tot    0.090  0.012  0.064  0.041  0.000  0.000  0.000  0.000  0.000  0.207
 
band     6 # energy   10.00502606 # occ.  0.00000000
 
ion      s     py     pz     px    dxy    dyz    dz2    dxz  x2-y2    tot
    1  0.022  0.027  0.012  0.046  0.000  0.000  0.000  0.000  0.000  0.108
    2  0.022  0.027  0.012  0.046  0.000  0.000  0.000  0.000  0.000  0.108
tot    0.044  0.054  0.025  0.093  0.000  0.000  0.000  0.000  0.000  0.216
 
band     7 # energy   12.46695818 # occ.  0.00000000
 
ion      s     py     pz     px    dxy    dyz    dz2    dxz  x2-y2    tot
    1  0.023  0.047  0.037  0.044  0.000  0.000  0.000  0.000  0.000  0.150
    2  0.023  0.047  0.037  0.044  0.000  0.000  0.000  0.000  0.000  0.150
tot    0.045  0.093  0.074  0.087  0.000  0.000  0.000  0.000  0.000  0.300
 
band     8 # energy   12.85034393 # occ.  0.00000000
 
ion      s     py     pz     px    dxy    dyz    dz2    dxz  x2-y2    tot
    1  0.032  0.023  0.027  0.053  0.000  0.000  0.000  0.000  0.000  0.135
    2  0.032  0.023  0.027  0.053  0.000  0.000  0.000  0.000  0.000  0.135
tot    0.064  0.046  0.053  0.106  0.000  0.000  0.000  0.000  0.000  0.269
 
band     9 # energy   14.67605707 # occ.  0.00000000
 
ion      s     py     pz     px    dxy    dyz    dz2    dxz  x2-y2    tot
    1  0.012  0.033  0.067  0.031  0.000  0.000  0.000  0.000  0.000  0.143
    2  0.012  0.033  0.067  0.031  0.000  0.000  0.000  0.000  0.000  0.143
tot    0.024  0.066  0.134  0.063  0.000  0.000  0.000  0.000  0.000  0.287
 
band    10 # energy   15.56581742 # occ.  0.00000000
 
ion      s     py     pz     px    dxy    dyz    dz2    dxz  x2-y2    tot
    1  0.018  0.072  0.006  0.016  0.000  0.000  0.000  0.000  0.000  0.112
    2  0.018  0.071  0.006  0.016  0.000  0.000  0.000  0.000  0.000  0.112
tot    0.036  0.143  0.012  0.032  0.000  0.000  0.000  0.000  0.000  0.224
 
band    11 # energy   20.12513320 # occ.  0.00000000
 
ion      s     py     pz     px    dxy    dyz    dz2    dxz  x2-y2    tot
    1  0.007  0.014  0.147  0.024  0.000  0.000  0.000  0.000  0.000  0.192
    2  0.022  0.046  0.039  0.007  0.000  0.000  0.000  0.000  0.000  0.115
tot    0.029  0.060  0.187  0.031  0.000  0.000  0.000  0.000  0.000  0.307
 
band    12 # energy   21.41564871 # occ.  0.00000000
 
ion      s     py     pz     px    dxy    dyz    dz2    dxz  x2-y2    tot
    1  0.011  0.001  0.028  0.011  0.000  0.000  0.000  0.000  0.000  0.051
    2  0.005  0.033  0.000  0.014  0.000  0.000  0.000  0.000  0.000  0.052
tot    0.015  0.035  0.029  0.024  0.000  0.000  0.000  0.000  0.000  0.103
 

 k-point   133 :    0.41428571 0.33571429 0.75000000     weight = 0.00555556

band     1 # energy   -2.33952463 # occ.  2.00000000
 
ion      s     py     pz     px    dxy    dyz    dz2    dxz  x2-y2    tot
    1  0.213  0.009  0.023  0.002  0.000  0.000  0.000  0.000  0.000  0.246
    2  0.213  0.009  0.023  0.002  0.000  0.000  0.000  0.000  0.000  0.246
tot    0.425  0.017  0.046  0.004  0.000  0.000  0.000  0.000  0.000  0.493
 
band     2 # energy   -1.41779970 # occ.  2.00000000
 
ion      s     py     pz     px    dxy    dyz    dz2    dxz  x2-y2    tot
    1  0.187  0.009  0.042  0.003  0.000  0.000  0.000  0.000  0.000  0.240
    2  0.187  0.009  0.042  0.003  0.000  0.000  0.000  0.000  0.000  0.240
tot    0.373  0.018  0.083  0.006  0.000  0.000  0.000  0.000  0.000  0.481
 
band     3 # energy    1.57673007 # occ.  2.00000000
 
ion      s     py     pz     px    dxy    dyz    dz2    dxz  x2-y2    tot
    1  0.000  0.053  0.043  0.060  0.000  0.000  0.000  0.000  0.000  0.156
    2  0.000  0.053  0.043  0.060  0.000  0.000  0.000  0.000  0.000  0.156
tot    0.000  0.106  0.087  0.120  0.000  0.000  0.000  0.000  0.000  0.313
 
band     4 # energy    3.09311388 # occ.  2.00000000
 
ion      s     py     pz     px    dxy    dyz    dz2    dxz  x2-y2    tot
    1  0.002  0.088  0.008  0.090  0.000  0.000  0.000  0.000  0.000  0.189
    2  0.002  0.088  0.008  0.090  0.000  0.000  0.000  0.000  0.000  0.189
tot    0.005  0.176  0.017  0.180  0.000  0.000  0.000  0.000  0.000  0.378
 
band     5 # energy    7.52754528 # occ.  0.00000000
 
ion      s     py     pz     px    dxy    dyz    dz2    dxz  x2-y2    tot
    1  0.046  0.005  0.033  0.019  0.000  0.000  0.000  0.000  0.000  0.102
    2  0.046  0.005  0.033  0.019  0.000  0.000  0.000  0.000  0.000  0.102
tot    0.092  0.011  0.065  0.037  0.000  0.000  0.000  0.000  0.000  0.205
 
band     6 # energy    9.99810235 # occ.  0.00000000
 
ion      s     py     pz     px    dxy    dyz    dz2    dxz  x2-y2    tot
    1  0.022  0.028  0.013  0.045  0.000  0.000  0.000  0.000  0.000  0.108
    2  0.022  0.028  0.013  0.045  0.000  0.000  0.000  0.000  0.000  0.108
tot    0.045  0.056  0.025  0.091  0.000  0.000  0.000  0.000  0.000  0.216
 
band     7 # energy   12.55227002 # occ.  0.00000000
 
ion      s     py     pz     px    dxy    dyz    dz2    dxz  x2-y2    tot
    1  0.021  0.048  0.036  0.045  0.000  0.000  0.000  0.000  0.000  0.150
    2  0.021  0.048  0.036  0.045  0.000  0.000  0.000  0.000  0.000  0.150
tot    0.043  0.095  0.072  0.090  0.000  0.000  0.000  0.000  0.000  0.300
 
band     8 # energy   12.95974676 # occ.  0.00000000
 
ion      s     py     pz     px    dxy    dyz    dz2    dxz  x2-y2    tot
    1  0.032  0.023  0.026  0.054  0.000  0.000  0.000  0.000  0.000  0.135
    2  0.032  0.023  0.026  0.054  0.000  0.000  0.000  0.000  0.000  0.135
tot    0.063  0.046  0.053  0.109  0.000  0.000  0.000  0.000  0.000  0.270
 
band     9 # energy   14.59205709 # occ.  0.00000000
 
ion      s     py     pz     px    dxy    dyz    dz2    dxz  x2-y2    tot
    1  0.013  0.032  0.068  0.030  0.000  0.000  0.000  0.000  0.000  0.143
    2  0.013  0.032  0.068  0.030  0.000  0.000  0.000  0.000  0.000  0.143
tot    0.026  0.064  0.136  0.061  0.000  0.000  0.000  0.000  0.000  0.287
 
band    10 # energy   15.45804259 # occ.  0.00000000
 
ion      s     py     pz     px    dxy    dyz    dz2    dxz  x2-y2    tot
    1  0.018  0.070  0.007  0.016  0.000  0.000  0.000  0.000  0.000  0.111
    2  0.018  0.070  0.007  0.016  0.000  0.000  0.000  0.000  0.000  0.111
tot    0.037  0.140  0.014  0.031  0.000  0.000  0.000  0.000  0.000  0.221
 
band    11 # energy   19.57087602 # occ.  0.00000000
 
ion      s     py     pz     px    dxy    dyz    dz2    dxz  x2-y2    tot
    1  0.008  0.006  0.105  0.021  0.000  0.000  0.000  0.000  0.000  0.141
    2  0.009  0.008  0.101  0.020  0.000  0.000  0.000  0.000  0.000  0.138
tot    0.018  0.014  0.206  0.042  0.000  0.000  0.000  0.000  0.000  0.279
 
band    12 # energy   22.13404708 # occ.  0.00000000
 
ion      s     py     pz     px    dxy    dyz    dz2    dxz  x2-y2    tot
    1  0.006  0.004  0.002  0.028  0.000  0.000  0.000  0.000  0.000  0.040
    2  0.019  0.005  0.052  0.009  0.000  0.000  0.000  0.000  0.000  0.086
tot    0.025  0.009  0.054  0.037  0.000  0.000  0.000  0.000  0.000  0.125
 

 k-point   134 :    0.41071429 0.33928571 0.75000000     weight = 0.00555556

band     1 # energy   -2.34947167 # occ.  2.00000000
 
ion      s     py     pz     px    dxy    dyz    dz2    dxz  x2-y2    tot
    1  0.213  0.008  0.023  0.002  0.000  0.000  0.000  0.000  0.000  0.246
    2  0.213  0.008  0.023  0.002  0.000  0.000  0.000  0.000  0.000  0.246
tot    0.425  0.017  0.046  0.005  0.000  0.000  0.000  0.000  0.000  0.493
 
band     2 # energy   -1.41316909 # occ.  2.00000000
 
ion      s     py     pz     px    dxy    dyz    dz2    dxz  x2-y2    tot
    1  0.186  0.009  0.042  0.003  0.000  0.000  0.000  0.000  0.000  0.240
    2  0.186  0.009  0.042  0.003  0.000  0.000  0.000  0.000  0.000  0.240
tot    0.372  0.017  0.084  0.007  0.000  0.000  0.000  0.000  0.000  0.480
 
band     3 # energy    1.56881043 # occ.  2.00000000
 
ion      s     py     pz     px    dxy    dyz    dz2    dxz  x2-y2    tot
    1  0.000  0.053  0.043  0.059  0.000  0.000  0.000  0.000  0.000  0.156
    2  0.000  0.053  0.043  0.059  0.000  0.000  0.000  0.000  0.000  0.156
tot    0.000  0.107  0.087  0.119  0.000  0.000  0.000  0.000  0.000  0.312
 
band     4 # energy    3.14149917 # occ.  2.00000000
 
ion      s     py     pz     px    dxy    dyz    dz2    dxz  x2-y2    tot
    1  0.002  0.090  0.007  0.091  0.000  0.000  0.000  0.000  0.000  0.190
    2  0.002  0.090  0.007  0.091  0.000  0.000  0.000  0.000  0.000  0.190
tot    0.004  0.179  0.014  0.183  0.000  0.000  0.000  0.000  0.000  0.381
 
band     5 # energy    7.44825271 # occ.  0.00000000
 
ion      s     py     pz     px    dxy    dyz    dz2    dxz  x2-y2    tot
    1  0.047  0.004  0.034  0.017  0.000  0.000  0.000  0.000  0.000  0.101
    2  0.047  0.004  0.034  0.017  0.000  0.000  0.000  0.000  0.000  0.101
tot    0.094  0.009  0.067  0.033  0.000  0.000  0.000  0.000  0.000  0.202
 
band     6 # energy    9.99174082 # occ.  0.00000000
 
ion      s     py     pz     px    dxy    dyz    dz2    dxz  x2-y2    tot
    1  0.023  0.029  0.013  0.045  0.000  0.000  0.000  0.000  0.000  0.108
    2  0.023  0.029  0.013  0.045  0.000  0.000  0.000  0.000  0.000  0.108
tot    0.045  0.057  0.025  0.089  0.000  0.000  0.000  0.000  0.000  0.217
 
band     7 # energy   12.63744597 # occ.  0.00000000
 
ion      s     py     pz     px    dxy    dyz    dz2    dxz  x2-y2    tot
    1  0.020  0.049  0.035  0.047  0.000  0.000  0.000  0.000  0.000  0.150
    2  0.020  0.049  0.035  0.047  0.000  0.000  0.000  0.000  0.000  0.150
tot    0.040  0.097  0.070  0.094  0.000  0.000  0.000  0.000  0.000  0.300
 
band     8 # energy   13.06964053 # occ.  0.00000000
 
ion      s     py     pz     px    dxy    dyz    dz2    dxz  x2-y2    tot
    1  0.032  0.023  0.026  0.056  0.000  0.000  0.000  0.000  0.000  0.136
    2  0.032  0.023  0.026  0.056  0.000  0.000  0.000  0.000  0.000  0.136
tot    0.063  0.046  0.052  0.111  0.000  0.000  0.000  0.000  0.000  0.272
 
band     9 # energy   14.50816691 # occ.  0.00000000
 
ion      s     py     pz     px    dxy    dyz    dz2    dxz  x2-y2    tot
    1  0.014  0.031  0.069  0.029  0.000  0.000  0.000  0.000  0.000  0.143
    2  0.014  0.031  0.069  0.029  0.000  0.000  0.000  0.000  0.000  0.143
tot    0.028  0.062  0.138  0.059  0.000  0.000  0.000  0.000  0.000  0.286
 
band    10 # energy   15.34902722 # occ.  0.00000000
 
ion      s     py     pz     px    dxy    dyz    dz2    dxz  x2-y2    tot
    1  0.019  0.068  0.008  0.015  0.000  0.000  0.000  0.000  0.000  0.109
    2  0.019  0.068  0.008  0.015  0.000  0.000  0.000  0.000  0.000  0.109
tot    0.037  0.136  0.016  0.030  0.000  0.000  0.000  0.000  0.000  0.219
 
band    11 # energy   19.67769370 # occ.  0.00000000
 
ion      s     py     pz     px    dxy    dyz    dz2    dxz  x2-y2    tot
    1  0.007  0.004  0.105  0.022  0.000  0.000  0.000  0.000  0.000  0.139
    2  0.009  0.011  0.089  0.018  0.000  0.000  0.000  0.000  0.000  0.128
tot    0.017  0.016  0.195  0.040  0.000  0.000  0.000  0.000  0.000  0.267
 
band    12 # energy   21.84793752 # occ.  0.00000000
 
ion      s     py     pz     px    dxy    dyz    dz2    dxz  x2-y2    tot
    1  0.003  0.013  0.017  0.010  0.000  0.000  0.000  0.000  0.000  0.043
    2  0.027  0.007  0.027  0.001  0.000  0.000  0.000  0.000  0.000  0.063
tot    0.030  0.020  0.044  0.012  0.000  0.000  0.000  0.000  0.000  0.106
 

 k-point   135 :    0.40714286 0.34285714 0.75000000     weight = 0.00555556

band     1 # energy   -2.35847280 # occ.  2.00000000
 
ion      s     py     pz     px    dxy    dyz    dz2    dxz  x2-y2    tot
    1  0.213  0.008  0.023  0.003  0.000  0.000  0.000  0.000  0.000  0.246
    2  0.213  0.008  0.023  0.003  0.000  0.000  0.000  0.000  0.000  0.246
tot    0.426  0.016  0.046  0.005  0.000  0.000  0.000  0.000  0.000  0.492
 
band     2 # energy   -1.40909259 # occ.  2.00000000
 
ion      s     py     pz     px    dxy    dyz    dz2    dxz  x2-y2    tot
    1  0.186  0.008  0.042  0.004  0.000  0.000  0.000  0.000  0.000  0.240
    2  0.186  0.008  0.042  0.004  0.000  0.000  0.000  0.000  0.000  0.240
tot    0.371  0.017  0.085  0.007  0.000  0.000  0.000  0.000  0.000  0.480
 
band     3 # energy    1.56163781 # occ.  2.00000000
 
ion      s     py     pz     px    dxy    dyz    dz2    dxz  x2-y2    tot
    1  0.000  0.054  0.043  0.059  0.000  0.000  0.000  0.000  0.000  0.156
    2  0.000  0.054  0.043  0.059  0.000  0.000  0.000  0.000  0.000  0.156
tot    0.000  0.107  0.087  0.118  0.000  0.000  0.000  0.000  0.000  0.312
 
band     4 # energy    3.18727372 # occ.  2.00000000
 
ion      s     py     pz     px    dxy    dyz    dz2    dxz  x2-y2    tot
    1  0.002  0.091  0.006  0.093  0.000  0.000  0.000  0.000  0.000  0.192
    2  0.002  0.091  0.006  0.093  0.000  0.000  0.000  0.000  0.000  0.192
tot    0.004  0.183  0.012  0.186  0.000  0.000  0.000  0.000  0.000  0.384
 
band     5 # energy    7.37460111 # occ.  0.00000000
 
ion      s     py     pz     px    dxy    dyz    dz2    dxz  x2-y2    tot
    1  0.048  0.003  0.034  0.015  0.000  0.000  0.000  0.000  0.000  0.100
    2  0.048  0.003  0.034  0.015  0.000  0.000  0.000  0.000  0.000  0.100
tot    0.095  0.007  0.069  0.029  0.000  0.000  0.000  0.000  0.000  0.200
 
band     6 # energy    9.98593729 # occ.  0.00000000
 
ion      s     py     pz     px    dxy    dyz    dz2    dxz  x2-y2    tot
    1  0.023  0.029  0.013  0.044  0.000  0.000  0.000  0.000  0.000  0.109
    2  0.023  0.029  0.013  0.044  0.000  0.000  0.000  0.000  0.000  0.109
tot    0.046  0.059  0.026  0.087  0.000  0.000  0.000  0.000  0.000  0.217
 
band     7 # energy   12.79546416 # occ.  0.00000000
 
ion      s     py     pz     px    dxy    dyz    dz2    dxz  x2-y2    tot
    1  0.003  0.071  0.052  0.012  0.000  0.000  0.000  0.000  0.000  0.138
    2  0.038  0.021  0.010  0.089  0.000  0.000  0.000  0.000  0.000  0.158
tot    0.041  0.093  0.063  0.101  0.000  0.000  0.000  0.000  0.000  0.297
 
band     8 # energy   14.40238143 # occ.  0.00000000
 
ion      s     py     pz     px    dxy    dyz    dz2    dxz  x2-y2    tot
    1  0.009  0.026  0.076  0.041  0.000  0.000  0.000  0.000  0.000  0.152
    2  0.019  0.039  0.056  0.021  0.000  0.000  0.000  0.000  0.000  0.135
tot    0.029  0.064  0.132  0.062  0.000  0.000  0.000  0.000  0.000  0.287
 
band     9 # energy   15.23372196 # occ.  0.00000000
 
ion      s     py     pz     px    dxy    dyz    dz2    dxz  x2-y2    tot
    1  0.021  0.067  0.010  0.015  0.000  0.000  0.000  0.000  0.000  0.113
    2  0.020  0.068  0.011  0.015  0.000  0.000  0.000  0.000  0.000  0.114
tot    0.041  0.135  0.021  0.030  0.000  0.000  0.000  0.000  0.000  0.227
 
band    10 # energy   21.50967179 # occ.  0.00000000
 
ion      s     py     pz     px    dxy    dyz    dz2    dxz  x2-y2    tot
    1  0.008  0.044  0.063  0.023  0.000  0.000  0.000  0.000  0.000  0.138
    2  0.006  0.013  0.155  0.016  0.000  0.000  0.000  0.000  0.000  0.191
tot    0.014  0.057  0.218  0.040  0.000  0.000  0.000  0.000  0.000  0.329
 
band    11 # energy   21.99933525 # occ.  0.00000000
 
ion      s     py     pz     px    dxy    dyz    dz2    dxz  x2-y2    tot
    1  0.038  0.017  0.025  0.005  0.000  0.000  0.000  0.000  0.000  0.084
    2  0.003  0.020  0.026  0.002  0.000  0.000  0.000  0.000  0.000  0.051
tot    0.041  0.037  0.051  0.006  0.000  0.000  0.000  0.000  0.000  0.135
 
band    12 # energy   25.92406998 # occ.  0.00000000
 
ion      s     py     pz     px    dxy    dyz    dz2    dxz  x2-y2    tot
    1  0.045  0.004  0.001  0.013  0.000  0.000  0.000  0.000  0.000  0.063
    2  0.011  0.001  0.004  0.029  0.000  0.000  0.000  0.000  0.000  0.046
tot    0.057  0.005  0.005  0.042  0.000  0.000  0.000  0.000  0.000  0.109
 

 k-point   136 :    0.40357143 0.34642857 0.75000000     weight = 0.00555556

band     1 # energy   -2.36652764 # occ.  2.00000000
 
ion      s     py     pz     px    dxy    dyz    dz2    dxz  x2-y2    tot
    1  0.213  0.008  0.023  0.003  0.000  0.000  0.000  0.000  0.000  0.246
    2  0.213  0.008  0.023  0.003  0.000  0.000  0.000  0.000  0.000  0.246
tot    0.426  0.015  0.046  0.006  0.000  0.000  0.000  0.000  0.000  0.492
 
band     2 # energy   -1.40553854 # occ.  2.00000000
 
ion      s     py     pz     px    dxy    dyz    dz2    dxz  x2-y2    tot
    1  0.185  0.008  0.043  0.004  0.000  0.000  0.000  0.000  0.000  0.240
    2  0.185  0.008  0.043  0.004  0.000  0.000  0.000  0.000  0.000  0.240
tot    0.370  0.016  0.086  0.008  0.000  0.000  0.000  0.000  0.000  0.479
 
band     3 # energy    1.55521441 # occ.  2.00000000
 
ion      s     py     pz     px    dxy    dyz    dz2    dxz  x2-y2    tot
    1  0.000  0.054  0.043  0.059  0.000  0.000  0.000  0.000  0.000  0.156
    2  0.000  0.054  0.043  0.059  0.000  0.000  0.000  0.000  0.000  0.156
tot    0.000  0.108  0.086  0.118  0.000  0.000  0.000  0.000  0.000  0.312
 
band     4 # energy    3.22997085 # occ.  2.00000000
 
ion      s     py     pz     px    dxy    dyz    dz2    dxz  x2-y2    tot
    1  0.002  0.093  0.005  0.094  0.000  0.000  0.000  0.000  0.000  0.194
    2  0.002  0.093  0.005  0.094  0.000  0.000  0.000  0.000  0.000  0.194
tot    0.003  0.186  0.010  0.188  0.000  0.000  0.000  0.000  0.000  0.387
 
band     5 # energy    7.30702571 # occ.  0.00000000
 
ion      s     py     pz     px    dxy    dyz    dz2    dxz  x2-y2    tot
    1  0.049  0.003  0.035  0.013  0.000  0.000  0.000  0.000  0.000  0.099
    2  0.049  0.003  0.035  0.013  0.000  0.000  0.000  0.000  0.000  0.099
tot    0.097  0.005  0.070  0.025  0.000  0.000  0.000  0.000  0.000  0.198
 
band     6 # energy    9.98070840 # occ.  0.00000000
 
ion      s     py     pz     px    dxy    dyz    dz2    dxz  x2-y2    tot
    1  0.023  0.030  0.013  0.043  0.000  0.000  0.000  0.000  0.000  0.109
    2  0.023  0.030  0.013  0.043  0.000  0.000  0.000  0.000  0.000  0.109
tot    0.046  0.060  0.026  0.085  0.000  0.000  0.000  0.000  0.000  0.217
 
band     7 # energy   12.87058439 # occ.  0.00000000
 
ion      s     py     pz     px    dxy    dyz    dz2    dxz  x2-y2    tot
    1  0.028  0.034  0.019  0.074  0.000  0.000  0.000  0.000  0.000  0.155
    2  0.010  0.062  0.042  0.030  0.000  0.000  0.000  0.000  0.000  0.144
tot    0.038  0.096  0.061  0.104  0.000  0.000  0.000  0.000  0.000  0.299
 
band     8 # energy   14.33618525 # occ.  0.00000000
 
ion      s     py     pz     px    dxy    dyz    dz2    dxz  x2-y2    tot
    1  0.016  0.029  0.070  0.028  0.000  0.000  0.000  0.000  0.000  0.143
    2  0.016  0.029  0.071  0.028  0.000  0.000  0.000  0.000  0.000  0.143
tot    0.032  0.059  0.141  0.055  0.000  0.000  0.000  0.000  0.000  0.286
 
band     9 # energy   15.12642126 # occ.  0.00000000
 
ion      s     py     pz     px    dxy    dyz    dz2    dxz  x2-y2    tot
    1  0.019  0.066  0.011  0.014  0.000  0.000  0.000  0.000  0.000  0.110
    2  0.020  0.065  0.009  0.015  0.000  0.000  0.000  0.000  0.000  0.109
tot    0.039  0.131  0.020  0.029  0.000  0.000  0.000  0.000  0.000  0.219
 
band    10 # energy   20.13852255 # occ.  0.00000000
 
ion      s     py     pz     px    dxy    dyz    dz2    dxz  x2-y2    tot
    1  0.016  0.025  0.105  0.010  0.000  0.000  0.000  0.000  0.000  0.156
    2  0.007  0.010  0.100  0.035  0.000  0.000  0.000  0.000  0.000  0.153
tot    0.023  0.036  0.206  0.045  0.000  0.000  0.000  0.000  0.000  0.309
 
band    11 # energy   21.22626919 # occ.  0.00000000
 
ion      s     py     pz     px    dxy    dyz    dz2    dxz  x2-y2    tot
    1  0.004  0.003  0.067  0.021  0.000  0.000  0.000  0.000  0.000  0.096
    2  0.000  0.061  0.015  0.005  0.000  0.000  0.000  0.000  0.000  0.081
tot    0.004  0.064  0.083  0.025  0.000  0.000  0.000  0.000  0.000  0.177
 
band    12 # energy   21.95858386 # occ.  0.00000000
 
ion      s     py     pz     px    dxy    dyz    dz2    dxz  x2-y2    tot
    1  0.014  0.019  0.006  0.025  0.000  0.000  0.000  0.000  0.000  0.064
    2  0.008  0.009  0.089  0.003  0.000  0.000  0.000  0.000  0.000  0.110
tot    0.022  0.028  0.095  0.028  0.000  0.000  0.000  0.000  0.000  0.174
 

 k-point   137 :    0.40000000 0.35000000 0.75000000     weight = 0.00555556

band     1 # energy   -2.37363590 # occ.  2.00000000
 
ion      s     py     pz     px    dxy    dyz    dz2    dxz  x2-y2    tot
    1  0.213  0.007  0.023  0.003  0.000  0.000  0.000  0.000  0.000  0.246
    2  0.213  0.007  0.023  0.003  0.000  0.000  0.000  0.000  0.000  0.246
tot    0.426  0.014  0.046  0.006  0.000  0.000  0.000  0.000  0.000  0.492
 
band     2 # energy   -1.40247516 # occ.  2.00000000
 
ion      s     py     pz     px    dxy    dyz    dz2    dxz  x2-y2    tot
    1  0.185  0.008  0.043  0.004  0.000  0.000  0.000  0.000  0.000  0.240
    2  0.185  0.008  0.043  0.004  0.000  0.000  0.000  0.000  0.000  0.240
tot    0.369  0.015  0.086  0.008  0.000  0.000  0.000  0.000  0.000  0.479
 
band     3 # energy    1.54954215 # occ.  2.00000000
 
ion      s     py     pz     px    dxy    dyz    dz2    dxz  x2-y2    tot
    1  0.000  0.054  0.043  0.058  0.000  0.000  0.000  0.000  0.000  0.156
    2  0.000  0.054  0.043  0.058  0.000  0.000  0.000  0.000  0.000  0.156
tot    0.000  0.109  0.086  0.117  0.000  0.000  0.000  0.000  0.000  0.312
 
band     4 # energy    3.26912225 # occ.  2.00000000
 
ion      s     py     pz     px    dxy    dyz    dz2    dxz  x2-y2    tot
    1  0.001  0.095  0.004  0.095  0.000  0.000  0.000  0.000  0.000  0.195
    2  0.001  0.095  0.004  0.095  0.000  0.000  0.000  0.000  0.000  0.195
tot    0.003  0.189  0.008  0.191  0.000  0.000  0.000  0.000  0.000  0.390
 
band     5 # energy    7.24588974 # occ.  0.00000000
 
ion      s     py     pz     px    dxy    dyz    dz2    dxz  x2-y2    tot
    1  0.049  0.002  0.036  0.011  0.000  0.000  0.000  0.000  0.000  0.098
    2  0.049  0.002  0.036  0.011  0.000  0.000  0.000  0.000  0.000  0.098
tot    0.099  0.003  0.072  0.021  0.000  0.000  0.000  0.000  0.000  0.195
 
band     6 # energy    9.97606677 # occ.  0.00000000
 
ion      s     py     pz     px    dxy    dyz    dz2    dxz  x2-y2    tot
    1  0.023  0.031  0.013  0.042  0.000  0.000  0.000  0.000  0.000  0.109
    2  0.023  0.031  0.013  0.042  0.000  0.000  0.000  0.000  0.000  0.109
tot    0.046  0.062  0.026  0.084  0.000  0.000  0.000  0.000  0.000  0.218
 
band     7 # energy   12.89570426 # occ.  0.00000000
 
ion      s     py     pz     px    dxy    dyz    dz2    dxz  x2-y2    tot
    1  0.015  0.053  0.030  0.052  0.000  0.000  0.000  0.000  0.000  0.151
    2  0.016  0.052  0.030  0.053  0.000  0.000  0.000  0.000  0.000  0.151
tot    0.031  0.105  0.060  0.106  0.000  0.000  0.000  0.000  0.000  0.302
 
band     8 # energy   14.25420997 # occ.  0.00000000
 
ion      s     py     pz     px    dxy    dyz    dz2    dxz  x2-y2    tot
    1  0.016  0.024  0.077  0.027  0.000  0.000  0.000  0.000  0.000  0.144
    2  0.020  0.028  0.071  0.021  0.000  0.000  0.000  0.000  0.000  0.141
tot    0.036  0.052  0.148  0.049  0.000  0.000  0.000  0.000  0.000  0.285
 
band     9 # energy   15.00328326 # occ.  0.00000000
 
ion      s     py     pz     px    dxy    dyz    dz2    dxz  x2-y2    tot
    1  0.024  0.069  0.013  0.018  0.000  0.000  0.000  0.000  0.000  0.124
    2  0.024  0.068  0.015  0.019  0.000  0.000  0.000  0.000  0.000  0.125
tot    0.048  0.138  0.028  0.036  0.000  0.000  0.000  0.000  0.000  0.250
 
band    10 # energy   20.20082584 # occ.  0.00000000
 
ion      s     py     pz     px    dxy    dyz    dz2    dxz  x2-y2    tot
    1  0.002  0.010  0.064  0.011  0.000  0.000  0.000  0.000  0.000  0.087
    2  0.003  0.007  0.046  0.024  0.000  0.000  0.000  0.000  0.000  0.080
tot    0.006  0.016  0.110  0.035  0.000  0.000  0.000  0.000  0.000  0.167
 
band    11 # energy   21.24464081 # occ.  0.00000000
 
ion      s     py     pz     px    dxy    dyz    dz2    dxz  x2-y2    tot
    1  0.003  0.021  0.046  0.021  0.000  0.000  0.000  0.000  0.000  0.090
    2  0.005  0.042  0.016  0.009  0.000  0.000  0.000  0.000  0.000  0.073
tot    0.008  0.063  0.062  0.030  0.000  0.000  0.000  0.000  0.000  0.163
 
band    12 # energy   21.82674880 # occ.  0.00000000
 
ion      s     py     pz     px    dxy    dyz    dz2    dxz  x2-y2    tot
    1  0.025  0.017  0.036  0.003  0.000  0.000  0.000  0.000  0.000  0.081
    2  0.005  0.013  0.018  0.028  0.000  0.000  0.000  0.000  0.000  0.064
tot    0.030  0.030  0.054  0.031  0.000  0.000  0.000  0.000  0.000  0.145
 

 k-point   138 :    0.39642857 0.35357143 0.75000000     weight = 0.00555556

band     1 # energy   -2.37979700 # occ.  2.00000000
 
ion      s     py     pz     px    dxy    dyz    dz2    dxz  x2-y2    tot
    1  0.213  0.007  0.023  0.003  0.000  0.000  0.000  0.000  0.000  0.246
    2  0.213  0.007  0.023  0.003  0.000  0.000  0.000  0.000  0.000  0.246
tot    0.426  0.014  0.046  0.007  0.000  0.000  0.000  0.000  0.000  0.492
 
band     2 # energy   -1.39987483 # occ.  2.00000000
 
ion      s     py     pz     px    dxy    dyz    dz2    dxz  x2-y2    tot
    1  0.184  0.007  0.043  0.004  0.000  0.000  0.000  0.000  0.000  0.239
    2  0.184  0.007  0.043  0.004  0.000  0.000  0.000  0.000  0.000  0.239
tot    0.369  0.015  0.087  0.009  0.000  0.000  0.000  0.000  0.000  0.479
 
band     3 # energy    1.54462283 # occ.  2.00000000
 
ion      s     py     pz     px    dxy    dyz    dz2    dxz  x2-y2    tot
    1  0.000  0.055  0.043  0.058  0.000  0.000  0.000  0.000  0.000  0.156
    2  0.000  0.055  0.043  0.058  0.000  0.000  0.000  0.000  0.000  0.156
tot    0.000  0.109  0.086  0.116  0.000  0.000  0.000  0.000  0.000  0.312
 
band     4 # energy    3.30425910 # occ.  2.00000000
 
ion      s     py     pz     px    dxy    dyz    dz2    dxz  x2-y2    tot
    1  0.001  0.096  0.003  0.097  0.000  0.000  0.000  0.000  0.000  0.196
    2  0.001  0.096  0.003  0.097  0.000  0.000  0.000  0.000  0.000  0.196
tot    0.002  0.192  0.006  0.193  0.000  0.000  0.000  0.000  0.000  0.393
 
band     5 # energy    7.19181669 # occ.  0.00000000
 
ion      s     py     pz     px    dxy    dyz    dz2    dxz  x2-y2    tot
    1  0.050  0.001  0.037  0.009  0.000  0.000  0.000  0.000  0.000  0.097
    2  0.050  0.001  0.037  0.009  0.000  0.000  0.000  0.000  0.000  0.097
tot    0.100  0.002  0.073  0.017  0.000  0.000  0.000  0.000  0.000  0.193
 
band     6 # energy    9.97202370 # occ.  0.00000000
 
ion      s     py     pz     px    dxy    dyz    dz2    dxz  x2-y2    tot
    1  0.023  0.032  0.013  0.041  0.000  0.000  0.000  0.000  0.000  0.109
    2  0.023  0.032  0.013  0.041  0.000  0.000  0.000  0.000  0.000  0.109
tot    0.047  0.063  0.026  0.082  0.000  0.000  0.000  0.000  0.000  0.218
 
band     7 # energy   12.97091312 # occ.  0.00000000
 
ion      s     py     pz     px    dxy    dyz    dz2    dxz  x2-y2    tot
    1  0.014  0.055  0.027  0.056  0.000  0.000  0.000  0.000  0.000  0.152
    2  0.014  0.055  0.027  0.056  0.000  0.000  0.000  0.000  0.000  0.152
tot    0.027  0.111  0.055  0.111  0.000  0.000  0.000  0.000  0.000  0.304
 
band     8 # energy   13.51226135 # occ.  0.00000000
 
ion      s     py     pz     px    dxy    dyz    dz2    dxz  x2-y2    tot
    1  0.032  0.025  0.025  0.061  0.000  0.000  0.000  0.000  0.000  0.143
    2  0.032  0.025  0.025  0.061  0.000  0.000  0.000  0.000  0.000  0.143
tot    0.064  0.050  0.050  0.123  0.000  0.000  0.000  0.000  0.000  0.286
 
band     9 # energy   14.17875825 # occ.  0.00000000
 
ion      s     py     pz     px    dxy    dyz    dz2    dxz  x2-y2    tot
    1  0.019  0.024  0.076  0.022  0.000  0.000  0.000  0.000  0.000  0.142
    2  0.019  0.024  0.076  0.022  0.000  0.000  0.000  0.000  0.000  0.142
tot    0.039  0.048  0.153  0.044  0.000  0.000  0.000  0.000  0.000  0.284
 
band    10 # energy   14.90565230 # occ.  0.00000000
 
ion      s     py     pz     px    dxy    dyz    dz2    dxz  x2-y2    tot
    1  0.018  0.061  0.010  0.012  0.000  0.000  0.000  0.000  0.000  0.101
    2  0.018  0.061  0.010  0.012  0.000  0.000  0.000  0.000  0.000  0.101
tot    0.037  0.121  0.020  0.024  0.000  0.000  0.000  0.000  0.000  0.202
 
band    11 # energy   21.19784297 # occ.  0.00000000
 
ion      s     py     pz     px    dxy    dyz    dz2    dxz  x2-y2    tot
    1  0.002  0.014  0.041  0.001  0.000  0.000  0.000  0.000  0.000  0.058
    2  0.005  0.026  0.008  0.017  0.000  0.000  0.000  0.000  0.000  0.056
tot    0.007  0.041  0.048  0.018  0.000  0.000  0.000  0.000  0.000  0.114
 
band    12 # energy   27.28019597 # occ.  0.00000000
 
ion      s     py     pz     px    dxy    dyz    dz2    dxz  x2-y2    tot
    1  0.034  0.002  0.003  0.017  0.000  0.000  0.000  0.000  0.000  0.057
    2  0.002  0.011  0.012  0.004  0.000  0.000  0.000  0.000  0.000  0.028
tot    0.036  0.014  0.015  0.021  0.000  0.000  0.000  0.000  0.000  0.085
 

 k-point   139 :    0.39285714 0.35714286 0.75000000     weight = 0.00555556

band     1 # energy   -2.38501074 # occ.  2.00000000
 
ion      s     py     pz     px    dxy    dyz    dz2    dxz  x2-y2    tot
    1  0.213  0.006  0.023  0.004  0.000  0.000  0.000  0.000  0.000  0.246
    2  0.213  0.006  0.023  0.004  0.000  0.000  0.000  0.000  0.000  0.246
tot    0.426  0.013  0.046  0.007  0.000  0.000  0.000  0.000  0.000  0.492
 
band     2 # energy   -1.39771424 # occ.  2.00000000
 
ion      s     py     pz     px    dxy    dyz    dz2    dxz  x2-y2    tot
    1  0.184  0.007  0.044  0.004  0.000  0.000  0.000  0.000  0.000  0.239
    2  0.184  0.007  0.044  0.004  0.000  0.000  0.000  0.000  0.000  0.239
tot    0.368  0.014  0.087  0.009  0.000  0.000  0.000  0.000  0.000  0.478
 
band     3 # energy    1.54045791 # occ.  2.00000000
 
ion      s     py     pz     px    dxy    dyz    dz2    dxz  x2-y2    tot
    1  0.000  0.055  0.043  0.058  0.000  0.000  0.000  0.000  0.000  0.156
    2  0.000  0.055  0.043  0.058  0.000  0.000  0.000  0.000  0.000  0.156
tot    0.000  0.110  0.086  0.116  0.000  0.000  0.000  0.000  0.000  0.312
 
band     4 # energy    3.33492488 # occ.  2.00000000
 
ion      s     py     pz     px    dxy    dyz    dz2    dxz  x2-y2    tot
    1  0.001  0.097  0.002  0.098  0.000  0.000  0.000  0.000  0.000  0.198
    2  0.001  0.097  0.002  0.098  0.000  0.000  0.000  0.000  0.000  0.198
tot    0.002  0.194  0.004  0.195  0.000  0.000  0.000  0.000  0.000  0.395
 
band     5 # energy    7.14515938 # occ.  0.00000000
 
ion      s     py     pz     px    dxy    dyz    dz2    dxz  x2-y2    tot
    1  0.051  0.001  0.037  0.007  0.000  0.000  0.000  0.000  0.000  0.096
    2  0.051  0.001  0.037  0.007  0.000  0.000  0.000  0.000  0.000  0.096
tot    0.102  0.001  0.075  0.014  0.000  0.000  0.000  0.000  0.000  0.191
 
band     6 # energy    9.96858815 # occ.  0.00000000
 
ion      s     py     pz     px    dxy    dyz    dz2    dxz  x2-y2    tot
    1  0.023  0.032  0.013  0.040  0.000  0.000  0.000  0.000  0.000  0.109
    2  0.023  0.032  0.013  0.040  0.000  0.000  0.000  0.000  0.000  0.109
tot    0.047  0.065  0.026  0.080  0.000  0.000  0.000  0.000  0.000  0.218
 
band     7 # energy   13.04978192 # occ.  0.00000000
 
ion      s     py     pz     px    dxy    dyz    dz2    dxz  x2-y2    tot
    1  0.011  0.058  0.024  0.059  0.000  0.000  0.000  0.000  0.000  0.153
    2  0.011  0.058  0.024  0.059  0.000  0.000  0.000  0.000  0.000  0.153
tot    0.023  0.117  0.048  0.117  0.000  0.000  0.000  0.000  0.000  0.305
 
band     8 # energy   13.62282745 # occ.  0.00000000
 
ion      s     py     pz     px    dxy    dyz    dz2    dxz  x2-y2    tot
    1  0.033  0.026  0.025  0.063  0.000  0.000  0.000  0.000  0.000  0.147
    2  0.033  0.026  0.025  0.063  0.000  0.000  0.000  0.000  0.000  0.147
tot    0.065  0.052  0.050  0.126  0.000  0.000  0.000  0.000  0.000  0.294
 
band     9 # energy   14.10061190 # occ.  0.00000000
 
ion      s     py     pz     px    dxy    dyz    dz2    dxz  x2-y2    tot
    1  0.021  0.021  0.079  0.019  0.000  0.000  0.000  0.000  0.000  0.141
    2  0.021  0.021  0.079  0.019  0.000  0.000  0.000  0.000  0.000  0.141
tot    0.043  0.042  0.159  0.039  0.000  0.000  0.000  0.000  0.000  0.282
 
band    10 # energy   14.79447554 # occ.  0.00000000
 
ion      s     py     pz     px    dxy    dyz    dz2    dxz  x2-y2    tot
    1  0.018  0.058  0.010  0.011  0.000  0.000  0.000  0.000  0.000  0.097
    2  0.018  0.058  0.010  0.011  0.000  0.000  0.000  0.000  0.000  0.097
tot    0.036  0.116  0.020  0.022  0.000  0.000  0.000  0.000  0.000  0.194
 
band    11 # energy   20.46275002 # occ.  0.00000000
 
ion      s     py     pz     px    dxy    dyz    dz2    dxz  x2-y2    tot
    1  0.007  0.020  0.068  0.014  0.000  0.000  0.000  0.000  0.000  0.108
    2  0.004  0.012  0.084  0.025  0.000  0.000  0.000  0.000  0.000  0.126
tot    0.011  0.032  0.152  0.039  0.000  0.000  0.000  0.000  0.000  0.233
 
band    12 # energy   21.22559581 # occ.  0.00000000
 
ion      s     py     pz     px    dxy    dyz    dz2    dxz  x2-y2    tot
    1  0.004  0.067  0.004  0.014  0.000  0.000  0.000  0.000  0.000  0.088
    2  0.001  0.010  0.110  0.010  0.000  0.000  0.000  0.000  0.000  0.131
tot    0.005  0.076  0.114  0.024  0.000  0.000  0.000  0.000  0.000  0.219
 

 k-point   140 :    0.38928571 0.36071429 0.75000000     weight = 0.00555556

band     1 # energy   -2.38927190 # occ.  2.00000000
 
ion      s     py     pz     px    dxy    dyz    dz2    dxz  x2-y2    tot
    1  0.213  0.006  0.023  0.004  0.000  0.000  0.000  0.000  0.000  0.246
    2  0.213  0.006  0.023  0.004  0.000  0.000  0.000  0.000  0.000  0.246
tot    0.427  0.012  0.046  0.008  0.000  0.000  0.000  0.000  0.000  0.492
 
band     2 # energy   -1.39597326 # occ.  2.00000000
 
ion      s     py     pz     px    dxy    dyz    dz2    dxz  x2-y2    tot
    1  0.184  0.007  0.044  0.005  0.000  0.000  0.000  0.000  0.000  0.239
    2  0.184  0.007  0.044  0.005  0.000  0.000  0.000  0.000  0.000  0.239
tot    0.368  0.013  0.087  0.009  0.000  0.000  0.000  0.000  0.000  0.478
 
band     3 # energy    1.53704938 # occ.  2.00000000
 
ion      s     py     pz     px    dxy    dyz    dz2    dxz  x2-y2    tot
    1  0.000  0.055  0.043  0.058  0.000  0.000  0.000  0.000  0.000  0.156
    2  0.000  0.055  0.043  0.058  0.000  0.000  0.000  0.000  0.000  0.156
tot    0.000  0.110  0.086  0.115  0.000  0.000  0.000  0.000  0.000  0.312
 
band     4 # energy    3.36069991 # occ.  2.00000000
 
ion      s     py     pz     px    dxy    dyz    dz2    dxz  x2-y2    tot
    1  0.001  0.098  0.001  0.099  0.000  0.000  0.000  0.000  0.000  0.199
    2  0.001  0.098  0.001  0.099  0.000  0.000  0.000  0.000  0.000  0.199
tot    0.001  0.197  0.003  0.197  0.000  0.000  0.000  0.000  0.000  0.397
 
band     5 # energy    7.10643684 # occ.  0.00000000
 
ion      s     py     pz     px    dxy    dyz    dz2    dxz  x2-y2    tot
    1  0.051  0.000  0.038  0.005  0.000  0.000  0.000  0.000  0.000  0.095
    2  0.051  0.000  0.038  0.005  0.000  0.000  0.000  0.000  0.000  0.095
tot    0.103  0.000  0.076  0.011  0.000  0.000  0.000  0.000  0.000  0.190
 
band     6 # energy    9.96577232 # occ.  0.00000000
 
ion      s     py     pz     px    dxy    dyz    dz2    dxz  x2-y2    tot
    1  0.024  0.033  0.013  0.039  0.000  0.000  0.000  0.000  0.000  0.109
    2  0.024  0.033  0.013  0.039  0.000  0.000  0.000  0.000  0.000  0.109
tot    0.047  0.066  0.026  0.079  0.000  0.000  0.000  0.000  0.000  0.218
 
band     7 # energy   13.14385707 # occ.  0.00000000
 
ion      s     py     pz     px    dxy    dyz    dz2    dxz  x2-y2    tot
    1  0.005  0.072  0.016  0.058  0.000  0.000  0.000  0.000  0.000  0.152
    2  0.009  0.061  0.011  0.077  0.000  0.000  0.000  0.000  0.000  0.158
tot    0.014  0.133  0.027  0.135  0.000  0.000  0.000  0.000  0.000  0.310
 
band     8 # energy   13.84427117 # occ.  0.00000000
 
ion      s     py     pz     px    dxy    dyz    dz2    dxz  x2-y2    tot
    1  0.007  0.006  0.080  0.075  0.000  0.000  0.000  0.000  0.000  0.168
    2  0.050  0.044  0.010  0.020  0.000  0.000  0.000  0.000  0.000  0.123
tot    0.057  0.049  0.090  0.095  0.000  0.000  0.000  0.000  0.000  0.291
 
band     9 # energy   14.65144477 # occ.  0.00000000
 
ion      s     py     pz     px    dxy    dyz    dz2    dxz  x2-y2    tot
    1  0.017  0.049  0.009  0.006  0.000  0.000  0.000  0.000  0.000  0.081
    2  0.013  0.049  0.014  0.008  0.000  0.000  0.000  0.000  0.000  0.084
tot    0.030  0.098  0.023  0.014  0.000  0.000  0.000  0.000  0.000  0.165
 
band    10 # energy   20.83550910 # occ.  0.00000000
 
ion      s     py     pz     px    dxy    dyz    dz2    dxz  x2-y2    tot
    1  0.003  0.028  0.150  0.035  0.000  0.000  0.000  0.000  0.000  0.215
    2  0.006  0.047  0.110  0.028  0.000  0.000  0.000  0.000  0.000  0.190
tot    0.009  0.075  0.259  0.063  0.000  0.000  0.000  0.000  0.000  0.406
 
band    11 # energy   21.49723478 # occ.  0.00000000
 
ion      s     py     pz     px    dxy    dyz    dz2    dxz  x2-y2    tot
    1  0.002  0.046  0.046  0.006  0.000  0.000  0.000  0.000  0.000  0.101
    2  0.001  0.029  0.059  0.002  0.000  0.000  0.000  0.000  0.000  0.091
tot    0.003  0.075  0.106  0.008  0.000  0.000  0.000  0.000  0.000  0.192
 
band    12 # energy   26.21366634 # occ.  0.00000000
 
ion      s     py     pz     px    dxy    dyz    dz2    dxz  x2-y2    tot
    1  0.002  0.048  0.024  0.002  0.000  0.000  0.000  0.000  0.000  0.076
    2  0.008  0.007  0.016  0.004  0.000  0.000  0.000  0.000  0.000  0.035
tot    0.009  0.055  0.040  0.006  0.000  0.000  0.000  0.000  0.000  0.111
 

 k-point   141 :    0.38571429 0.36428571 0.75000000     weight = 0.00555556

band     1 # energy   -2.39259026 # occ.  2.00000000
 
ion      s     py     pz     px    dxy    dyz    dz2    dxz  x2-y2    tot
    1  0.213  0.006  0.023  0.004  0.000  0.000  0.000  0.000  0.000  0.246
    2  0.213  0.006  0.023  0.004  0.000  0.000  0.000  0.000  0.000  0.246
tot    0.427  0.012  0.046  0.008  0.000  0.000  0.000  0.000  0.000  0.492
 
band     2 # energy   -1.39463628 # occ.  2.00000000
 
ion      s     py     pz     px    dxy    dyz    dz2    dxz  x2-y2    tot
    1  0.184  0.006  0.044  0.005  0.000  0.000  0.000  0.000  0.000  0.239
    2  0.184  0.006  0.044  0.005  0.000  0.000  0.000  0.000  0.000  0.239
tot    0.367  0.013  0.088  0.010  0.000  0.000  0.000  0.000  0.000  0.478
 
band     3 # energy    1.53439641 # occ.  2.00000000
 
ion      s     py     pz     px    dxy    dyz    dz2    dxz  x2-y2    tot
    1  0.000  0.055  0.043  0.057  0.000  0.000  0.000  0.000  0.000  0.156
    2  0.000  0.055  0.043  0.057  0.000  0.000  0.000  0.000  0.000  0.156
tot    0.000  0.111  0.086  0.114  0.000  0.000  0.000  0.000  0.000  0.312
 
band     4 # energy    3.38118081 # occ.  2.00000000
 
ion      s     py     pz     px    dxy    dyz    dz2    dxz  x2-y2    tot
    1  0.000  0.099  0.001  0.099  0.000  0.000  0.000  0.000  0.000  0.200
    2  0.000  0.099  0.001  0.099  0.000  0.000  0.000  0.000  0.000  0.200
tot    0.001  0.198  0.002  0.199  0.000  0.000  0.000  0.000  0.000  0.399
 
band     5 # energy    7.07580761 # occ.  0.00000000
 
ion      s     py     pz     px    dxy    dyz    dz2    dxz  x2-y2    tot
    1  0.052  0.000  0.038  0.004  0.000  0.000  0.000  0.000  0.000  0.094
    2  0.052  0.000  0.038  0.004  0.000  0.000  0.000  0.000  0.000  0.094
tot    0.104  0.000  0.077  0.008  0.000  0.000  0.000  0.000  0.000  0.188
 
band     6 # energy    9.96357301 # occ.  0.00000000
 
ion      s     py     pz     px    dxy    dyz    dz2    dxz  x2-y2    tot
    1  0.024  0.034  0.013  0.038  0.000  0.000  0.000  0.000  0.000  0.109
    2  0.024  0.034  0.013  0.038  0.000  0.000  0.000  0.000  0.000  0.109
tot    0.047  0.068  0.026  0.077  0.000  0.000  0.000  0.000  0.000  0.218
 
band     7 # energy   13.19286877 # occ.  0.00000000
 
ion      s     py     pz     px    dxy    dyz    dz2    dxz  x2-y2    tot
    1  0.007  0.066  0.015  0.067  0.000  0.000  0.000  0.000  0.000  0.155
    2  0.007  0.066  0.015  0.067  0.000  0.000  0.000  0.000  0.000  0.155
tot    0.013  0.133  0.029  0.134  0.000  0.000  0.000  0.000  0.000  0.309
 
band     8 # energy   13.84044464 # occ.  0.00000000
 
ion      s     py     pz     px    dxy    dyz    dz2    dxz  x2-y2    tot
    1  0.035  0.031  0.026  0.069  0.000  0.000  0.000  0.000  0.000  0.161
    2  0.035  0.031  0.026  0.069  0.000  0.000  0.000  0.000  0.000  0.161
tot    0.071  0.062  0.052  0.137  0.000  0.000  0.000  0.000  0.000  0.322
 
band     9 # energy   13.95860790 # occ.  0.00000000
 
ion      s     py     pz     px    dxy    dyz    dz2    dxz  x2-y2    tot
    1  0.026  0.013  0.089  0.011  0.000  0.000  0.000  0.000  0.000  0.139
    2  0.026  0.013  0.089  0.011  0.000  0.000  0.000  0.000  0.000  0.139
tot    0.052  0.026  0.178  0.023  0.000  0.000  0.000  0.000  0.000  0.278
 
band    10 # energy   14.57578619 # occ.  0.00000000
 
ion      s     py     pz     px    dxy    dyz    dz2    dxz  x2-y2    tot
    1  0.015  0.051  0.009  0.007  0.000  0.000  0.000  0.000  0.000  0.083
    2  0.015  0.051  0.009  0.007  0.000  0.000  0.000  0.000  0.000  0.083
tot    0.030  0.102  0.019  0.014  0.000  0.000  0.000  0.000  0.000  0.165
 
band    11 # energy   20.43395241 # occ.  0.00000000
 
ion      s     py     pz     px    dxy    dyz    dz2    dxz  x2-y2    tot
    1  0.004  0.030  0.128  0.030  0.000  0.000  0.000  0.000  0.000  0.192
    2  0.004  0.023  0.130  0.037  0.000  0.000  0.000  0.000  0.000  0.194
tot    0.008  0.053  0.258  0.067  0.000  0.000  0.000  0.000  0.000  0.386
 
band    12 # energy   25.86137463 # occ.  0.00000000
 
ion      s     py     pz     px    dxy    dyz    dz2    dxz  x2-y2    tot
    1  0.031  0.005  0.006  0.033  0.000  0.000  0.000  0.000  0.000  0.076
    2  0.034  0.000  0.007  0.004  0.000  0.000  0.000  0.000  0.000  0.045
tot    0.065  0.006  0.013  0.037  0.000  0.000  0.000  0.000  0.000  0.120
 

 k-point   142 :    0.38214286 0.36785714 0.75000000     weight = 0.00555556

band     1 # energy   -2.39496067 # occ.  2.00000000
 
ion      s     py     pz     px    dxy    dyz    dz2    dxz  x2-y2    tot
    1  0.213  0.005  0.023  0.004  0.000  0.000  0.000  0.000  0.000  0.246
    2  0.213  0.005  0.023  0.004  0.000  0.000  0.000  0.000  0.000  0.246
tot    0.427  0.011  0.046  0.009  0.000  0.000  0.000  0.000  0.000  0.492
 
band     2 # energy   -1.39369035 # occ.  2.00000000
 
ion      s     py     pz     px    dxy    dyz    dz2    dxz  x2-y2    tot
    1  0.184  0.006  0.044  0.005  0.000  0.000  0.000  0.000  0.000  0.239
    2  0.184  0.006  0.044  0.005  0.000  0.000  0.000  0.000  0.000  0.239
tot    0.367  0.012  0.088  0.010  0.000  0.000  0.000  0.000  0.000  0.478
 
band     3 # energy    1.53250078 # occ.  2.00000000
 
ion      s     py     pz     px    dxy    dyz    dz2    dxz  x2-y2    tot
    1  0.000  0.056  0.043  0.057  0.000  0.000  0.000  0.000  0.000  0.156
    2  0.000  0.056  0.043  0.057  0.000  0.000  0.000  0.000  0.000  0.156
tot    0.000  0.111  0.086  0.114  0.000  0.000  0.000  0.000  0.000  0.312
 
band     4 # energy    3.39605639 # occ.  2.00000000
 
ion      s     py     pz     px    dxy    dyz    dz2    dxz  x2-y2    tot
    1  0.000  0.100  0.000  0.100  0.000  0.000  0.000  0.000  0.000  0.200
    2  0.000  0.100  0.000  0.100  0.000  0.000  0.000  0.000  0.000  0.200
tot    0.000  0.200  0.001  0.200  0.000  0.000  0.000  0.000  0.000  0.400
 
band     5 # energy    7.05369032 # occ.  0.00000000
 
ion      s     py     pz     px    dxy    dyz    dz2    dxz  x2-y2    tot
    1  0.052  0.000  0.039  0.003  0.000  0.000  0.000  0.000  0.000  0.094
    2  0.052  0.000  0.039  0.003  0.000  0.000  0.000  0.000  0.000  0.094
tot    0.105  0.000  0.077  0.005  0.000  0.000  0.000  0.000  0.000  0.187
 
band     6 # energy    9.96199784 # occ.  0.00000000
 
ion      s     py     pz     px    dxy    dyz    dz2    dxz  x2-y2    tot
    1  0.024  0.035  0.013  0.038  0.000  0.000  0.000  0.000  0.000  0.109
    2  0.024  0.035  0.013  0.038  0.000  0.000  0.000  0.000  0.000  0.109
tot    0.047  0.069  0.026  0.075  0.000  0.000  0.000  0.000  0.000  0.218
 
band     7 # energy   13.25634031 # occ.  0.00000000
 
ion      s     py     pz     px    dxy    dyz    dz2    dxz  x2-y2    tot
    1  0.002  0.078  0.008  0.066  0.000  0.000  0.000  0.000  0.000  0.154
    2  0.004  0.068  0.005  0.082  0.000  0.000  0.000  0.000  0.000  0.159
tot    0.006  0.146  0.013  0.148  0.000  0.000  0.000  0.000  0.000  0.313
 
band     8 # energy   13.90906195 # occ.  0.00000000
 
ion      s     py     pz     px    dxy    dyz    dz2    dxz  x2-y2    tot
    1  0.006  0.001  0.121  0.034  0.000  0.000  0.000  0.000  0.000  0.161
    2  0.055  0.024  0.046  0.003  0.000  0.000  0.000  0.000  0.000  0.128
tot    0.061  0.025  0.166  0.036  0.000  0.000  0.000  0.000  0.000  0.289
 
band     9 # energy   14.45939529 # occ.  0.00000000
 
ion      s     py     pz     px    dxy    dyz    dz2    dxz  x2-y2    tot
    1  0.021  0.056  0.008  0.010  0.000  0.000  0.000  0.000  0.000  0.096
    2  0.016  0.053  0.017  0.011  0.000  0.000  0.000  0.000  0.000  0.096
tot    0.037  0.109  0.025  0.021  0.000  0.000  0.000  0.000  0.000  0.192
 
band    10 # energy   20.70889416 # occ.  0.00000000
 
ion      s     py     pz     px    dxy    dyz    dz2    dxz  x2-y2    tot
    1  0.005  0.032  0.111  0.036  0.000  0.000  0.000  0.000  0.000  0.184
    2  0.004  0.032  0.129  0.032  0.000  0.000  0.000  0.000  0.000  0.196
tot    0.009  0.064  0.240  0.068  0.000  0.000  0.000  0.000  0.000  0.380
 
band    11 # energy   21.45953396 # occ.  0.00000000
 
ion      s     py     pz     px    dxy    dyz    dz2    dxz  x2-y2    tot
    1  0.007  0.020  0.012  0.001  0.000  0.000  0.000  0.000  0.000  0.040
    2  0.012  0.024  0.006  0.001  0.000  0.000  0.000  0.000  0.000  0.043
tot    0.019  0.044  0.019  0.002  0.000  0.000  0.000  0.000  0.000  0.083
 
band    12 # energy   27.71243243 # occ.  0.00000000
 
ion      s     py     pz     px    dxy    dyz    dz2    dxz  x2-y2    tot
    1  0.021  0.010  0.026  0.021  0.000  0.000  0.000  0.000  0.000  0.078
    2  0.018  0.004  0.002  0.004  0.000  0.000  0.000  0.000  0.000  0.028
tot    0.039  0.015  0.028  0.025  0.000  0.000  0.000  0.000  0.000  0.107
 

 k-point   143 :    0.37857143 0.37142857 0.75000000     weight = 0.00555556

band     1 # energy   -2.39638534 # occ.  2.00000000
 
ion      s     py     pz     px    dxy    dyz    dz2    dxz  x2-y2    tot
    1  0.213  0.005  0.023  0.005  0.000  0.000  0.000  0.000  0.000  0.246
    2  0.213  0.005  0.023  0.005  0.000  0.000  0.000  0.000  0.000  0.246
tot    0.427  0.010  0.046  0.009  0.000  0.000  0.000  0.000  0.000  0.492
 
band     2 # energy   -1.39312760 # occ.  2.00000000
 
ion      s     py     pz     px    dxy    dyz    dz2    dxz  x2-y2    tot
    1  0.183  0.006  0.044  0.005  0.000  0.000  0.000  0.000  0.000  0.239
    2  0.183  0.006  0.044  0.005  0.000  0.000  0.000  0.000  0.000  0.239
tot    0.367  0.012  0.088  0.011  0.000  0.000  0.000  0.000  0.000  0.478
 
band     3 # energy    1.53136305 # occ.  2.00000000
 
ion      s     py     pz     px    dxy    dyz    dz2    dxz  x2-y2    tot
    1  0.000  0.056  0.043  0.057  0.000  0.000  0.000  0.000  0.000  0.156
    2  0.000  0.056  0.043  0.057  0.000  0.000  0.000  0.000  0.000  0.156
tot    0.000  0.112  0.086  0.113  0.000  0.000  0.000  0.000  0.000  0.312
 
band     4 # energy    3.40507958 # occ.  2.00000000
 
ion      s     py     pz     px    dxy    dyz    dz2    dxz  x2-y2    tot
    1  0.000  0.100  0.000  0.100  0.000  0.000  0.000  0.000  0.000  0.201
    2  0.000  0.100  0.000  0.100  0.000  0.000  0.000  0.000  0.000  0.201
tot    0.000  0.200  0.000  0.200  0.000  0.000  0.000  0.000  0.000  0.401
 
band     5 # energy    7.04029783 # occ.  0.00000000
 
ion      s     py     pz     px    dxy    dyz    dz2    dxz  x2-y2    tot
    1  0.052  0.000  0.039  0.002  0.000  0.000  0.000  0.000  0.000  0.093
    2  0.052  0.000  0.039  0.002  0.000  0.000  0.000  0.000  0.000  0.093
tot    0.105  0.001  0.078  0.003  0.000  0.000  0.000  0.000  0.000  0.187
 
band     6 # energy    9.96104147 # occ.  0.00000000
 
ion      s     py     pz     px    dxy    dyz    dz2    dxz  x2-y2    tot
    1  0.024  0.035  0.013  0.037  0.000  0.000  0.000  0.000  0.000  0.109
    2  0.024  0.035  0.013  0.037  0.000  0.000  0.000  0.000  0.000  0.109
tot    0.047  0.071  0.027  0.074  0.000  0.000  0.000  0.000  0.000  0.218
 
band     7 # energy   13.29045074 # occ.  0.00000000
 
ion      s     py     pz     px    dxy    dyz    dz2    dxz  x2-y2    tot
    1  0.001  0.076  0.002  0.078  0.000  0.000  0.000  0.000  0.000  0.157
    2  0.001  0.077  0.003  0.076  0.000  0.000  0.000  0.000  0.000  0.157
tot    0.002  0.153  0.005  0.154  0.000  0.000  0.000  0.000  0.000  0.315
 
band     8 # energy   13.86324907 # occ.  0.00000000
 
ion      s     py     pz     px    dxy    dyz    dz2    dxz  x2-y2    tot
    1  0.033  0.003  0.098  0.002  0.000  0.000  0.000  0.000  0.000  0.136
    2  0.030  0.002  0.103  0.003  0.000  0.000  0.000  0.000  0.000  0.138
tot    0.063  0.005  0.201  0.005  0.000  0.000  0.000  0.000  0.000  0.274
 
band     9 # energy   14.29541141 # occ.  0.00000000
 
ion      s     py     pz     px    dxy    dyz    dz2    dxz  x2-y2    tot
    1  0.029  0.068  0.021  0.024  0.000  0.000  0.000  0.000  0.000  0.142
    2  0.030  0.068  0.020  0.024  0.000  0.000  0.000  0.000  0.000  0.141
tot    0.059  0.136  0.041  0.047  0.000  0.000  0.000  0.000  0.000  0.283
 
band    10 # energy   20.86490106 # occ.  0.00000000
 
ion      s     py     pz     px    dxy    dyz    dz2    dxz  x2-y2    tot
    1  0.015  0.005  0.141  0.041  0.000  0.000  0.000  0.000  0.000  0.202
    2  0.005  0.061  0.113  0.014  0.000  0.000  0.000  0.000  0.000  0.193
tot    0.020  0.066  0.254  0.055  0.000  0.000  0.000  0.000  0.000  0.395
 
band    11 # energy   21.61405737 # occ.  0.00000000
 
ion      s     py     pz     px    dxy    dyz    dz2    dxz  x2-y2    tot
    1  0.007  0.021  0.014  0.010  0.000  0.000  0.000  0.000  0.000  0.052
    2  0.008  0.022  0.072  0.010  0.000  0.000  0.000  0.000  0.000  0.112
tot    0.015  0.042  0.087  0.020  0.000  0.000  0.000  0.000  0.000  0.164
 
band    12 # energy   26.02894445 # occ.  0.00000000
 
ion      s     py     pz     px    dxy    dyz    dz2    dxz  x2-y2    tot
    1  0.015  0.005  0.008  0.002  0.000  0.000  0.000  0.000  0.000  0.031
    2  0.033  0.009  0.006  0.012  0.000  0.000  0.000  0.000  0.000  0.060
tot    0.048  0.014  0.014  0.014  0.000  0.000  0.000  0.000  0.000  0.091
 

 k-point   144 :    0.37500000 0.37500000 0.75000000     weight = 0.00555556

band     1 # energy   -2.39685944 # occ.  2.00000000
 
ion      s     py     pz     px    dxy    dyz    dz2    dxz  x2-y2    tot
    1  0.213  0.005  0.023  0.005  0.000  0.000  0.000  0.000  0.000  0.246
    2  0.213  0.005  0.023  0.005  0.000  0.000  0.000  0.000  0.000  0.246
tot    0.427  0.010  0.046  0.010  0.000  0.000  0.000  0.000  0.000  0.492
 
band     2 # energy   -1.39294026 # occ.  2.00000000
 
ion      s     py     pz     px    dxy    dyz    dz2    dxz  x2-y2    tot
    1  0.183  0.006  0.044  0.006  0.000  0.000  0.000  0.000  0.000  0.239
    2  0.183  0.006  0.044  0.006  0.000  0.000  0.000  0.000  0.000  0.239
tot    0.367  0.011  0.088  0.011  0.000  0.000  0.000  0.000  0.000  0.478
 
band     3 # energy    1.53098381 # occ.  2.00000000
 
ion      s     py     pz     px    dxy    dyz    dz2    dxz  x2-y2    tot
    1  0.000  0.056  0.043  0.056  0.000  0.000  0.000  0.000  0.000  0.156
    2  0.000  0.056  0.043  0.056  0.000  0.000  0.000  0.000  0.000  0.156
tot    0.000  0.113  0.086  0.113  0.000  0.000  0.000  0.000  0.000  0.312
 
band     4 # energy    3.40810565 # occ.  2.00000000
 
ion      s     py     pz     px    dxy    dyz    dz2    dxz  x2-y2    tot
    1  0.000  0.100  0.000  0.100  0.000  0.000  0.000  0.000  0.000  0.201
    2  0.000  0.100  0.000  0.100  0.000  0.000  0.000  0.000  0.000  0.201
tot    0.000  0.201  0.000  0.201  0.000  0.000  0.000  0.000  0.000  0.401
 
band     5 # energy    7.03582485 # occ.  0.00000000
 
ion      s     py     pz     px    dxy    dyz    dz2    dxz  x2-y2    tot
    1  0.053  0.001  0.039  0.001  0.000  0.000  0.000  0.000  0.000  0.093
    2  0.053  0.001  0.039  0.001  0.000  0.000  0.000  0.000  0.000  0.093
tot    0.105  0.002  0.078  0.002  0.000  0.000  0.000  0.000  0.000  0.186
 
band     6 # energy    9.96072614 # occ.  0.00000000
 
ion      s     py     pz     px    dxy    dyz    dz2    dxz  x2-y2    tot
    1  0.024  0.036  0.013  0.036  0.000  0.000  0.000  0.000  0.000  0.109
    2  0.024  0.036  0.013  0.036  0.000  0.000  0.000  0.000  0.000  0.109
tot    0.047  0.072  0.027  0.072  0.000  0.000  0.000  0.000  0.000  0.218
 
band     7 # energy   13.30492206 # occ.  0.00000000
 
ion      s     py     pz     px    dxy    dyz    dz2    dxz  x2-y2    tot
    1  0.000  0.079  0.000  0.079  0.000  0.000  0.000  0.000  0.000  0.158
    2  0.000  0.079  0.000  0.079  0.000  0.000  0.000  0.000  0.000  0.158
tot    0.000  0.158  0.000  0.158  0.000  0.000  0.000  0.000  0.000  0.316
 
band     8 # energy   13.84713758 # occ.  0.00000000
 
ion      s     py     pz     px    dxy    dyz    dz2    dxz  x2-y2    tot
    1  0.033  0.000  0.104  0.000  0.000  0.000  0.000  0.000  0.000  0.136
    2  0.033  0.000  0.104  0.000  0.000  0.000  0.000  0.000  0.000  0.136
tot    0.065  0.000  0.207  0.000  0.000  0.000  0.000  0.000  0.000  0.272
 
band     9 # energy   14.07511602 # occ.  0.00000000
 
ion      s     py     pz     px    dxy    dyz    dz2    dxz  x2-y2    tot
    1  0.051  0.072  0.036  0.072  0.000  0.000  0.000  0.000  0.000  0.230
    2  0.051  0.072  0.036  0.072  0.000  0.000  0.000  0.000  0.000  0.230
tot    0.101  0.144  0.072  0.144  0.000  0.000  0.000  0.000  0.000  0.460
 
band    10 # energy   14.34025600 # occ.  0.00000000
 
ion      s     py     pz     px    dxy    dyz    dz2    dxz  x2-y2    tot
    1  0.000  0.007  0.000  0.007  0.000  0.000  0.000  0.000  0.000  0.013
    2  0.000  0.007  0.000  0.007  0.000  0.000  0.000  0.000  0.000  0.013
tot    0.000  0.013  0.000  0.013  0.000  0.000  0.000  0.000  0.000  0.027
 
band    11 # energy   20.61954934 # occ.  0.00000000
 
ion      s     py     pz     px    dxy    dyz    dz2    dxz  x2-y2    tot
    1  0.003  0.037  0.138  0.032  0.000  0.000  0.000  0.000  0.000  0.210
    2  0.003  0.034  0.138  0.035  0.000  0.000  0.000  0.000  0.000  0.211
tot    0.007  0.071  0.277  0.067  0.000  0.000  0.000  0.000  0.000  0.421
 
band    12 # energy   20.86119559 # occ.  0.00000000
 
ion      s     py     pz     px    dxy    dyz    dz2    dxz  x2-y2    tot
    1  0.003  0.007  0.013  0.000  0.000  0.000  0.000  0.000  0.000  0.024
    2  0.001  0.002  0.002  0.007  0.000  0.000  0.000  0.000  0.000  0.012
tot    0.004  0.009  0.016  0.007  0.000  0.000  0.000  0.000  0.000  0.036
 

 k-point   145 :    0.37500000 0.37500000 0.75000000     weight = 0.00555556

band     1 # energy   -2.39685944 # occ.  2.00000000
 
ion      s     py     pz     px    dxy    dyz    dz2    dxz  x2-y2    tot
    1  0.213  0.005  0.023  0.005  0.000  0.000  0.000  0.000  0.000  0.246
    2  0.213  0.005  0.023  0.005  0.000  0.000  0.000  0.000  0.000  0.246
tot    0.427  0.010  0.046  0.010  0.000  0.000  0.000  0.000  0.000  0.492
 
band     2 # energy   -1.39294026 # occ.  2.00000000
 
ion      s     py     pz     px    dxy    dyz    dz2    dxz  x2-y2    tot
    1  0.183  0.006  0.044  0.006  0.000  0.000  0.000  0.000  0.000  0.239
    2  0.183  0.006  0.044  0.006  0.000  0.000  0.000  0.000  0.000  0.239
tot    0.367  0.011  0.088  0.011  0.000  0.000  0.000  0.000  0.000  0.478
 
band     3 # energy    1.53098381 # occ.  2.00000000
 
ion      s     py     pz     px    dxy    dyz    dz2    dxz  x2-y2    tot
    1  0.000  0.056  0.043  0.056  0.000  0.000  0.000  0.000  0.000  0.156
    2  0.000  0.056  0.043  0.056  0.000  0.000  0.000  0.000  0.000  0.156
tot    0.000  0.113  0.086  0.113  0.000  0.000  0.000  0.000  0.000  0.312
 
band     4 # energy    3.40810564 # occ.  2.00000000
 
ion      s     py     pz     px    dxy    dyz    dz2    dxz  x2-y2    tot
    1  0.000  0.100  0.000  0.100  0.000  0.000  0.000  0.000  0.000  0.201
    2  0.000  0.100  0.000  0.100  0.000  0.000  0.000  0.000  0.000  0.201
tot    0.000  0.201  0.000  0.201  0.000  0.000  0.000  0.000  0.000  0.401
 
band     5 # energy    7.03582484 # occ.  0.00000000
 
ion      s     py     pz     px    dxy    dyz    dz2    dxz  x2-y2    tot
    1  0.053  0.001  0.039  0.001  0.000  0.000  0.000  0.000  0.000  0.093
    2  0.053  0.001  0.039  0.001  0.000  0.000  0.000  0.000  0.000  0.093
tot    0.105  0.002  0.078  0.002  0.000  0.000  0.000  0.000  0.000  0.186
 
band     6 # energy    9.96072631 # occ.  0.00000000
 
ion      s     py     pz     px    dxy    dyz    dz2    dxz  x2-y2    tot
    1  0.024  0.036  0.013  0.036  0.000  0.000  0.000  0.000  0.000  0.109
    2  0.024  0.036  0.013  0.036  0.000  0.000  0.000  0.000  0.000  0.109
tot    0.047  0.072  0.027  0.072  0.000  0.000  0.000  0.000  0.000  0.218
 
band     7 # energy   13.30492205 # occ.  0.00000000
 
ion      s     py     pz     px    dxy    dyz    dz2    dxz  x2-y2    tot
    1  0.000  0.079  0.000  0.079  0.000  0.000  0.000  0.000  0.000  0.158
    2  0.000  0.079  0.000  0.079  0.000  0.000  0.000  0.000  0.000  0.158
tot    0.000  0.158  0.000  0.158  0.000  0.000  0.000  0.000  0.000  0.316
 
band     8 # energy   13.84713758 # occ.  0.00000000
 
ion      s     py     pz     px    dxy    dyz    dz2    dxz  x2-y2    tot
    1  0.033  0.000  0.104  0.000  0.000  0.000  0.000  0.000  0.000  0.136
    2  0.033  0.000  0.104  0.000  0.000  0.000  0.000  0.000  0.000  0.136
tot    0.065  0.000  0.207  0.000  0.000  0.000  0.000  0.000  0.000  0.272
 
band     9 # energy   14.07511602 # occ.  0.00000000
 
ion      s     py     pz     px    dxy    dyz    dz2    dxz  x2-y2    tot
    1  0.051  0.072  0.036  0.072  0.000  0.000  0.000  0.000  0.000  0.230
    2  0.051  0.072  0.036  0.072  0.000  0.000  0.000  0.000  0.000  0.230
tot    0.101  0.144  0.072  0.144  0.000  0.000  0.000  0.000  0.000  0.460
 
band    10 # energy   14.34025601 # occ.  0.00000000
 
ion      s     py     pz     px    dxy    dyz    dz2    dxz  x2-y2    tot
    1  0.000  0.007  0.000  0.007  0.000  0.000  0.000  0.000  0.000  0.013
    2  0.000  0.007  0.000  0.007  0.000  0.000  0.000  0.000  0.000  0.013
tot    0.000  0.013  0.000  0.013  0.000  0.000  0.000  0.000  0.000  0.027
 
band    11 # energy   20.60248857 # occ.  0.00000000
 
ion      s     py     pz     px    dxy    dyz    dz2    dxz  x2-y2    tot
    1  0.004  0.034  0.142  0.031  0.000  0.000  0.000  0.000  0.000  0.210
    2  0.004  0.038  0.136  0.030  0.000  0.000  0.000  0.000  0.000  0.208
tot    0.008  0.072  0.278  0.061  0.000  0.000  0.000  0.000  0.000  0.418
 
band    12 # energy   21.36400592 # occ.  0.00000000
 
ion      s     py     pz     px    dxy    dyz    dz2    dxz  x2-y2    tot
    1  0.006  0.022  0.024  0.029  0.000  0.000  0.000  0.000  0.000  0.081
    2  0.001  0.030  0.007  0.018  0.000  0.000  0.000  0.000  0.000  0.056
tot    0.007  0.052  0.031  0.047  0.000  0.000  0.000  0.000  0.000  0.137
 

 k-point   146 :    0.36428571 0.36428571 0.72857143     weight = 0.00555556

band     1 # energy   -2.49933491 # occ.  2.00000000
 
ion      s     py     pz     px    dxy    dyz    dz2    dxz  x2-y2    tot
    1  0.214  0.006  0.020  0.006  0.000  0.000  0.000  0.000  0.000  0.246
    2  0.214  0.006  0.020  0.006  0.000  0.000  0.000  0.000  0.000  0.246
tot    0.429  0.011  0.040  0.011  0.000  0.000  0.000  0.000  0.000  0.491
 
band     2 # energy   -1.28782568 # occ.  2.00000000
 
ion      s     py     pz     px    dxy    dyz    dz2    dxz  x2-y2    tot
    1  0.182  0.007  0.044  0.007  0.000  0.000  0.000  0.000  0.000  0.239
    2  0.182  0.007  0.044  0.007  0.000  0.000  0.000  0.000  0.000  0.239
tot    0.363  0.013  0.088  0.013  0.000  0.000  0.000  0.000  0.000  0.478
 
band     3 # energy    1.46801013 # occ.  2.00000000
 
ion      s     py     pz     px    dxy    dyz    dz2    dxz  x2-y2    tot
    1  0.000  0.053  0.048  0.053  0.000  0.000  0.000  0.000  0.000  0.155
    2  0.000  0.053  0.048  0.053  0.000  0.000  0.000  0.000  0.000  0.155
tot    0.001  0.107  0.095  0.107  0.000  0.000  0.000  0.000  0.000  0.310
 
band     4 # energy    3.48165687 # occ.  2.00000000
 
ion      s     py     pz     px    dxy    dyz    dz2    dxz  x2-y2    tot
    1  0.000  0.101  0.000  0.101  0.000  0.000  0.000  0.000  0.000  0.201
    2  0.000  0.101  0.000  0.101  0.000  0.000  0.000  0.000  0.000  0.201
tot    0.000  0.201  0.000  0.201  0.000  0.000  0.000  0.000  0.000  0.403
 
band     5 # energy    7.12120034 # occ.  0.00000000
 
ion      s     py     pz     px    dxy    dyz    dz2    dxz  x2-y2    tot
    1  0.053  0.001  0.040  0.001  0.000  0.000  0.000  0.000  0.000  0.095
    2  0.053  0.001  0.040  0.001  0.000  0.000  0.000  0.000  0.000  0.095
tot    0.106  0.002  0.080  0.002  0.000  0.000  0.000  0.000  0.000  0.189
 
band     6 # energy   10.39486016 # occ.  0.00000000
 
ion      s     py     pz     px    dxy    dyz    dz2    dxz  x2-y2    tot
    1  0.020  0.038  0.011  0.038  0.000  0.000  0.000  0.000  0.000  0.107
    2  0.020  0.038  0.011  0.038  0.000  0.000  0.000  0.000  0.000  0.107
tot    0.041  0.075  0.022  0.075  0.000  0.000  0.000  0.000  0.000  0.214
 
band     7 # energy   13.08279167 # occ.  0.00000000
 
ion      s     py     pz     px    dxy    dyz    dz2    dxz  x2-y2    tot
    1  0.002  0.071  0.008  0.075  0.000  0.000  0.000  0.000  0.000  0.157
    2  0.003  0.071  0.008  0.071  0.000  0.000  0.000  0.000  0.000  0.152
tot    0.005  0.142  0.016  0.146  0.000  0.000  0.000  0.000  0.000  0.310
 
band     8 # energy   13.86261953 # occ.  0.00000000
 
ion      s     py     pz     px    dxy    dyz    dz2    dxz  x2-y2    tot
    1  0.058  0.067  0.031  0.070  0.000  0.000  0.000  0.000  0.000  0.226
    2  0.050  0.069  0.043  0.069  0.000  0.000  0.000  0.000  0.000  0.230
tot    0.108  0.135  0.074  0.138  0.000  0.000  0.000  0.000  0.000  0.456
 
band     9 # energy   14.08252778 # occ.  0.00000000
 
ion      s     py     pz     px    dxy    dyz    dz2    dxz  x2-y2    tot
    1  0.001  0.010  0.007  0.006  0.000  0.000  0.000  0.000  0.000  0.024
    2  0.002  0.006  0.005  0.004  0.000  0.000  0.000  0.000  0.000  0.018
tot    0.004  0.016  0.012  0.011  0.000  0.000  0.000  0.000  0.000  0.042
 
band    10 # energy   20.99307202 # occ.  0.00000000
 
ion      s     py     pz     px    dxy    dyz    dz2    dxz  x2-y2    tot
    1  0.005  0.048  0.061  0.033  0.000  0.000  0.000  0.000  0.000  0.147
    2  0.007  0.015  0.181  0.010  0.000  0.000  0.000  0.000  0.000  0.213
tot    0.012  0.063  0.242  0.043  0.000  0.000  0.000  0.000  0.000  0.360
 
band    11 # energy   21.43628462 # occ.  0.00000000
 
ion      s     py     pz     px    dxy    dyz    dz2    dxz  x2-y2    tot
    1  0.019  0.009  0.067  0.007  0.000  0.000  0.000  0.000  0.000  0.101
    2  0.011  0.003  0.007  0.041  0.000  0.000  0.000  0.000  0.000  0.062
tot    0.030  0.012  0.073  0.048  0.000  0.000  0.000  0.000  0.000  0.163
 
band    12 # energy   28.14896634 # occ.  0.00000000
 
ion      s     py     pz     px    dxy    dyz    dz2    dxz  x2-y2    tot
    1  0.005  0.013  0.004  0.010  0.000  0.000  0.000  0.000  0.000  0.032
    2  0.041  0.005  0.013  0.005  0.000  0.000  0.000  0.000  0.000  0.064
tot    0.047  0.017  0.016  0.015  0.000  0.000  0.000  0.000  0.000  0.096
 

 k-point   147 :    0.35357143 0.35357143 0.70714286     weight = 0.00555556

band     1 # energy   -2.61470508 # occ.  2.00000000
 
ion      s     py     pz     px    dxy    dyz    dz2    dxz  x2-y2    tot
    1  0.215  0.007  0.017  0.007  0.000  0.000  0.000  0.000  0.000  0.245
    2  0.215  0.007  0.017  0.007  0.000  0.000  0.000  0.000  0.000  0.245
tot    0.429  0.013  0.034  0.013  0.000  0.000  0.000  0.000  0.000  0.490
 
band     2 # energy   -1.17420611 # occ.  2.00000000
 
ion      s     py     pz     px    dxy    dyz    dz2    dxz  x2-y2    tot
    1  0.180  0.008  0.043  0.008  0.000  0.000  0.000  0.000  0.000  0.239
    2  0.180  0.008  0.043  0.008  0.000  0.000  0.000  0.000  0.000  0.239
tot    0.360  0.016  0.087  0.016  0.000  0.000  0.000  0.000  0.000  0.478
 
band     3 # energy    1.42923685 # occ.  2.00000000
 
ion      s     py     pz     px    dxy    dyz    dz2    dxz  x2-y2    tot
    1  0.001  0.051  0.052  0.051  0.000  0.000  0.000  0.000  0.000  0.155
    2  0.001  0.051  0.052  0.051  0.000  0.000  0.000  0.000  0.000  0.155
tot    0.003  0.101  0.104  0.101  0.000  0.000  0.000  0.000  0.000  0.309
 
band     4 # energy    3.56023010 # occ.  2.00000000
 
ion      s     py     pz     px    dxy    dyz    dz2    dxz  x2-y2    tot
    1  0.000  0.101  0.000  0.101  0.000  0.000  0.000  0.000  0.000  0.202
    2  0.000  0.101  0.000  0.101  0.000  0.000  0.000  0.000  0.000  0.202
tot    0.000  0.202  0.000  0.202  0.000  0.000  0.000  0.000  0.000  0.404
 
band     5 # energy    7.21241614 # occ.  0.00000000
 
ion      s     py     pz     px    dxy    dyz    dz2    dxz  x2-y2    tot
    1  0.053  0.001  0.041  0.001  0.000  0.000  0.000  0.000  0.000  0.096
    2  0.053  0.001  0.041  0.001  0.000  0.000  0.000  0.000  0.000  0.096
tot    0.106  0.002  0.081  0.002  0.000  0.000  0.000  0.000  0.000  0.192
 
band     6 # energy   10.83297061 # occ.  0.00000000
 
ion      s     py     pz     px    dxy    dyz    dz2    dxz  x2-y2    tot
    1  0.017  0.039  0.008  0.039  0.000  0.000  0.000  0.000  0.000  0.102
    2  0.017  0.039  0.008  0.039  0.000  0.000  0.000  0.000  0.000  0.102
tot    0.033  0.078  0.016  0.078  0.000  0.000  0.000  0.000  0.000  0.205
 
band     7 # energy   12.78395335 # occ.  0.00000000
 
ion      s     py     pz     px    dxy    dyz    dz2    dxz  x2-y2    tot
    1  0.000  0.076  0.000  0.079  0.000  0.000  0.000  0.000  0.000  0.155
    2  0.000  0.078  0.000  0.075  0.000  0.000  0.000  0.000  0.000  0.154
tot    0.000  0.154  0.000  0.154  0.000  0.000  0.000  0.000  0.000  0.309
 
band     8 # energy   13.32893017 # occ.  0.00000000
 
ion      s     py     pz     px    dxy    dyz    dz2    dxz  x2-y2    tot
    1  0.046  0.000  0.101  0.000  0.000  0.000  0.000  0.000  0.000  0.147
    2  0.029  0.002  0.124  0.002  0.000  0.000  0.000  0.000  0.000  0.157
tot    0.075  0.002  0.225  0.002  0.000  0.000  0.000  0.000  0.000  0.304
 
band     9 # energy   13.78486817 # occ.  0.00000000
 
ion      s     py     pz     px    dxy    dyz    dz2    dxz  x2-y2    tot
    1  0.024  0.055  0.019  0.012  0.000  0.000  0.000  0.000  0.000  0.111
    2  0.028  0.054  0.014  0.012  0.000  0.000  0.000  0.000  0.000  0.108
tot    0.052  0.108  0.033  0.025  0.000  0.000  0.000  0.000  0.000  0.219
 
band    10 # energy   20.67115075 # occ.  0.00000000
 
ion      s     py     pz     px    dxy    dyz    dz2    dxz  x2-y2    tot
    1  0.010  0.023  0.029  0.026  0.000  0.000  0.000  0.000  0.000  0.088
    2  0.004  0.016  0.043  0.016  0.000  0.000  0.000  0.000  0.000  0.079
tot    0.014  0.039  0.072  0.042  0.000  0.000  0.000  0.000  0.000  0.167
 
band    11 # energy   21.29656813 # occ.  0.00000000
 
ion      s     py     pz     px    dxy    dyz    dz2    dxz  x2-y2    tot
    1  0.002  0.035  0.010  0.011  0.000  0.000  0.000  0.000  0.000  0.059
    2  0.021  0.002  0.097  0.002  0.000  0.000  0.000  0.000  0.000  0.123
tot    0.023  0.037  0.107  0.013  0.000  0.000  0.000  0.000  0.000  0.182
 
band    12 # energy   22.45919288 # occ.  0.00000000
 
ion      s     py     pz     px    dxy    dyz    dz2    dxz  x2-y2    tot
    1  0.042  0.006  0.009  0.044  0.000  0.000  0.000  0.000  0.000  0.101
    2  0.008  0.026  0.053  0.001  0.000  0.000  0.000  0.000  0.000  0.088
tot    0.050  0.032  0.062  0.045  0.000  0.000  0.000  0.000  0.000  0.189
 

 k-point   148 :    0.34285714 0.34285714 0.68571429     weight = 0.00555556

band     1 # energy   -2.74182235 # occ.  2.00000000
 
ion      s     py     pz     px    dxy    dyz    dz2    dxz  x2-y2    tot
    1  0.215  0.007  0.014  0.007  0.000  0.000  0.000  0.000  0.000  0.244
    2  0.215  0.007  0.014  0.007  0.000  0.000  0.000  0.000  0.000  0.244
tot    0.429  0.015  0.028  0.015  0.000  0.000  0.000  0.000  0.000  0.487
 
band     2 # energy   -1.05211546 # occ.  2.00000000
 
ion      s     py     pz     px    dxy    dyz    dz2    dxz  x2-y2    tot
    1  0.178  0.009  0.043  0.009  0.000  0.000  0.000  0.000  0.000  0.239
    2  0.178  0.009  0.043  0.009  0.000  0.000  0.000  0.000  0.000  0.239
tot    0.355  0.018  0.086  0.018  0.000  0.000  0.000  0.000  0.000  0.478
 
band     3 # energy    1.41424829 # occ.  2.00000000
 
ion      s     py     pz     px    dxy    dyz    dz2    dxz  x2-y2    tot
    1  0.002  0.048  0.056  0.048  0.000  0.000  0.000  0.000  0.000  0.155
    2  0.002  0.048  0.056  0.048  0.000  0.000  0.000  0.000  0.000  0.155
tot    0.005  0.096  0.112  0.096  0.000  0.000  0.000  0.000  0.000  0.310
 
band     4 # energy    3.64355413 # occ.  2.00000000
 
ion      s     py     pz     px    dxy    dyz    dz2    dxz  x2-y2    tot
    1  0.000  0.101  0.000  0.101  0.000  0.000  0.000  0.000  0.000  0.203
    2  0.000  0.101  0.000  0.101  0.000  0.000  0.000  0.000  0.000  0.203
tot    0.000  0.203  0.000  0.203  0.000  0.000  0.000  0.000  0.000  0.405
 
band     5 # energy    7.30913828 # occ.  0.00000000
 
ion      s     py     pz     px    dxy    dyz    dz2    dxz  x2-y2    tot
    1  0.054  0.001  0.042  0.001  0.000  0.000  0.000  0.000  0.000  0.098
    2  0.054  0.001  0.042  0.001  0.000  0.000  0.000  0.000  0.000  0.098
tot    0.107  0.003  0.084  0.003  0.000  0.000  0.000  0.000  0.000  0.196
 
band     6 # energy   11.26692195 # occ.  0.00000000
 
ion      s     py     pz     px    dxy    dyz    dz2    dxz  x2-y2    tot
    1  0.012  0.039  0.004  0.039  0.000  0.000  0.000  0.000  0.000  0.094
    2  0.012  0.039  0.004  0.039  0.000  0.000  0.000  0.000  0.000  0.094
tot    0.023  0.078  0.008  0.078  0.000  0.000  0.000  0.000  0.000  0.188
 
band     7 # energy   12.53148153 # occ.  0.00000000
 
ion      s     py     pz     px    dxy    dyz    dz2    dxz  x2-y2    tot
    1  0.000  0.077  0.000  0.077  0.000  0.000  0.000  0.000  0.000  0.153
    2  0.000  0.077  0.000  0.077  0.000  0.000  0.000  0.000  0.000  0.153
tot    0.000  0.153  0.000  0.153  0.000  0.000  0.000  0.000  0.000  0.306
 
band     8 # energy   13.08961563 # occ.  0.00000000
 
ion      s     py     pz     px    dxy    dyz    dz2    dxz  x2-y2    tot
    1  0.041  0.002  0.120  0.002  0.000  0.000  0.000  0.000  0.000  0.163
    2  0.041  0.002  0.120  0.002  0.000  0.000  0.000  0.000  0.000  0.163
tot    0.081  0.003  0.239  0.003  0.000  0.000  0.000  0.000  0.000  0.327
 
band     9 # energy   13.45073985 # occ.  0.00000000
 
ion      s     py     pz     px    dxy    dyz    dz2    dxz  x2-y2    tot
    1  0.061  0.063  0.037  0.063  0.000  0.000  0.000  0.000  0.000  0.224
    2  0.061  0.063  0.037  0.063  0.000  0.000  0.000  0.000  0.000  0.224
tot    0.122  0.126  0.074  0.126  0.000  0.000  0.000  0.000  0.000  0.448
 
band    10 # energy   13.67963920 # occ.  0.00000000
 
ion      s     py     pz     px    dxy    dyz    dz2    dxz  x2-y2    tot
    1  0.000  0.007  0.000  0.007  0.000  0.000  0.000  0.000  0.000  0.013
    2  0.000  0.007  0.000  0.007  0.000  0.000  0.000  0.000  0.000  0.013
tot    0.000  0.013  0.000  0.013  0.000  0.000  0.000  0.000  0.000  0.027
 
band    11 # energy   20.46859607 # occ.  0.00000000
 
ion      s     py     pz     px    dxy    dyz    dz2    dxz  x2-y2    tot
    1  0.004  0.010  0.041  0.009  0.000  0.000  0.000  0.000  0.000  0.065
    2  0.013  0.023  0.018  0.021  0.000  0.000  0.000  0.000  0.000  0.075
tot    0.018  0.033  0.059  0.030  0.000  0.000  0.000  0.000  0.000  0.140
 
band    12 # energy   21.25932906 # occ.  0.00000000
 
ion      s     py     pz     px    dxy    dyz    dz2    dxz  x2-y2    tot
    1  0.015  0.020  0.092  0.021  0.000  0.000  0.000  0.000  0.000  0.148
    2  0.010  0.027  0.086  0.013  0.000  0.000  0.000  0.000  0.000  0.136
tot    0.025  0.047  0.178  0.034  0.000  0.000  0.000  0.000  0.000  0.284
 

 k-point   149 :    0.33214286 0.33214286 0.66428571     weight = 0.00555556

band     1 # energy   -2.87915946 # occ.  2.00000000
 
ion      s     py     pz     px    dxy    dyz    dz2    dxz  x2-y2    tot
    1  0.214  0.008  0.012  0.008  0.000  0.000  0.000  0.000  0.000  0.242
    2  0.214  0.008  0.012  0.008  0.000  0.000  0.000  0.000  0.000  0.242
tot    0.429  0.016  0.024  0.016  0.000  0.000  0.000  0.000  0.000  0.484
 
band     2 # energy   -0.92159012 # occ.  2.00000000
 
ion      s     py     pz     px    dxy    dyz    dz2    dxz  x2-y2    tot
    1  0.176  0.010  0.043  0.010  0.000  0.000  0.000  0.000  0.000  0.239
    2  0.176  0.010  0.043  0.010  0.000  0.000  0.000  0.000  0.000  0.239
tot    0.351  0.020  0.086  0.020  0.000  0.000  0.000  0.000  0.000  0.477
 
band     3 # energy    1.42205083 # occ.  2.00000000
 
ion      s     py     pz     px    dxy    dyz    dz2    dxz  x2-y2    tot
    1  0.004  0.046  0.060  0.046  0.000  0.000  0.000  0.000  0.000  0.156
    2  0.004  0.046  0.060  0.046  0.000  0.000  0.000  0.000  0.000  0.156
tot    0.008  0.092  0.120  0.092  0.000  0.000  0.000  0.000  0.000  0.312
 
band     4 # energy    3.73130955 # occ.  2.00000000
 
ion      s     py     pz     px    dxy    dyz    dz2    dxz  x2-y2    tot
    1  0.000  0.102  0.000  0.102  0.000  0.000  0.000  0.000  0.000  0.204
    2  0.000  0.102  0.000  0.102  0.000  0.000  0.000  0.000  0.000  0.204
tot    0.000  0.204  0.000  0.204  0.000  0.000  0.000  0.000  0.000  0.407
 
band     5 # energy    7.41089350 # occ.  0.00000000
 
ion      s     py     pz     px    dxy    dyz    dz2    dxz  x2-y2    tot
    1  0.054  0.001  0.043  0.001  0.000  0.000  0.000  0.000  0.000  0.100
    2  0.054  0.001  0.043  0.001  0.000  0.000  0.000  0.000  0.000  0.100
tot    0.108  0.003  0.086  0.003  0.000  0.000  0.000  0.000  0.000  0.200
 
band     6 # energy   11.67398802 # occ.  0.00000000
 
ion      s     py     pz     px    dxy    dyz    dz2    dxz  x2-y2    tot
    1  0.005  0.037  0.000  0.037  0.000  0.000  0.000  0.000  0.000  0.079
    2  0.005  0.037  0.000  0.037  0.000  0.000  0.000  0.000  0.000  0.079
tot    0.010  0.074  0.000  0.074  0.000  0.000  0.000  0.000  0.000  0.158
 
band     7 # energy   12.28518839 # occ.  0.00000000
 
ion      s     py     pz     px    dxy    dyz    dz2    dxz  x2-y2    tot
    1  0.000  0.076  0.000  0.076  0.000  0.000  0.000  0.000  0.000  0.152
    2  0.000  0.076  0.000  0.076  0.000  0.000  0.000  0.000  0.000  0.152
tot    0.000  0.152  0.000  0.152  0.000  0.000  0.000  0.000  0.000  0.304
 
band     8 # energy   12.89564571 # occ.  0.00000000
 
ion      s     py     pz     px    dxy    dyz    dz2    dxz  x2-y2    tot
    1  0.046  0.005  0.126  0.005  0.000  0.000  0.000  0.000  0.000  0.182
    2  0.046  0.005  0.126  0.005  0.000  0.000  0.000  0.000  0.000  0.182
tot    0.091  0.010  0.251  0.010  0.000  0.000  0.000  0.000  0.000  0.363
 
band     9 # energy   13.25125007 # occ.  0.00000000
 
ion      s     py     pz     px    dxy    dyz    dz2    dxz  x2-y2    tot
    1  0.064  0.061  0.037  0.061  0.000  0.000  0.000  0.000  0.000  0.221
    2  0.064  0.061  0.037  0.061  0.000  0.000  0.000  0.000  0.000  0.221
tot    0.127  0.121  0.073  0.121  0.000  0.000  0.000  0.000  0.000  0.443
 
band    10 # energy   13.47615716 # occ.  0.00000000
 
ion      s     py     pz     px    dxy    dyz    dz2    dxz  x2-y2    tot
    1  0.000  0.007  0.000  0.007  0.000  0.000  0.000  0.000  0.000  0.013
    2  0.000  0.007  0.000  0.007  0.000  0.000  0.000  0.000  0.000  0.013
tot    0.000  0.013  0.000  0.013  0.000  0.000  0.000  0.000  0.000  0.026
 
band    11 # energy   20.26443463 # occ.  0.00000000
 
ion      s     py     pz     px    dxy    dyz    dz2    dxz  x2-y2    tot
    1  0.008  0.009  0.028  0.008  0.000  0.000  0.000  0.000  0.000  0.052
    2  0.016  0.019  0.012  0.015  0.000  0.000  0.000  0.000  0.000  0.062
tot    0.024  0.027  0.040  0.022  0.000  0.000  0.000  0.000  0.000  0.114
 
band    12 # energy   21.03130929 # occ.  0.00000000
 
ion      s     py     pz     px    dxy    dyz    dz2    dxz  x2-y2    tot
    1  0.004  0.027  0.004  0.032  0.000  0.000  0.000  0.000  0.000  0.067
    2  0.014  0.003  0.090  0.003  0.000  0.000  0.000  0.000  0.000  0.109
tot    0.018  0.029  0.093  0.035  0.000  0.000  0.000  0.000  0.000  0.176
 

 k-point   150 :    0.32142857 0.32142857 0.64285714     weight = 0.00555556

band     1 # energy   -3.02494759 # occ.  2.00000000
 
ion      s     py     pz     px    dxy    dyz    dz2    dxz  x2-y2    tot
    1  0.214  0.009  0.010  0.009  0.000  0.000  0.000  0.000  0.000  0.240
    2  0.214  0.009  0.010  0.009  0.000  0.000  0.000  0.000  0.000  0.240
tot    0.427  0.017  0.019  0.017  0.000  0.000  0.000  0.000  0.000  0.481
 
band     2 # energy   -0.78267663 # occ.  2.00000000
 
ion      s     py     pz     px    dxy    dyz    dz2    dxz  x2-y2    tot
    1  0.173  0.012  0.042  0.012  0.000  0.000  0.000  0.000  0.000  0.239
    2  0.173  0.012  0.042  0.012  0.000  0.000  0.000  0.000  0.000  0.239
tot    0.346  0.023  0.085  0.023  0.000  0.000  0.000  0.000  0.000  0.477
 
band     3 # energy    1.45127619 # occ.  2.00000000
 
ion      s     py     pz     px    dxy    dyz    dz2    dxz  x2-y2    tot
    1  0.005  0.044  0.063  0.044  0.000  0.000  0.000  0.000  0.000  0.157
    2  0.005  0.044  0.063  0.044  0.000  0.000  0.000  0.000  0.000  0.157
tot    0.011  0.088  0.127  0.088  0.000  0.000  0.000  0.000  0.000  0.314
 
band     4 # energy    3.82312250 # occ.  2.00000000
 
ion      s     py     pz     px    dxy    dyz    dz2    dxz  x2-y2    tot
    1  0.000  0.102  0.000  0.102  0.000  0.000  0.000  0.000  0.000  0.204
    2  0.000  0.102  0.000  0.102  0.000  0.000  0.000  0.000  0.000  0.204
tot    0.000  0.204  0.000  0.204  0.000  0.000  0.000  0.000  0.000  0.409
 
band     5 # energy    7.51712020 # occ.  0.00000000
 
ion      s     py     pz     px    dxy    dyz    dz2    dxz  x2-y2    tot
    1  0.055  0.002  0.044  0.002  0.000  0.000  0.000  0.000  0.000  0.102
    2  0.055  0.002  0.044  0.002  0.000  0.000  0.000  0.000  0.000  0.102
tot    0.109  0.003  0.089  0.003  0.000  0.000  0.000  0.000  0.000  0.204
 
band     6 # energy   11.97324481 # occ.  0.00000000
 
ion      s     py     pz     px    dxy    dyz    dz2    dxz  x2-y2    tot
    1  0.000  0.027  0.009  0.024  0.000  0.000  0.000  0.000  0.000  0.059
    2  0.000  0.028  0.008  0.025  0.000  0.000  0.000  0.000  0.000  0.062
tot    0.000  0.055  0.017  0.049  0.000  0.000  0.000  0.000  0.000  0.121
 
band     7 # energy   12.04620746 # occ.  0.00000000
 
ion      s     py     pz     px    dxy    dyz    dz2    dxz  x2-y2    tot
    1  0.000  0.075  0.000  0.076  0.000  0.000  0.000  0.000  0.000  0.150
    2  0.000  0.070  0.000  0.082  0.000  0.000  0.000  0.000  0.000  0.152
tot    0.000  0.145  0.000  0.158  0.000  0.000  0.000  0.000  0.000  0.303
 
band     8 # energy   12.90370671 # occ.  0.00000000
 
ion      s     py     pz     px    dxy    dyz    dz2    dxz  x2-y2    tot
    1  0.002  0.054  0.150  0.063  0.000  0.000  0.000  0.000  0.000  0.269
    2  0.105  0.000  0.032  0.002  0.000  0.000  0.000  0.000  0.000  0.139
tot    0.107  0.054  0.182  0.065  0.000  0.000  0.000  0.000  0.000  0.408
 
band     9 # energy   13.22390867 # occ.  0.00000000
 
ion      s     py     pz     px    dxy    dyz    dz2    dxz  x2-y2    tot
    1  0.023  0.025  0.001  0.000  0.000  0.000  0.000  0.000  0.000  0.050
    2  0.007  0.041  0.020  0.004  0.000  0.000  0.000  0.000  0.000  0.071
tot    0.030  0.066  0.021  0.004  0.000  0.000  0.000  0.000  0.000  0.121
 
band    10 # energy   19.95866116 # occ.  0.00000000
 
ion      s     py     pz     px    dxy    dyz    dz2    dxz  x2-y2    tot
    1  0.018  0.014  0.014  0.012  0.000  0.000  0.000  0.000  0.000  0.057
    2  0.016  0.009  0.015  0.012  0.000  0.000  0.000  0.000  0.000  0.053
tot    0.034  0.023  0.029  0.024  0.000  0.000  0.000  0.000  0.000  0.110
 
band    11 # energy   20.64431698 # occ.  0.00000000
 
ion      s     py     pz     px    dxy    dyz    dz2    dxz  x2-y2    tot
    1  0.010  0.018  0.023  0.012  0.000  0.000  0.000  0.000  0.000  0.062
    2  0.017  0.013  0.036  0.013  0.000  0.000  0.000  0.000  0.000  0.079
tot    0.026  0.031  0.059  0.025  0.000  0.000  0.000  0.000  0.000  0.141
 
band    12 # energy   22.35417464 # occ.  0.00000000
 
ion      s     py     pz     px    dxy    dyz    dz2    dxz  x2-y2    tot
    1  0.013  0.003  0.089  0.021  0.000  0.000  0.000  0.000  0.000  0.126
    2  0.025  0.029  0.086  0.008  0.000  0.000  0.000  0.000  0.000  0.148
tot    0.038  0.033  0.175  0.029  0.000  0.000  0.000  0.000  0.000  0.274
 

 k-point   151 :    0.31071429 0.31071429 0.62142857     weight = 0.00555556

band     1 # energy   -3.17730356 # occ.  2.00000000
 
ion      s     py     pz     px    dxy    dyz    dz2    dxz  x2-y2    tot
    1  0.213  0.009  0.008  0.009  0.000  0.000  0.000  0.000  0.000  0.239
    2  0.213  0.009  0.008  0.009  0.000  0.000  0.000  0.000  0.000  0.239
tot    0.426  0.018  0.016  0.018  0.000  0.000  0.000  0.000  0.000  0.477
 
band     2 # energy   -0.63541782 # occ.  2.00000000
 
ion      s     py     pz     px    dxy    dyz    dz2    dxz  x2-y2    tot
    1  0.171  0.013  0.042  0.013  0.000  0.000  0.000  0.000  0.000  0.239
    2  0.171  0.013  0.042  0.013  0.000  0.000  0.000  0.000  0.000  0.239
tot    0.341  0.026  0.084  0.026  0.000  0.000  0.000  0.000  0.000  0.477
 
band     3 # energy    1.50037583 # occ.  2.00000000
 
ion      s     py     pz     px    dxy    dyz    dz2    dxz  x2-y2    tot
    1  0.007  0.042  0.067  0.042  0.000  0.000  0.000  0.000  0.000  0.158
    2  0.007  0.042  0.067  0.042  0.000  0.000  0.000  0.000  0.000  0.158
tot    0.014  0.085  0.133  0.085  0.000  0.000  0.000  0.000  0.000  0.316
 
band     4 # energy    3.91861049 # occ.  2.00000000
 
ion      s     py     pz     px    dxy    dyz    dz2    dxz  x2-y2    tot
    1  0.000  0.103  0.000  0.103  0.000  0.000  0.000  0.000  0.000  0.205
    2  0.000  0.103  0.000  0.103  0.000  0.000  0.000  0.000  0.000  0.205
tot    0.000  0.205  0.000  0.205  0.000  0.000  0.000  0.000  0.000  0.411
 
band     5 # energy    7.62735605 # occ.  0.00000000
 
ion      s     py     pz     px    dxy    dyz    dz2    dxz  x2-y2    tot
    1  0.055  0.002  0.046  0.002  0.000  0.000  0.000  0.000  0.000  0.105
    2  0.055  0.002  0.046  0.002  0.000  0.000  0.000  0.000  0.000  0.105
tot    0.111  0.003  0.092  0.003  0.000  0.000  0.000  0.000  0.000  0.210
 
band     6 # energy   11.81192573 # occ.  0.00000000
 
ion      s     py     pz     px    dxy    dyz    dz2    dxz  x2-y2    tot
    1  0.000  0.075  0.000  0.075  0.000  0.000  0.000  0.000  0.000  0.151
    2  0.000  0.075  0.000  0.075  0.000  0.000  0.000  0.000  0.000  0.151
tot    0.000  0.151  0.000  0.151  0.000  0.000  0.000  0.000  0.000  0.301
 
band     7 # energy   12.01567860 # occ.  0.00000000
 
ion      s     py     pz     px    dxy    dyz    dz2    dxz  x2-y2    tot
    1  0.009  0.009  0.050  0.009  0.000  0.000  0.000  0.000  0.000  0.076
    2  0.009  0.009  0.050  0.009  0.000  0.000  0.000  0.000  0.000  0.076
tot    0.018  0.017  0.099  0.017  0.000  0.000  0.000  0.000  0.000  0.152
 
band     8 # energy   12.87070933 # occ.  0.00000000
 
ion      s     py     pz     px    dxy    dyz    dz2    dxz  x2-y2    tot
    1  0.069  0.056  0.035  0.056  0.000  0.000  0.000  0.000  0.000  0.216
    2  0.069  0.056  0.035  0.056  0.000  0.000  0.000  0.000  0.000  0.216
tot    0.137  0.112  0.070  0.112  0.000  0.000  0.000  0.000  0.000  0.432
 
band     9 # energy   13.01767176 # occ.  0.00000000
 
ion      s     py     pz     px    dxy    dyz    dz2    dxz  x2-y2    tot
    1  0.038  0.036  0.080  0.036  0.000  0.000  0.000  0.000  0.000  0.191
    2  0.038  0.036  0.080  0.036  0.000  0.000  0.000  0.000  0.000  0.191
tot    0.077  0.072  0.160  0.072  0.000  0.000  0.000  0.000  0.000  0.381
 
band    10 # energy   13.09815844 # occ.  0.00000000
 
ion      s     py     pz     px    dxy    dyz    dz2    dxz  x2-y2    tot
    1  0.000  0.006  0.000  0.006  0.000  0.000  0.000  0.000  0.000  0.012
    2  0.000  0.006  0.000  0.006  0.000  0.000  0.000  0.000  0.000  0.012
tot    0.000  0.012  0.000  0.012  0.000  0.000  0.000  0.000  0.000  0.024
 
band    11 # energy   20.26934299 # occ.  0.00000000
 
ion      s     py     pz     px    dxy    dyz    dz2    dxz  x2-y2    tot
    1  0.012  0.007  0.023  0.007  0.000  0.000  0.000  0.000  0.000  0.050
    2  0.026  0.012  0.016  0.011  0.000  0.000  0.000  0.000  0.000  0.065
tot    0.038  0.019  0.039  0.018  0.000  0.000  0.000  0.000  0.000  0.114
 
band    12 # energy   22.10333517 # occ.  0.00000000
 
ion      s     py     pz     px    dxy    dyz    dz2    dxz  x2-y2    tot
    1  0.008  0.025  0.053  0.015  0.000  0.000  0.000  0.000  0.000  0.100
    2  0.001  0.006  0.084  0.006  0.000  0.000  0.000  0.000  0.000  0.097
tot    0.009  0.030  0.137  0.021  0.000  0.000  0.000  0.000  0.000  0.197
 

 k-point   152 :    0.30000000 0.30000000 0.60000000     weight = 0.00555556

band     1 # energy   -3.33440838 # occ.  2.00000000
 
ion      s     py     pz     px    dxy    dyz    dz2    dxz  x2-y2    tot
    1  0.212  0.009  0.006  0.009  0.000  0.000  0.000  0.000  0.000  0.237
    2  0.212  0.009  0.006  0.009  0.000  0.000  0.000  0.000  0.000  0.237
tot    0.424  0.018  0.013  0.018  0.000  0.000  0.000  0.000  0.000  0.473
 
band     2 # energy   -0.47987364 # occ.  2.00000000
 
ion      s     py     pz     px    dxy    dyz    dz2    dxz  x2-y2    tot
    1  0.168  0.014  0.042  0.014  0.000  0.000  0.000  0.000  0.000  0.239
    2  0.168  0.014  0.042  0.014  0.000  0.000  0.000  0.000  0.000  0.239
tot    0.336  0.029  0.083  0.029  0.000  0.000  0.000  0.000  0.000  0.477
 
band     3 # energy    1.56773305 # occ.  2.00000000
 
ion      s     py     pz     px    dxy    dyz    dz2    dxz  x2-y2    tot
    1  0.009  0.041  0.069  0.041  0.000  0.000  0.000  0.000  0.000  0.160
    2  0.009  0.041  0.069  0.041  0.000  0.000  0.000  0.000  0.000  0.160
tot    0.017  0.082  0.139  0.082  0.000  0.000  0.000  0.000  0.000  0.319
 
band     4 # energy    4.01732967 # occ.  2.00000000
 
ion      s     py     pz     px    dxy    dyz    dz2    dxz  x2-y2    tot
    1  0.000  0.103  0.000  0.103  0.000  0.000  0.000  0.000  0.000  0.206
    2  0.000  0.103  0.000  0.103  0.000  0.000  0.000  0.000  0.000  0.206
tot    0.000  0.206  0.000  0.206  0.000  0.000  0.000  0.000  0.000  0.413
 
band     5 # energy    7.74079555 # occ.  0.00000000
 
ion      s     py     pz     px    dxy    dyz    dz2    dxz  x2-y2    tot
    1  0.056  0.002  0.048  0.002  0.000  0.000  0.000  0.000  0.000  0.108
    2  0.056  0.002  0.048  0.002  0.000  0.000  0.000  0.000  0.000  0.108
tot    0.113  0.003  0.096  0.003  0.000  0.000  0.000  0.000  0.000  0.215
 
band     6 # energy   11.58543508 # occ.  0.00000000
 
ion      s     py     pz     px    dxy    dyz    dz2    dxz  x2-y2    tot
    1  0.000  0.075  0.000  0.075  0.000  0.000  0.000  0.000  0.000  0.150
    2  0.000  0.075  0.000  0.075  0.000  0.000  0.000  0.000  0.000  0.150
tot    0.000  0.150  0.000  0.150  0.000  0.000  0.000  0.000  0.000  0.300
 
band     7 # energy   11.87871983 # occ.  0.00000000
 
ion      s     py     pz     px    dxy    dyz    dz2    dxz  x2-y2    tot
    1  0.019  0.002  0.077  0.002  0.000  0.000  0.000  0.000  0.000  0.100
    2  0.019  0.002  0.077  0.002  0.000  0.000  0.000  0.000  0.000  0.100
tot    0.037  0.005  0.154  0.005  0.000  0.000  0.000  0.000  0.000  0.200
 
band     8 # energy   12.69274619 # occ.  0.00000000
 
ion      s     py     pz     px    dxy    dyz    dz2    dxz  x2-y2    tot
    1  0.072  0.054  0.033  0.052  0.000  0.000  0.000  0.000  0.000  0.210
    2  0.070  0.056  0.035  0.054  0.000  0.000  0.000  0.000  0.000  0.215
tot    0.141  0.109  0.068  0.106  0.000  0.000  0.000  0.000  0.000  0.425
 
band     9 # energy   12.93291844 # occ.  0.00000000
 
ion      s     py     pz     px    dxy    dyz    dz2    dxz  x2-y2    tot
    1  0.001  0.006  0.001  0.007  0.000  0.000  0.000  0.000  0.000  0.014
    2  0.000  0.006  0.001  0.007  0.000  0.000  0.000  0.000  0.000  0.015
tot    0.001  0.012  0.002  0.014  0.000  0.000  0.000  0.000  0.000  0.029
 
band    10 # energy   19.51377270 # occ.  0.00000000
 
ion      s     py     pz     px    dxy    dyz    dz2    dxz  x2-y2    tot
    1  0.020  0.004  0.002  0.004  0.000  0.000  0.000  0.000  0.000  0.029
    2  0.014  0.003  0.006  0.001  0.000  0.000  0.000  0.000  0.000  0.024
tot    0.035  0.006  0.007  0.005  0.000  0.000  0.000  0.000  0.000  0.053
 
band    11 # energy   20.13923095 # occ.  0.00000000
 
ion      s     py     pz     px    dxy    dyz    dz2    dxz  x2-y2    tot
    1  0.020  0.015  0.008  0.022  0.000  0.000  0.000  0.000  0.000  0.065
    2  0.018  0.002  0.034  0.005  0.000  0.000  0.000  0.000  0.000  0.059
tot    0.039  0.017  0.042  0.027  0.000  0.000  0.000  0.000  0.000  0.124
 
band    12 # energy   22.58094261 # occ.  0.00000000
 
ion      s     py     pz     px    dxy    dyz    dz2    dxz  x2-y2    tot
    1  0.018  0.009  0.047  0.034  0.000  0.000  0.000  0.000  0.000  0.108
    2  0.011  0.038  0.054  0.002  0.000  0.000  0.000  0.000  0.000  0.105
tot    0.029  0.047  0.102  0.036  0.000  0.000  0.000  0.000  0.000  0.213
 

 k-point   153 :    0.28928571 0.28928571 0.57857143     weight = 0.00555556

band     1 # energy   -3.49455019 # occ.  2.00000000
 
ion      s     py     pz     px    dxy    dyz    dz2    dxz  x2-y2    tot
    1  0.211  0.009  0.005  0.009  0.000  0.000  0.000  0.000  0.000  0.235
    2  0.211  0.009  0.005  0.009  0.000  0.000  0.000  0.000  0.000  0.235
tot    0.423  0.018  0.010  0.018  0.000  0.000  0.000  0.000  0.000  0.470
 
band     2 # energy   -0.31608218 # occ.  2.00000000
 
ion      s     py     pz     px    dxy    dyz    dz2    dxz  x2-y2    tot
    1  0.165  0.016  0.041  0.016  0.000  0.000  0.000  0.000  0.000  0.238
    2  0.165  0.016  0.041  0.016  0.000  0.000  0.000  0.000  0.000  0.238
tot    0.331  0.032  0.083  0.032  0.000  0.000  0.000  0.000  0.000  0.477
 
band     3 # energy    1.65177901 # occ.  2.00000000
 
ion      s     py     pz     px    dxy    dyz    dz2    dxz  x2-y2    tot
    1  0.010  0.040  0.072  0.040  0.000  0.000  0.000  0.000  0.000  0.161
    2  0.010  0.040  0.072  0.040  0.000  0.000  0.000  0.000  0.000  0.161
tot    0.020  0.079  0.144  0.079  0.000  0.000  0.000  0.000  0.000  0.323
 
band     4 # energy    4.11879746 # occ.  2.00000000
 
ion      s     py     pz     px    dxy    dyz    dz2    dxz  x2-y2    tot
    1  0.000  0.104  0.000  0.104  0.000  0.000  0.000  0.000  0.000  0.207
    2  0.000  0.104  0.000  0.104  0.000  0.000  0.000  0.000  0.000  0.207
tot    0.000  0.207  0.000  0.207  0.000  0.000  0.000  0.000  0.000  0.415
 
band     5 # energy    7.85663654 # occ.  0.00000000
 
ion      s     py     pz     px    dxy    dyz    dz2    dxz  x2-y2    tot
    1  0.058  0.002  0.050  0.002  0.000  0.000  0.000  0.000  0.000  0.111
    2  0.058  0.002  0.050  0.002  0.000  0.000  0.000  0.000  0.000  0.111
tot    0.115  0.004  0.100  0.004  0.000  0.000  0.000  0.000  0.000  0.222
 
band     6 # energy   11.36601058 # occ.  0.00000000
 
ion      s     py     pz     px    dxy    dyz    dz2    dxz  x2-y2    tot
    1  0.000  0.075  0.000  0.075  0.000  0.000  0.000  0.000  0.000  0.150
    2  0.000  0.075  0.000  0.075  0.000  0.000  0.000  0.000  0.000  0.150
tot    0.000  0.150  0.000  0.150  0.000  0.000  0.000  0.000  0.000  0.299
 
band     7 # energy   11.69093303 # occ.  0.00000000
 
ion      s     py     pz     px    dxy    dyz    dz2    dxz  x2-y2    tot
    1  0.024  0.001  0.089  0.001  0.000  0.000  0.000  0.000  0.000  0.114
    2  0.024  0.001  0.089  0.001  0.000  0.000  0.000  0.000  0.000  0.114
tot    0.047  0.001  0.178  0.001  0.000  0.000  0.000  0.000  0.000  0.228
 
band     8 # energy   12.52074472 # occ.  0.00000000
 
ion      s     py     pz     px    dxy    dyz    dz2    dxz  x2-y2    tot
    1  0.072  0.052  0.033  0.052  0.000  0.000  0.000  0.000  0.000  0.209
    2  0.072  0.052  0.033  0.052  0.000  0.000  0.000  0.000  0.000  0.209
tot    0.145  0.104  0.066  0.104  0.000  0.000  0.000  0.000  0.000  0.418
 
band     9 # energy   12.76282441 # occ.  0.00000000
 
ion      s     py     pz     px    dxy    dyz    dz2    dxz  x2-y2    tot
    1  0.000  0.006  0.000  0.005  0.000  0.000  0.000  0.000  0.000  0.011
    2  0.000  0.005  0.000  0.006  0.000  0.000  0.000  0.000  0.000  0.011
tot    0.000  0.011  0.000  0.011  0.000  0.000  0.000  0.000  0.000  0.022
 
band    10 # energy   19.57221574 # occ.  0.00000000
 
ion      s     py     pz     px    dxy    dyz    dz2    dxz  x2-y2    tot
    1  0.007  0.004  0.034  0.002  0.000  0.000  0.000  0.000  0.000  0.048
    2  0.043  0.021  0.004  0.024  0.000  0.000  0.000  0.000  0.000  0.091
tot    0.050  0.024  0.038  0.026  0.000  0.000  0.000  0.000  0.000  0.139
 
band    11 # energy   22.74855784 # occ.  0.00000000
 
ion      s     py     pz     px    dxy    dyz    dz2    dxz  x2-y2    tot
    1  0.020  0.011  0.048  0.018  0.000  0.000  0.000  0.000  0.000  0.097
    2  0.002  0.003  0.074  0.012  0.000  0.000  0.000  0.000  0.000  0.091
tot    0.022  0.014  0.122  0.030  0.000  0.000  0.000  0.000  0.000  0.188
 
band    12 # energy   24.71505920 # occ.  0.00000000
 
ion      s     py     pz     px    dxy    dyz    dz2    dxz  x2-y2    tot
    1  0.026  0.011  0.012  0.013  0.000  0.000  0.000  0.000  0.000  0.062
    2  0.004  0.008  0.040  0.022  0.000  0.000  0.000  0.000  0.000  0.075
tot    0.030  0.019  0.052  0.035  0.000  0.000  0.000  0.000  0.000  0.137
 

 k-point   154 :    0.27857143 0.27857143 0.55714286     weight = 0.00555556

band     1 # energy   -3.65615787 # occ.  2.00000000
 
ion      s     py     pz     px    dxy    dyz    dz2    dxz  x2-y2    tot
    1  0.211  0.009  0.004  0.009  0.000  0.000  0.000  0.000  0.000  0.233
    2  0.211  0.009  0.004  0.009  0.000  0.000  0.000  0.000  0.000  0.233
tot    0.421  0.018  0.008  0.018  0.000  0.000  0.000  0.000  0.000  0.466
 
band     2 # energy   -0.14411569 # occ.  2.00000000
 
ion      s     py     pz     px    dxy    dyz    dz2    dxz  x2-y2    tot
    1  0.162  0.018  0.041  0.018  0.000  0.000  0.000  0.000  0.000  0.238
    2  0.162  0.018  0.041  0.018  0.000  0.000  0.000  0.000  0.000  0.238
tot    0.325  0.035  0.082  0.035  0.000  0.000  0.000  0.000  0.000  0.477
 
band     3 # energy    1.75104312 # occ.  2.00000000
 
ion      s     py     pz     px    dxy    dyz    dz2    dxz  x2-y2    tot
    1  0.011  0.038  0.075  0.038  0.000  0.000  0.000  0.000  0.000  0.163
    2  0.011  0.038  0.075  0.038  0.000  0.000  0.000  0.000  0.000  0.163
tot    0.022  0.077  0.150  0.077  0.000  0.000  0.000  0.000  0.000  0.326
 
band     4 # energy    4.22246915 # occ.  2.00000000
 
ion      s     py     pz     px    dxy    dyz    dz2    dxz  x2-y2    tot
    1  0.000  0.104  0.000  0.104  0.000  0.000  0.000  0.000  0.000  0.209
    2  0.000  0.104  0.000  0.104  0.000  0.000  0.000  0.000  0.000  0.209
tot    0.000  0.209  0.000  0.209  0.000  0.000  0.000  0.000  0.000  0.417
 
band     5 # energy    7.97383967 # occ.  0.00000000
 
ion      s     py     pz     px    dxy    dyz    dz2    dxz  x2-y2    tot
    1  0.059  0.002  0.052  0.002  0.000  0.000  0.000  0.000  0.000  0.115
    2  0.059  0.002  0.052  0.002  0.000  0.000  0.000  0.000  0.000  0.115
tot    0.118  0.004  0.105  0.004  0.000  0.000  0.000  0.000  0.000  0.230
 
band     6 # energy   11.15378319 # occ.  0.00000000
 
ion      s     py     pz     px    dxy    dyz    dz2    dxz  x2-y2    tot
    1  0.000  0.075  0.000  0.075  0.000  0.000  0.000  0.000  0.000  0.149
    2  0.000  0.075  0.000  0.075  0.000  0.000  0.000  0.000  0.000  0.149
tot    0.000  0.149  0.000  0.149  0.000  0.000  0.000  0.000  0.000  0.299
 
band     7 # energy   11.49119744 # occ.  0.00000000
 
ion      s     py     pz     px    dxy    dyz    dz2    dxz  x2-y2    tot
    1  0.027  0.000  0.096  0.000  0.000  0.000  0.000  0.000  0.000  0.123
    2  0.027  0.000  0.096  0.000  0.000  0.000  0.000  0.000  0.000  0.123
tot    0.053  0.000  0.192  0.000  0.000  0.000  0.000  0.000  0.000  0.245
 
band     8 # energy   12.35957280 # occ.  0.00000000
 
ion      s     py     pz     px    dxy    dyz    dz2    dxz  x2-y2    tot
    1  0.074  0.050  0.031  0.050  0.000  0.000  0.000  0.000  0.000  0.205
    2  0.074  0.050  0.031  0.050  0.000  0.000  0.000  0.000  0.000  0.206
tot    0.147  0.101  0.062  0.101  0.000  0.000  0.000  0.000  0.000  0.411
 
band     9 # energy   12.61297253 # occ.  0.00000000
 
ion      s     py     pz     px    dxy    dyz    dz2    dxz  x2-y2    tot
    1  0.000  0.005  0.000  0.005  0.000  0.000  0.000  0.000  0.000  0.010
    2  0.000  0.005  0.000  0.005  0.000  0.000  0.000  0.000  0.000  0.010
tot    0.000  0.010  0.000  0.010  0.000  0.000  0.000  0.000  0.000  0.020
 
band    10 # energy   19.11586963 # occ.  0.00000000
 
ion      s     py     pz     px    dxy    dyz    dz2    dxz  x2-y2    tot
    1  0.042  0.015  0.003  0.016  0.000  0.000  0.000  0.000  0.000  0.076
    2  0.022  0.007  0.016  0.007  0.000  0.000  0.000  0.000  0.000  0.052
tot    0.064  0.022  0.019  0.022  0.000  0.000  0.000  0.000  0.000  0.128
 
band    11 # energy   19.92960500 # occ.  0.00000000
 
ion      s     py     pz     px    dxy    dyz    dz2    dxz  x2-y2    tot
    1  0.006  0.009  0.044  0.007  0.000  0.000  0.000  0.000  0.000  0.065
    2  0.043  0.034  0.006  0.045  0.000  0.000  0.000  0.000  0.000  0.129
tot    0.049  0.043  0.050  0.052  0.000  0.000  0.000  0.000  0.000  0.194
 
band    12 # energy   32.61571932 # occ.  0.00000000
 
ion      s     py     pz     px    dxy    dyz    dz2    dxz  x2-y2    tot
    1  0.015  0.009  0.001  0.015  0.000  0.000  0.000  0.000  0.000  0.040
    2  0.031  0.009  0.011  0.006  0.000  0.000  0.000  0.000  0.000  0.057
tot    0.046  0.018  0.013  0.021  0.000  0.000  0.000  0.000  0.000  0.097
 

 k-point   155 :    0.26785714 0.26785714 0.53571429     weight = 0.00555556

band     1 # energy   -3.81785040 # occ.  2.00000000
 
ion      s     py     pz     px    dxy    dyz    dz2    dxz  x2-y2    tot
    1  0.210  0.009  0.003  0.009  0.000  0.000  0.000  0.000  0.000  0.231
    2  0.210  0.009  0.003  0.009  0.000  0.000  0.000  0.000  0.000  0.231
tot    0.420  0.018  0.007  0.018  0.000  0.000  0.000  0.000  0.000  0.463
 
band     2 # energy    0.03595930 # occ.  2.00000000
 
ion      s     py     pz     px    dxy    dyz    dz2    dxz  x2-y2    tot
    1  0.159  0.019  0.040  0.019  0.000  0.000  0.000  0.000  0.000  0.238
    2  0.159  0.019  0.040  0.019  0.000  0.000  0.000  0.000  0.000  0.238
tot    0.319  0.038  0.081  0.038  0.000  0.000  0.000  0.000  0.000  0.476
 
band     3 # energy    1.86417407 # occ.  2.00000000
 
ion      s     py     pz     px    dxy    dyz    dz2    dxz  x2-y2    tot
    1  0.012  0.038  0.077  0.038  0.000  0.000  0.000  0.000  0.000  0.165
    2  0.012  0.038  0.077  0.038  0.000  0.000  0.000  0.000  0.000  0.165
tot    0.024  0.075  0.155  0.075  0.000  0.000  0.000  0.000  0.000  0.329
 
band     4 # energy    4.32776146 # occ.  2.00000000
 
ion      s     py     pz     px    dxy    dyz    dz2    dxz  x2-y2    tot
    1  0.000  0.105  0.000  0.105  0.000  0.000  0.000  0.000  0.000  0.210
    2  0.000  0.105  0.000  0.105  0.000  0.000  0.000  0.000  0.000  0.210
tot    0.000  0.210  0.000  0.210  0.000  0.000  0.000  0.000  0.000  0.420
 
band     5 # energy    8.09119381 # occ.  0.00000000
 
ion      s     py     pz     px    dxy    dyz    dz2    dxz  x2-y2    tot
    1  0.061  0.002  0.055  0.002  0.000  0.000  0.000  0.000  0.000  0.119
    2  0.061  0.002  0.055  0.002  0.000  0.000  0.000  0.000  0.000  0.119
tot    0.121  0.004  0.110  0.004  0.000  0.000  0.000  0.000  0.000  0.239
 
band     6 # energy   10.94887636 # occ.  0.00000000
 
ion      s     py     pz     px    dxy    dyz    dz2    dxz  x2-y2    tot
    1  0.000  0.075  0.000  0.075  0.000  0.000  0.000  0.000  0.000  0.149
    2  0.000  0.075  0.000  0.075  0.000  0.000  0.000  0.000  0.000  0.149
tot    0.000  0.149  0.000  0.149  0.000  0.000  0.000  0.000  0.000  0.298
 
band     7 # energy   11.29075539 # occ.  0.00000000
 
ion      s     py     pz     px    dxy    dyz    dz2    dxz  x2-y2    tot
    1  0.028  0.000  0.100  0.000  0.000  0.000  0.000  0.000  0.000  0.129
    2  0.028  0.000  0.100  0.000  0.000  0.000  0.000  0.000  0.000  0.129
tot    0.057  0.000  0.200  0.000  0.000  0.000  0.000  0.000  0.000  0.257
 
band     8 # energy   12.20900235 # occ.  0.00000000
 
ion      s     py     pz     px    dxy    dyz    dz2    dxz  x2-y2    tot
    1  0.075  0.049  0.029  0.049  0.000  0.000  0.000  0.000  0.000  0.201
    2  0.075  0.049  0.029  0.049  0.000  0.000  0.000  0.000  0.000  0.201
tot    0.149  0.098  0.058  0.098  0.000  0.000  0.000  0.000  0.000  0.403
 
band     9 # energy   12.47579474 # occ.  0.00000000
 
ion      s     py     pz     px    dxy    dyz    dz2    dxz  x2-y2    tot
    1  0.000  0.005  0.000  0.005  0.000  0.000  0.000  0.000  0.000  0.009
    2  0.000  0.005  0.000  0.005  0.000  0.000  0.000  0.000  0.000  0.009
tot    0.000  0.009  0.000  0.009  0.000  0.000  0.000  0.000  0.000  0.019
 
band    10 # energy   18.99231298 # occ.  0.00000000
 
ion      s     py     pz     px    dxy    dyz    dz2    dxz  x2-y2    tot
    1  0.006  0.006  0.014  0.005  0.000  0.000  0.000  0.000  0.000  0.031
    2  0.054  0.008  0.003  0.010  0.000  0.000  0.000  0.000  0.000  0.075
tot    0.060  0.014  0.016  0.015  0.000  0.000  0.000  0.000  0.000  0.106
 
band    11 # energy   19.76087065 # occ.  0.00000000
 
ion      s     py     pz     px    dxy    dyz    dz2    dxz  x2-y2    tot
    1  0.026  0.044  0.023  0.036  0.000  0.000  0.000  0.000  0.000  0.128
    2  0.021  0.033  0.031  0.039  0.000  0.000  0.000  0.000  0.000  0.124
tot    0.047  0.077  0.054  0.075  0.000  0.000  0.000  0.000  0.000  0.252
 
band    12 # energy   23.35125204 # occ.  0.00000000
 
ion      s     py     pz     px    dxy    dyz    dz2    dxz  x2-y2    tot
    1  0.004  0.040  0.028  0.076  0.000  0.000  0.000  0.000  0.000  0.147
    2  0.001  0.001  0.047  0.033  0.000  0.000  0.000  0.000  0.000  0.082
tot    0.005  0.040  0.075  0.109  0.000  0.000  0.000  0.000  0.000  0.230
 

 k-point   156 :    0.25714286 0.25714286 0.51428571     weight = 0.00555556

band     1 # energy   -3.97843249 # occ.  2.00000000
 
ion      s     py     pz     px    dxy    dyz    dz2    dxz  x2-y2    tot
    1  0.210  0.009  0.003  0.009  0.000  0.000  0.000  0.000  0.000  0.230
    2  0.210  0.009  0.003  0.009  0.000  0.000  0.000  0.000  0.000  0.230
tot    0.419  0.017  0.005  0.017  0.000  0.000  0.000  0.000  0.000  0.459
 
band     2 # energy    0.22405098 # occ.  2.00000000
 
ion      s     py     pz     px    dxy    dyz    dz2    dxz  x2-y2    tot
    1  0.156  0.021  0.040  0.021  0.000  0.000  0.000  0.000  0.000  0.238
    2  0.156  0.021  0.040  0.021  0.000  0.000  0.000  0.000  0.000  0.238
tot    0.312  0.042  0.080  0.042  0.000  0.000  0.000  0.000  0.000  0.476
 
band     3 # energy    1.98994167 # occ.  2.00000000
 
ion      s     py     pz     px    dxy    dyz    dz2    dxz  x2-y2    tot
    1  0.013  0.037  0.080  0.037  0.000  0.000  0.000  0.000  0.000  0.166
    2  0.013  0.037  0.080  0.037  0.000  0.000  0.000  0.000  0.000  0.166
tot    0.026  0.074  0.160  0.074  0.000  0.000  0.000  0.000  0.000  0.333
 
band     4 # energy    4.43401467 # occ.  2.00000000
 
ion      s     py     pz     px    dxy    dyz    dz2    dxz  x2-y2    tot
    1  0.000  0.106  0.000  0.106  0.000  0.000  0.000  0.000  0.000  0.211
    2  0.000  0.106  0.000  0.106  0.000  0.000  0.000  0.000  0.000  0.211
tot    0.000  0.211  0.000  0.211  0.000  0.000  0.000  0.000  0.000  0.422
 
band     5 # energy    8.20729177 # occ.  0.00000000
 
ion      s     py     pz     px    dxy    dyz    dz2    dxz  x2-y2    tot
    1  0.063  0.002  0.058  0.002  0.000  0.000  0.000  0.000  0.000  0.124
    2  0.063  0.002  0.058  0.002  0.000  0.000  0.000  0.000  0.000  0.124
tot    0.126  0.004  0.116  0.004  0.000  0.000  0.000  0.000  0.000  0.249
 
band     6 # energy   10.75142921 # occ.  0.00000000
 
ion      s     py     pz     px    dxy    dyz    dz2    dxz  x2-y2    tot
    1  0.000  0.075  0.000  0.075  0.000  0.000  0.000  0.000  0.000  0.149
    2  0.000  0.075  0.000  0.075  0.000  0.000  0.000  0.000  0.000  0.149
tot    0.000  0.149  0.000  0.149  0.000  0.000  0.000  0.000  0.000  0.298
 
band     7 # energy   11.09360517 # occ.  0.00000000
 
ion      s     py     pz     px    dxy    dyz    dz2    dxz  x2-y2    tot
    1  0.030  0.000  0.103  0.000  0.000  0.000  0.000  0.000  0.000  0.133
    2  0.030  0.000  0.103  0.000  0.000  0.000  0.000  0.000  0.000  0.133
tot    0.059  0.001  0.206  0.001  0.000  0.000  0.000  0.000  0.000  0.266
 
band     8 # energy   12.07014178 # occ.  0.00000000
 
ion      s     py     pz     px    dxy    dyz    dz2    dxz  x2-y2    tot
    1  0.075  0.048  0.027  0.048  0.000  0.000  0.000  0.000  0.000  0.197
    2  0.075  0.048  0.027  0.048  0.000  0.000  0.000  0.000  0.000  0.197
tot    0.150  0.095  0.053  0.095  0.000  0.000  0.000  0.000  0.000  0.394
 
band     9 # energy   12.35205758 # occ.  0.00000000
 
ion      s     py     pz     px    dxy    dyz    dz2    dxz  x2-y2    tot
    1  0.000  0.004  0.000  0.004  0.000  0.000  0.000  0.000  0.000  0.008
    2  0.000  0.004  0.000  0.004  0.000  0.000  0.000  0.000  0.000  0.008
tot    0.000  0.008  0.000  0.008  0.000  0.000  0.000  0.000  0.000  0.017
 
band    10 # energy   15.19553804 # occ.  0.00000000
 
ion      s     py     pz     px    dxy    dyz    dz2    dxz  x2-y2    tot
    1  0.007  0.052  0.037  0.052  0.000  0.000  0.000  0.000  0.000  0.148
    2  0.007  0.052  0.037  0.052  0.000  0.000  0.000  0.000  0.000  0.148
tot    0.013  0.104  0.074  0.104  0.000  0.000  0.000  0.000  0.000  0.296
 
band    11 # energy   18.66228596 # occ.  0.00000000
 
ion      s     py     pz     px    dxy    dyz    dz2    dxz  x2-y2    tot
    1  0.015  0.003  0.012  0.003  0.000  0.000  0.000  0.000  0.000  0.033
    2  0.049  0.008  0.003  0.008  0.000  0.000  0.000  0.000  0.000  0.069
tot    0.064  0.012  0.015  0.012  0.000  0.000  0.000  0.000  0.000  0.102
 
band    12 # energy   22.97085521 # occ.  0.00000000
 
ion      s     py     pz     px    dxy    dyz    dz2    dxz  x2-y2    tot
    1  0.004  0.015  0.045  0.006  0.000  0.000  0.000  0.000  0.000  0.070
    2  0.003  0.031  0.060  0.005  0.000  0.000  0.000  0.000  0.000  0.099
tot    0.006  0.046  0.105  0.012  0.000  0.000  0.000  0.000  0.000  0.169
 

 k-point   157 :    0.24642857 0.24642857 0.49285714     weight = 0.00555556

band     1 # energy   -4.13686890 # occ.  2.00000000
 
ion      s     py     pz     px    dxy    dyz    dz2    dxz  x2-y2    tot
    1  0.209  0.008  0.002  0.008  0.000  0.000  0.000  0.000  0.000  0.228
    2  0.209  0.008  0.002  0.008  0.000  0.000  0.000  0.000  0.000  0.228
tot    0.418  0.017  0.004  0.017  0.000  0.000  0.000  0.000  0.000  0.456
 
band     2 # energy    0.42008444 # occ.  2.00000000
 
ion      s     py     pz     px    dxy    dyz    dz2    dxz  x2-y2    tot
    1  0.153  0.023  0.039  0.023  0.000  0.000  0.000  0.000  0.000  0.238
    2  0.153  0.023  0.039  0.023  0.000  0.000  0.000  0.000  0.000  0.238
tot    0.306  0.046  0.079  0.046  0.000  0.000  0.000  0.000  0.000  0.476
 
band     3 # energy    2.12724181 # occ.  2.00000000
 
ion      s     py     pz     px    dxy    dyz    dz2    dxz  x2-y2    tot
    1  0.014  0.036  0.082  0.036  0.000  0.000  0.000  0.000  0.000  0.168
    2  0.014  0.036  0.082  0.036  0.000  0.000  0.000  0.000  0.000  0.168
tot    0.027  0.072  0.165  0.072  0.000  0.000  0.000  0.000  0.000  0.336
 
band     4 # energy    4.54053834 # occ.  2.00000000
 
ion      s     py     pz     px    dxy    dyz    dz2    dxz  x2-y2    tot
    1  0.000  0.106  0.000  0.106  0.000  0.000  0.000  0.000  0.000  0.212
    2  0.000  0.106  0.000  0.106  0.000  0.000  0.000  0.000  0.000  0.212
tot    0.000  0.212  0.000  0.212  0.000  0.000  0.000  0.000  0.000  0.425
 
band     5 # energy    8.32059593 # occ.  0.00000000
 
ion      s     py     pz     px    dxy    dyz    dz2    dxz  x2-y2    tot
    1  0.065  0.002  0.061  0.002  0.000  0.000  0.000  0.000  0.000  0.130
    2  0.065  0.002  0.061  0.002  0.000  0.000  0.000  0.000  0.000  0.130
tot    0.131  0.003  0.122  0.003  0.000  0.000  0.000  0.000  0.000  0.260
 
band     6 # energy   10.56149593 # occ.  0.00000000
 
ion      s     py     pz     px    dxy    dyz    dz2    dxz  x2-y2    tot
    1  0.000  0.074  0.000  0.074  0.000  0.000  0.000  0.000  0.000  0.149
    2  0.000  0.074  0.000  0.074  0.000  0.000  0.000  0.000  0.000  0.149
tot    0.000  0.149  0.000  0.149  0.000  0.000  0.000  0.000  0.000  0.298
 
band     7 # energy   10.90157420 # occ.  0.00000000
 
ion      s     py     pz     px    dxy    dyz    dz2    dxz  x2-y2    tot
    1  0.031  0.001  0.105  0.001  0.000  0.000  0.000  0.000  0.000  0.137
    2  0.031  0.001  0.105  0.001  0.000  0.000  0.000  0.000  0.000  0.137
tot    0.061  0.001  0.209  0.001  0.000  0.000  0.000  0.000  0.000  0.273
 
band     8 # energy   11.94430039 # occ.  0.00000000
 
ion      s     py     pz     px    dxy    dyz    dz2    dxz  x2-y2    tot
    1  0.075  0.046  0.024  0.046  0.000  0.000  0.000  0.000  0.000  0.192
    2  0.075  0.046  0.024  0.046  0.000  0.000  0.000  0.000  0.000  0.192
tot    0.150  0.093  0.048  0.093  0.000  0.000  0.000  0.000  0.000  0.384
 
band     9 # energy   12.24221929 # occ.  0.00000000
 
ion      s     py     pz     px    dxy    dyz    dz2    dxz  x2-y2    tot
    1  0.000  0.004  0.000  0.004  0.000  0.000  0.000  0.000  0.000  0.007
    2  0.000  0.004  0.000  0.004  0.000  0.000  0.000  0.000  0.000  0.007
tot    0.000  0.007  0.000  0.007  0.000  0.000  0.000  0.000  0.000  0.015
 
band    10 # energy   15.60642115 # occ.  0.00000000
 
ion      s     py     pz     px    dxy    dyz    dz2    dxz  x2-y2    tot
    1  0.003  0.053  0.038  0.053  0.000  0.000  0.000  0.000  0.000  0.148
    2  0.003  0.053  0.038  0.053  0.000  0.000  0.000  0.000  0.000  0.147
tot    0.007  0.106  0.076  0.106  0.000  0.000  0.000  0.000  0.000  0.295
 
band    11 # energy   18.53923250 # occ.  0.00000000
 
ion      s     py     pz     px    dxy    dyz    dz2    dxz  x2-y2    tot
    1  0.063  0.039  0.022  0.039  0.000  0.000  0.000  0.000  0.000  0.164
    2  0.052  0.037  0.026  0.037  0.000  0.000  0.000  0.000  0.000  0.152
tot    0.115  0.077  0.048  0.077  0.000  0.000  0.000  0.000  0.000  0.316
 
band    12 # energy   19.23858451 # occ.  0.00000000
 
ion      s     py     pz     px    dxy    dyz    dz2    dxz  x2-y2    tot
    1  0.032  0.001  0.010  0.001  0.000  0.000  0.000  0.000  0.000  0.045
    2  0.037  0.006  0.005  0.006  0.000  0.000  0.000  0.000  0.000  0.054
tot    0.069  0.007  0.015  0.007  0.000  0.000  0.000  0.000  0.000  0.099
 

 k-point   158 :    0.23571429 0.23571429 0.47142857     weight = 0.00555556

band     1 # energy   -4.29228185 # occ.  2.00000000
 
ion      s     py     pz     px    dxy    dyz    dz2    dxz  x2-y2    tot
    1  0.209  0.008  0.002  0.008  0.000  0.000  0.000  0.000  0.000  0.227
    2  0.209  0.008  0.002  0.008  0.000  0.000  0.000  0.000  0.000  0.227
tot    0.418  0.016  0.003  0.016  0.000  0.000  0.000  0.000  0.000  0.453
 
band     2 # energy    0.62396238 # occ.  2.00000000
 
ion      s     py     pz     px    dxy    dyz    dz2    dxz  x2-y2    tot
    1  0.149  0.025  0.039  0.025  0.000  0.000  0.000  0.000  0.000  0.238
    2  0.149  0.025  0.039  0.025  0.000  0.000  0.000  0.000  0.000  0.238
tot    0.299  0.050  0.077  0.050  0.000  0.000  0.000  0.000  0.000  0.475
 
band     3 # energy    2.27506369 # occ.  2.00000000
 
ion      s     py     pz     px    dxy    dyz    dz2    dxz  x2-y2    tot
    1  0.014  0.036  0.085  0.036  0.000  0.000  0.000  0.000  0.000  0.170
    2  0.014  0.036  0.085  0.036  0.000  0.000  0.000  0.000  0.000  0.170
tot    0.028  0.071  0.170  0.071  0.000  0.000  0.000  0.000  0.000  0.340
 
band     4 # energy    4.64662453 # occ.  2.00000000
 
ion      s     py     pz     px    dxy    dyz    dz2    dxz  x2-y2    tot
    1  0.000  0.107  0.000  0.107  0.000  0.000  0.000  0.000  0.000  0.214
    2  0.000  0.107  0.000  0.107  0.000  0.000  0.000  0.000  0.000  0.214
tot    0.000  0.214  0.000  0.214  0.000  0.000  0.000  0.000  0.000  0.427
 
band     5 # energy    8.42896692 # occ.  0.00000000
 
ion      s     py     pz     px    dxy    dyz    dz2    dxz  x2-y2    tot
    1  0.068  0.002  0.065  0.002  0.000  0.000  0.000  0.000  0.000  0.136
    2  0.068  0.002  0.065  0.002  0.000  0.000  0.000  0.000  0.000  0.136
tot    0.137  0.003  0.130  0.003  0.000  0.000  0.000  0.000  0.000  0.273
 
band     6 # energy   10.37924381 # occ.  0.00000000
 
ion      s     py     pz     px    dxy    dyz    dz2    dxz  x2-y2    tot
    1  0.000  0.074  0.000  0.074  0.000  0.000  0.000  0.000  0.000  0.149
    2  0.000  0.074  0.000  0.074  0.000  0.000  0.000  0.000  0.000  0.149
tot    0.000  0.149  0.000  0.149  0.000  0.000  0.000  0.000  0.000  0.298
 
band     7 # energy   10.71559094 # occ.  0.00000000
 
ion      s     py     pz     px    dxy    dyz    dz2    dxz  x2-y2    tot
    1  0.031  0.001  0.106  0.001  0.000  0.000  0.000  0.000  0.000  0.140
    2  0.031  0.001  0.106  0.001  0.000  0.000  0.000  0.000  0.000  0.140
tot    0.062  0.003  0.212  0.003  0.000  0.000  0.000  0.000  0.000  0.279
 
band     8 # energy   11.83268685 # occ.  0.00000000
 
ion      s     py     pz     px    dxy    dyz    dz2    dxz  x2-y2    tot
    1  0.075  0.046  0.021  0.046  0.000  0.000  0.000  0.000  0.000  0.187
    2  0.075  0.046  0.021  0.046  0.000  0.000  0.000  0.000  0.000  0.187
tot    0.150  0.091  0.042  0.091  0.000  0.000  0.000  0.000  0.000  0.374
 
band     9 # energy   12.14737261 # occ.  0.00000000
 
ion      s     py     pz     px    dxy    dyz    dz2    dxz  x2-y2    tot
    1  0.000  0.003  0.000  0.003  0.000  0.000  0.000  0.000  0.000  0.006
    2  0.000  0.003  0.000  0.003  0.000  0.000  0.000  0.000  0.000  0.006
tot    0.000  0.006  0.000  0.006  0.000  0.000  0.000  0.000  0.000  0.013
 
band    10 # energy   15.96837221 # occ.  0.00000000
 
ion      s     py     pz     px    dxy    dyz    dz2    dxz  x2-y2    tot
    1  0.001  0.053  0.039  0.053  0.000  0.000  0.000  0.000  0.000  0.147
    2  0.001  0.054  0.039  0.054  0.000  0.000  0.000  0.000  0.000  0.148
tot    0.002  0.107  0.078  0.107  0.000  0.000  0.000  0.000  0.000  0.295
 
band    11 # energy   18.15390135 # occ.  0.00000000
 
ion      s     py     pz     px    dxy    dyz    dz2    dxz  x2-y2    tot
    1  0.056  0.015  0.012  0.015  0.000  0.000  0.000  0.000  0.000  0.098
    2  0.044  0.014  0.014  0.014  0.000  0.000  0.000  0.000  0.000  0.086
tot    0.101  0.029  0.026  0.029  0.000  0.000  0.000  0.000  0.000  0.184
 
band    12 # energy   22.24368015 # occ.  0.00000000
 
ion      s     py     pz     px    dxy    dyz    dz2    dxz  x2-y2    tot
    1  0.003  0.014  0.012  0.006  0.000  0.000  0.000  0.000  0.000  0.035
    2  0.006  0.055  0.045  0.029  0.000  0.000  0.000  0.000  0.000  0.135
tot    0.009  0.069  0.058  0.035  0.000  0.000  0.000  0.000  0.000  0.170
 

 k-point   159 :    0.22500000 0.22500000 0.45000000     weight = 0.00555556

band     1 # energy   -4.44391250 # occ.  2.00000000
 
ion      s     py     pz     px    dxy    dyz    dz2    dxz  x2-y2    tot
    1  0.209  0.008  0.001  0.008  0.000  0.000  0.000  0.000  0.000  0.225
    2  0.209  0.008  0.001  0.008  0.000  0.000  0.000  0.000  0.000  0.225
tot    0.418  0.015  0.003  0.015  0.000  0.000  0.000  0.000  0.000  0.451
 
band     2 # energy    0.83557699 # occ.  2.00000000
 
ion      s     py     pz     px    dxy    dyz    dz2    dxz  x2-y2    tot
    1  0.146  0.027  0.038  0.027  0.000  0.000  0.000  0.000  0.000  0.237
    2  0.146  0.027  0.038  0.027  0.000  0.000  0.000  0.000  0.000  0.237
tot    0.291  0.054  0.076  0.054  0.000  0.000  0.000  0.000  0.000  0.475
 
band     3 # energy    2.43247406 # occ.  2.00000000
 
ion      s     py     pz     px    dxy    dyz    dz2    dxz  x2-y2    tot
    1  0.014  0.035  0.087  0.035  0.000  0.000  0.000  0.000  0.000  0.172
    2  0.014  0.035  0.087  0.035  0.000  0.000  0.000  0.000  0.000  0.172
tot    0.028  0.070  0.175  0.070  0.000  0.000  0.000  0.000  0.000  0.343
 
band     4 # energy    4.75149961 # occ.  2.00000000
 
ion      s     py     pz     px    dxy    dyz    dz2    dxz  x2-y2    tot
    1  0.000  0.107  0.000  0.107  0.000  0.000  0.000  0.000  0.000  0.215
    2  0.000  0.107  0.000  0.107  0.000  0.000  0.000  0.000  0.000  0.215
tot    0.000  0.215  0.000  0.215  0.000  0.000  0.000  0.000  0.000  0.430
 
band     5 # energy    8.53044835 # occ.  0.00000000
 
ion      s     py     pz     px    dxy    dyz    dz2    dxz  x2-y2    tot
    1  0.072  0.001  0.069  0.001  0.000  0.000  0.000  0.000  0.000  0.143
    2  0.072  0.001  0.069  0.001  0.000  0.000  0.000  0.000  0.000  0.143
tot    0.143  0.003  0.138  0.003  0.000  0.000  0.000  0.000  0.000  0.287
 
band     6 # energy   10.20471361 # occ.  0.00000000
 
ion      s     py     pz     px    dxy    dyz    dz2    dxz  x2-y2    tot
    1  0.000  0.075  0.000  0.075  0.000  0.000  0.000  0.000  0.000  0.149
    2  0.000  0.075  0.000  0.075  0.000  0.000  0.000  0.000  0.000  0.149
tot    0.000  0.149  0.000  0.149  0.000  0.000  0.000  0.000  0.000  0.298
 
band     7 # energy   10.53612485 # occ.  0.00000000
 
ion      s     py     pz     px    dxy    dyz    dz2    dxz  x2-y2    tot
    1  0.031  0.002  0.107  0.002  0.000  0.000  0.000  0.000  0.000  0.142
    2  0.031  0.002  0.107  0.002  0.000  0.000  0.000  0.000  0.000  0.142
tot    0.063  0.004  0.213  0.004  0.000  0.000  0.000  0.000  0.000  0.285
 
band     8 # energy   11.73664063 # occ.  0.00000000
 
ion      s     py     pz     px    dxy    dyz    dz2    dxz  x2-y2    tot
    1  0.074  0.045  0.018  0.045  0.000  0.000  0.000  0.000  0.000  0.182
    2  0.074  0.045  0.018  0.045  0.000  0.000  0.000  0.000  0.000  0.182
tot    0.148  0.090  0.035  0.090  0.000  0.000  0.000  0.000  0.000  0.363
 
band     9 # energy   12.06804866 # occ.  0.00000000
 
ion      s     py     pz     px    dxy    dyz    dz2    dxz  x2-y2    tot
    1  0.000  0.003  0.000  0.003  0.000  0.000  0.000  0.000  0.000  0.005
    2  0.000  0.003  0.000  0.003  0.000  0.000  0.000  0.000  0.000  0.005
tot    0.000  0.005  0.000  0.005  0.000  0.000  0.000  0.000  0.000  0.011
 
band    10 # energy   16.25780351 # occ.  0.00000000
 
ion      s     py     pz     px    dxy    dyz    dz2    dxz  x2-y2    tot
    1  0.000  0.054  0.040  0.054  0.000  0.000  0.000  0.000  0.000  0.147
    2  0.000  0.053  0.040  0.053  0.000  0.000  0.000  0.000  0.000  0.145
tot    0.000  0.106  0.080  0.106  0.000  0.000  0.000  0.000  0.000  0.293
 
band    11 # energy   17.75031359 # occ.  0.00000000
 
ion      s     py     pz     px    dxy    dyz    dz2    dxz  x2-y2    tot
    1  0.068  0.037  0.024  0.037  0.000  0.000  0.000  0.000  0.000  0.166
    2  0.065  0.037  0.024  0.037  0.000  0.000  0.000  0.000  0.000  0.162
tot    0.133  0.074  0.048  0.074  0.000  0.000  0.000  0.000  0.000  0.328
 
band    12 # energy   21.67917769 # occ.  0.00000000
 
ion      s     py     pz     px    dxy    dyz    dz2    dxz  x2-y2    tot
    1  0.000  0.029  0.003  0.021  0.000  0.000  0.000  0.000  0.000  0.054
    2  0.001  0.030  0.019  0.035  0.000  0.000  0.000  0.000  0.000  0.086
tot    0.002  0.059  0.023  0.057  0.000  0.000  0.000  0.000  0.000  0.140
 

 k-point   160 :    0.21428571 0.21428571 0.42857143     weight = 0.00555556

band     1 # energy   -4.59110858 # occ.  2.00000000
 
ion      s     py     pz     px    dxy    dyz    dz2    dxz  x2-y2    tot
    1  0.209  0.007  0.001  0.007  0.000  0.000  0.000  0.000  0.000  0.224
    2  0.209  0.007  0.001  0.007  0.000  0.000  0.000  0.000  0.000  0.224
tot    0.418  0.014  0.002  0.014  0.000  0.000  0.000  0.000  0.000  0.448
 
band     2 # energy    1.05480242 # occ.  2.00000000
 
ion      s     py     pz     px    dxy    dyz    dz2    dxz  x2-y2    tot
    1  0.142  0.029  0.038  0.029  0.000  0.000  0.000  0.000  0.000  0.237
    2  0.142  0.029  0.038  0.029  0.000  0.000  0.000  0.000  0.000  0.237
tot    0.284  0.058  0.075  0.058  0.000  0.000  0.000  0.000  0.000  0.474
 
band     3 # energy    2.59859299 # occ.  2.00000000
 
ion      s     py     pz     px    dxy    dyz    dz2    dxz  x2-y2    tot
    1  0.014  0.035  0.090  0.035  0.000  0.000  0.000  0.000  0.000  0.173
    2  0.014  0.035  0.090  0.035  0.000  0.000  0.000  0.000  0.000  0.173
tot    0.028  0.069  0.180  0.069  0.000  0.000  0.000  0.000  0.000  0.347
 
band     4 # energy    4.85437687 # occ.  2.00000000
 
ion      s     py     pz     px    dxy    dyz    dz2    dxz  x2-y2    tot
    1  0.000  0.108  0.000  0.108  0.000  0.000  0.000  0.000  0.000  0.216
    2  0.000  0.108  0.000  0.108  0.000  0.000  0.000  0.000  0.000  0.216
tot    0.000  0.216  0.000  0.216  0.000  0.000  0.000  0.000  0.000  0.432
 
band     5 # energy    8.62283930 # occ.  0.00000000
 
ion      s     py     pz     px    dxy    dyz    dz2    dxz  x2-y2    tot
    1  0.076  0.001  0.073  0.001  0.000  0.000  0.000  0.000  0.000  0.151
    2  0.076  0.001  0.073  0.001  0.000  0.000  0.000  0.000  0.000  0.151
tot    0.151  0.002  0.146  0.002  0.000  0.000  0.000  0.000  0.000  0.302
 
band     6 # energy   10.03797336 # occ.  0.00000000
 
ion      s     py     pz     px    dxy    dyz    dz2    dxz  x2-y2    tot
    1  0.000  0.075  0.000  0.075  0.000  0.000  0.000  0.000  0.000  0.149
    2  0.000  0.075  0.000  0.075  0.000  0.000  0.000  0.000  0.000  0.149
tot    0.000  0.149  0.000  0.149  0.000  0.000  0.000  0.000  0.000  0.298
 
band     7 # energy   10.36343855 # occ.  0.00000000
 
ion      s     py     pz     px    dxy    dyz    dz2    dxz  x2-y2    tot
    1  0.032  0.003  0.107  0.003  0.000  0.000  0.000  0.000  0.000  0.144
    2  0.032  0.003  0.107  0.003  0.000  0.000  0.000  0.000  0.000  0.144
tot    0.063  0.006  0.214  0.006  0.000  0.000  0.000  0.000  0.000  0.289
 
band     8 # energy   11.65728518 # occ.  0.00000000
 
ion      s     py     pz     px    dxy    dyz    dz2    dxz  x2-y2    tot
    1  0.073  0.045  0.014  0.045  0.000  0.000  0.000  0.000  0.000  0.176
    2  0.073  0.045  0.014  0.045  0.000  0.000  0.000  0.000  0.000  0.176
tot    0.146  0.089  0.028  0.089  0.000  0.000  0.000  0.000  0.000  0.352
 
band     9 # energy   12.00494861 # occ.  0.00000000
 
ion      s     py     pz     px    dxy    dyz    dz2    dxz  x2-y2    tot
    1  0.000  0.002  0.000  0.002  0.000  0.000  0.000  0.000  0.000  0.004
    2  0.000  0.002  0.000  0.002  0.000  0.000  0.000  0.000  0.000  0.004
tot    0.000  0.004  0.000  0.004  0.000  0.000  0.000  0.000  0.000  0.009
 
band    10 # energy   16.45338790 # occ.  0.00000000
 
ion      s     py     pz     px    dxy    dyz    dz2    dxz  x2-y2    tot
    1  0.002  0.051  0.040  0.051  0.000  0.000  0.000  0.000  0.000  0.143
    2  0.002  0.051  0.040  0.051  0.000  0.000  0.000  0.000  0.000  0.144
tot    0.003  0.102  0.080  0.102  0.000  0.000  0.000  0.000  0.000  0.288
 
band    11 # energy   19.13288306 # occ.  0.00000000
 
ion      s     py     pz     px    dxy    dyz    dz2    dxz  x2-y2    tot
    1  0.019  0.002  0.001  0.002  0.000  0.000  0.000  0.000  0.000  0.024
    2  0.046  0.009  0.002  0.009  0.000  0.000  0.000  0.000  0.000  0.066
tot    0.065  0.011  0.003  0.011  0.000  0.000  0.000  0.000  0.000  0.090
 
band    12 # energy   23.88381155 # occ.  0.00000000
 
ion      s     py     pz     px    dxy    dyz    dz2    dxz  x2-y2    tot
    1  0.002  0.037  0.093  0.021  0.000  0.000  0.000  0.000  0.000  0.153
    2  0.000  0.010  0.091  0.006  0.000  0.000  0.000  0.000  0.000  0.108
tot    0.003  0.047  0.184  0.028  0.000  0.000  0.000  0.000  0.000  0.261
 

 k-point   161 :    0.20357143 0.20357143 0.40714286     weight = 0.00555556

band     1 # energy   -4.73332091 # occ.  2.00000000
 
ion      s     py     pz     px    dxy    dyz    dz2    dxz  x2-y2    tot
    1  0.209  0.007  0.001  0.007  0.000  0.000  0.000  0.000  0.000  0.223
    2  0.209  0.007  0.001  0.007  0.000  0.000  0.000  0.000  0.000  0.223
tot    0.418  0.013  0.002  0.013  0.000  0.000  0.000  0.000  0.000  0.446
 
band     2 # energy    1.28150263 # occ.  2.00000000
 
ion      s     py     pz     px    dxy    dyz    dz2    dxz  x2-y2    tot
    1  0.138  0.031  0.037  0.031  0.000  0.000  0.000  0.000  0.000  0.237
    2  0.138  0.031  0.037  0.031  0.000  0.000  0.000  0.000  0.000  0.237
tot    0.275  0.062  0.074  0.062  0.000  0.000  0.000  0.000  0.000  0.474
 
band     3 # energy    2.77257743 # occ.  2.00000000
 
ion      s     py     pz     px    dxy    dyz    dz2    dxz  x2-y2    tot
    1  0.014  0.034  0.093  0.034  0.000  0.000  0.000  0.000  0.000  0.175
    2  0.014  0.034  0.093  0.034  0.000  0.000  0.000  0.000  0.000  0.175
tot    0.027  0.068  0.186  0.068  0.000  0.000  0.000  0.000  0.000  0.350
 
band     4 # energy    4.95446428 # occ.  2.00000000
 
ion      s     py     pz     px    dxy    dyz    dz2    dxz  x2-y2    tot
    1  0.000  0.109  0.000  0.109  0.000  0.000  0.000  0.000  0.000  0.217
    2  0.000  0.109  0.000  0.109  0.000  0.000  0.000  0.000  0.000  0.217
tot    0.000  0.217  0.000  0.217  0.000  0.000  0.000  0.000  0.000  0.434
 
band     5 # energy    8.70398425 # occ.  0.00000000
 
ion      s     py     pz     px    dxy    dyz    dz2    dxz  x2-y2    tot
    1  0.080  0.001  0.078  0.001  0.000  0.000  0.000  0.000  0.000  0.159
    2  0.080  0.001  0.078  0.001  0.000  0.000  0.000  0.000  0.000  0.159
tot    0.160  0.002  0.155  0.002  0.000  0.000  0.000  0.000  0.000  0.319
 
band     6 # energy    9.87908414 # occ.  0.00000000
 
ion      s     py     pz     px    dxy    dyz    dz2    dxz  x2-y2    tot
    1  0.000  0.075  0.000  0.075  0.000  0.000  0.000  0.000  0.000  0.149
    2  0.000  0.075  0.000  0.075  0.000  0.000  0.000  0.000  0.000  0.149
tot    0.000  0.149  0.000  0.149  0.000  0.000  0.000  0.000  0.000  0.298
 
band     7 # energy   10.19768203 # occ.  0.00000000
 
ion      s     py     pz     px    dxy    dyz    dz2    dxz  x2-y2    tot
    1  0.032  0.004  0.106  0.004  0.000  0.000  0.000  0.000  0.000  0.146
    2  0.032  0.004  0.106  0.004  0.000  0.000  0.000  0.000  0.000  0.146
tot    0.063  0.008  0.213  0.008  0.000  0.000  0.000  0.000  0.000  0.293
 
band     8 # energy   11.60011553 # occ.  0.00000000
 
ion      s     py     pz     px    dxy    dyz    dz2    dxz  x2-y2    tot
    1  0.071  0.046  0.010  0.042  0.000  0.000  0.000  0.000  0.000  0.169
    2  0.071  0.046  0.010  0.042  0.000  0.000  0.000  0.000  0.000  0.169
tot    0.141  0.092  0.021  0.084  0.000  0.000  0.000  0.000  0.000  0.338
 
band     9 # energy   16.57382569 # occ.  0.00000000
 
ion      s     py     pz     px    dxy    dyz    dz2    dxz  x2-y2    tot
    1  0.003  0.035  0.045  0.034  0.000  0.000  0.000  0.000  0.000  0.116
    2  0.017  0.061  0.027  0.062  0.000  0.000  0.000  0.000  0.000  0.168
tot    0.020  0.096  0.072  0.096  0.000  0.000  0.000  0.000  0.000  0.284
 
band    10 # energy   17.46338725 # occ.  0.00000000
 
ion      s     py     pz     px    dxy    dyz    dz2    dxz  x2-y2    tot
    1  0.052  0.013  0.008  0.013  0.000  0.000  0.000  0.000  0.000  0.085
    2  0.040  0.010  0.014  0.010  0.000  0.000  0.000  0.000  0.000  0.074
tot    0.093  0.023  0.021  0.023  0.000  0.000  0.000  0.000  0.000  0.160
 
band    11 # energy   24.66605250 # occ.  0.00000000
 
ion      s     py     pz     px    dxy    dyz    dz2    dxz  x2-y2    tot
    1  0.003  0.009  0.055  0.019  0.000  0.000  0.000  0.000  0.000  0.086
    2  0.000  0.014  0.087  0.008  0.000  0.000  0.000  0.000  0.000  0.110
tot    0.003  0.024  0.142  0.027  0.000  0.000  0.000  0.000  0.000  0.196
 
band    12 # energy   33.28856934 # occ.  0.00000000
 
ion      s     py     pz     px    dxy    dyz    dz2    dxz  x2-y2    tot
    1  0.041  0.010  0.021  0.010  0.000  0.000  0.000  0.000  0.000  0.081
    2  0.021  0.011  0.009  0.014  0.000  0.000  0.000  0.000  0.000  0.055
tot    0.062  0.021  0.030  0.024  0.000  0.000  0.000  0.000  0.000  0.136
 

 k-point   162 :    0.19285714 0.19285714 0.38571429     weight = 0.00555556

band     1 # energy   -4.87008741 # occ.  2.00000000
 
ion      s     py     pz     px    dxy    dyz    dz2    dxz  x2-y2    tot
    1  0.209  0.006  0.001  0.006  0.000  0.000  0.000  0.000  0.000  0.222
    2  0.209  0.006  0.001  0.006  0.000  0.000  0.000  0.000  0.000  0.222
tot    0.418  0.012  0.001  0.012  0.000  0.000  0.000  0.000  0.000  0.444
 
band     2 # energy    1.51548474 # occ.  2.00000000
 
ion      s     py     pz     px    dxy    dyz    dz2    dxz  x2-y2    tot
    1  0.133  0.033  0.036  0.033  0.000  0.000  0.000  0.000  0.000  0.236
    2  0.133  0.033  0.036  0.033  0.000  0.000  0.000  0.000  0.000  0.236
tot    0.267  0.067  0.072  0.067  0.000  0.000  0.000  0.000  0.000  0.473
 
band     3 # energy    2.95358273 # occ.  2.00000000
 
ion      s     py     pz     px    dxy    dyz    dz2    dxz  x2-y2    tot
    1  0.013  0.034  0.096  0.034  0.000  0.000  0.000  0.000  0.000  0.177
    2  0.013  0.034  0.096  0.034  0.000  0.000  0.000  0.000  0.000  0.177
tot    0.026  0.068  0.192  0.068  0.000  0.000  0.000  0.000  0.000  0.354
 
band     4 # energy    5.05096103 # occ.  2.00000000
 
ion      s     py     pz     px    dxy    dyz    dz2    dxz  x2-y2    tot
    1  0.000  0.109  0.000  0.109  0.000  0.000  0.000  0.000  0.000  0.218
    2  0.000  0.109  0.000  0.109  0.000  0.000  0.000  0.000  0.000  0.218
tot    0.000  0.218  0.000  0.218  0.000  0.000  0.000  0.000  0.000  0.436
 
band     5 # energy    8.77199604 # occ.  0.00000000
 
ion      s     py     pz     px    dxy    dyz    dz2    dxz  x2-y2    tot
    1  0.084  0.001  0.082  0.001  0.000  0.000  0.000  0.000  0.000  0.168
    2  0.084  0.001  0.082  0.001  0.000  0.000  0.000  0.000  0.000  0.168
tot    0.169  0.002  0.164  0.002  0.000  0.000  0.000  0.000  0.000  0.335
 
band     6 # energy    9.72808172 # occ.  0.00000000
 
ion      s     py     pz     px    dxy    dyz    dz2    dxz  x2-y2    tot
    1  0.000  0.075  0.000  0.075  0.000  0.000  0.000  0.000  0.000  0.149
    2  0.000  0.075  0.000  0.075  0.000  0.000  0.000  0.000  0.000  0.149
tot    0.000  0.149  0.000  0.149  0.000  0.000  0.000  0.000  0.000  0.299
 
band     7 # energy   10.03885845 # occ.  0.00000000
 
ion      s     py     pz     px    dxy    dyz    dz2    dxz  x2-y2    tot
    1  0.031  0.006  0.106  0.006  0.000  0.000  0.000  0.000  0.000  0.148
    2  0.031  0.006  0.106  0.006  0.000  0.000  0.000  0.000  0.000  0.148
tot    0.063  0.011  0.211  0.011  0.000  0.000  0.000  0.000  0.000  0.296
 
band     8 # energy   11.55069510 # occ.  0.00000000
 
ion      s     py     pz     px    dxy    dyz    dz2    dxz  x2-y2    tot
    1  0.071  0.045  0.007  0.045  0.000  0.000  0.000  0.000  0.000  0.167
    2  0.071  0.045  0.007  0.045  0.000  0.000  0.000  0.000  0.000  0.167
tot    0.141  0.089  0.015  0.089  0.000  0.000  0.000  0.000  0.000  0.334
 
band     9 # energy   11.93001900 # occ.  0.00000000
 
ion      s     py     pz     px    dxy    dyz    dz2    dxz  x2-y2    tot
    1  0.000  0.001  0.000  0.001  0.000  0.000  0.000  0.000  0.000  0.003
    2  0.000  0.001  0.000  0.001  0.000  0.000  0.000  0.000  0.000  0.003
tot    0.000  0.003  0.000  0.003  0.000  0.000  0.000  0.000  0.000  0.005
 
band    10 # energy   16.31669865 # occ.  0.00000000
 
ion      s     py     pz     px    dxy    dyz    dz2    dxz  x2-y2    tot
    1  0.061  0.039  0.024  0.040  0.000  0.000  0.000  0.000  0.000  0.164
    2  0.061  0.040  0.023  0.040  0.000  0.000  0.000  0.000  0.000  0.165
tot    0.122  0.079  0.047  0.079  0.000  0.000  0.000  0.000  0.000  0.329
 
band    11 # energy   16.55663967 # occ.  0.00000000
 
ion      s     py     pz     px    dxy    dyz    dz2    dxz  x2-y2    tot
    1  0.012  0.044  0.036  0.044  0.000  0.000  0.000  0.000  0.000  0.135
    2  0.011  0.044  0.036  0.044  0.000  0.000  0.000  0.000  0.000  0.135
tot    0.023  0.087  0.072  0.087  0.000  0.000  0.000  0.000  0.000  0.270
 
band    12 # energy   20.56468593 # occ.  0.00000000
 
ion      s     py     pz     px    dxy    dyz    dz2    dxz  x2-y2    tot
    1  0.003  0.034  0.005  0.030  0.000  0.000  0.000  0.000  0.000  0.072
    2  0.002  0.030  0.005  0.034  0.000  0.000  0.000  0.000  0.000  0.071
tot    0.005  0.064  0.009  0.065  0.000  0.000  0.000  0.000  0.000  0.143
 

 k-point   163 :    0.18214286 0.18214286 0.36428571     weight = 0.00555556

band     1 # energy   -5.00100061 # occ.  2.00000000
 
ion      s     py     pz     px    dxy    dyz    dz2    dxz  x2-y2    tot
    1  0.209  0.006  0.000  0.006  0.000  0.000  0.000  0.000  0.000  0.221
    2  0.209  0.006  0.000  0.006  0.000  0.000  0.000  0.000  0.000  0.221
tot    0.419  0.011  0.001  0.011  0.000  0.000  0.000  0.000  0.000  0.442
 
band     2 # energy    1.75657588 # occ.  2.00000000
 
ion      s     py     pz     px    dxy    dyz    dz2    dxz  x2-y2    tot
    1  0.129  0.036  0.035  0.036  0.000  0.000  0.000  0.000  0.000  0.236
    2  0.129  0.036  0.035  0.036  0.000  0.000  0.000  0.000  0.000  0.236
tot    0.258  0.072  0.071  0.072  0.000  0.000  0.000  0.000  0.000  0.472
 
band     3 # energy    3.14077079 # occ.  2.00000000
 
ion      s     py     pz     px    dxy    dyz    dz2    dxz  x2-y2    tot
    1  0.013  0.033  0.100  0.033  0.000  0.000  0.000  0.000  0.000  0.179
    2  0.013  0.033  0.100  0.033  0.000  0.000  0.000  0.000  0.000  0.179
tot    0.025  0.067  0.199  0.067  0.000  0.000  0.000  0.000  0.000  0.357
 
band     4 # energy    5.14317720 # occ.  2.00000000
 
ion      s     py     pz     px    dxy    dyz    dz2    dxz  x2-y2    tot
    1  0.000  0.110  0.000  0.110  0.000  0.000  0.000  0.000  0.000  0.219
    2  0.000  0.110  0.000  0.110  0.000  0.000  0.000  0.000  0.000  0.219
tot    0.000  0.219  0.000  0.219  0.000  0.000  0.000  0.000  0.000  0.438
 
band     5 # energy    8.82554727 # occ.  0.00000000
 
ion      s     py     pz     px    dxy    dyz    dz2    dxz  x2-y2    tot
    1  0.089  0.001  0.086  0.001  0.000  0.000  0.000  0.000  0.000  0.176
    2  0.089  0.001  0.086  0.001  0.000  0.000  0.000  0.000  0.000  0.176
tot    0.177  0.001  0.172  0.001  0.000  0.000  0.000  0.000  0.000  0.352
 
band     6 # energy    9.58504862 # occ.  0.00000000
 
ion      s     py     pz     px    dxy    dyz    dz2    dxz  x2-y2    tot
    1  0.000  0.075  0.000  0.075  0.000  0.000  0.000  0.000  0.000  0.149
    2  0.000  0.075  0.000  0.075  0.000  0.000  0.000  0.000  0.000  0.149
tot    0.000  0.149  0.000  0.149  0.000  0.000  0.000  0.000  0.000  0.299
 
band     7 # energy    9.88704222 # occ.  0.00000000
 
ion      s     py     pz     px    dxy    dyz    dz2    dxz  x2-y2    tot
    1  0.031  0.007  0.104  0.007  0.000  0.000  0.000  0.000  0.000  0.150
    2  0.031  0.007  0.104  0.007  0.000  0.000  0.000  0.000  0.000  0.150
tot    0.062  0.014  0.209  0.014  0.000  0.000  0.000  0.000  0.000  0.299
 
band     8 # energy   11.52373713 # occ.  0.00000000
 
ion      s     py     pz     px    dxy    dyz    dz2    dxz  x2-y2    tot
    1  0.070  0.046  0.004  0.044  0.000  0.000  0.000  0.000  0.000  0.164
    2  0.070  0.046  0.004  0.044  0.000  0.000  0.000  0.000  0.000  0.164
tot    0.139  0.091  0.009  0.088  0.000  0.000  0.000  0.000  0.000  0.327
 
band     9 # energy   16.40489373 # occ.  0.00000000
 
ion      s     py     pz     px    dxy    dyz    dz2    dxz  x2-y2    tot
    1  0.001  0.008  0.052  0.008  0.000  0.000  0.000  0.000  0.000  0.069
    2  0.070  0.065  0.006  0.066  0.000  0.000  0.000  0.000  0.000  0.206
tot    0.071  0.073  0.058  0.073  0.000  0.000  0.000  0.000  0.000  0.275
 
band    10 # energy   16.90075539 # occ.  0.00000000
 
ion      s     py     pz     px    dxy    dyz    dz2    dxz  x2-y2    tot
    1  0.090  0.036  0.002  0.036  0.000  0.000  0.000  0.000  0.000  0.163
    2  0.020  0.001  0.028  0.001  0.000  0.000  0.000  0.000  0.000  0.050
tot    0.110  0.037  0.029  0.037  0.000  0.000  0.000  0.000  0.000  0.213
 
band    11 # energy   21.28245275 # occ.  0.00000000
 
ion      s     py     pz     px    dxy    dyz    dz2    dxz  x2-y2    tot
    1  0.011  0.041  0.001  0.006  0.000  0.000  0.000  0.000  0.000  0.059
    2  0.016  0.003  0.006  0.029  0.000  0.000  0.000  0.000  0.000  0.054
tot    0.028  0.044  0.007  0.036  0.000  0.000  0.000  0.000  0.000  0.114
 
band    12 # energy   26.00858674 # occ.  0.00000000
 
ion      s     py     pz     px    dxy    dyz    dz2    dxz  x2-y2    tot
    1  0.003  0.011  0.026  0.015  0.000  0.000  0.000  0.000  0.000  0.055
    2  0.003  0.007  0.044  0.008  0.000  0.000  0.000  0.000  0.000  0.062
tot    0.005  0.019  0.070  0.023  0.000  0.000  0.000  0.000  0.000  0.117
 

 k-point   164 :    0.17142857 0.17142857 0.34285714     weight = 0.00555556

band     1 # energy   -5.12574343 # occ.  2.00000000
 
ion      s     py     pz     px    dxy    dyz    dz2    dxz  x2-y2    tot
    1  0.210  0.005  0.000  0.005  0.000  0.000  0.000  0.000  0.000  0.220
    2  0.210  0.005  0.000  0.005  0.000  0.000  0.000  0.000  0.000  0.220
tot    0.419  0.010  0.001  0.010  0.000  0.000  0.000  0.000  0.000  0.440
 
band     2 # energy    2.00453301 # occ.  2.00000000
 
ion      s     py     pz     px    dxy    dyz    dz2    dxz  x2-y2    tot
    1  0.124  0.038  0.035  0.038  0.000  0.000  0.000  0.000  0.000  0.235
    2  0.124  0.038  0.035  0.038  0.000  0.000  0.000  0.000  0.000  0.235
tot    0.249  0.077  0.069  0.077  0.000  0.000  0.000  0.000  0.000  0.471
 
band     3 # energy    3.33326449 # occ.  2.00000000
 
ion      s     py     pz     px    dxy    dyz    dz2    dxz  x2-y2    tot
    1  0.012  0.033  0.103  0.033  0.000  0.000  0.000  0.000  0.000  0.181
    2  0.012  0.033  0.103  0.033  0.000  0.000  0.000  0.000  0.000  0.181
tot    0.024  0.065  0.206  0.065  0.000  0.000  0.000  0.000  0.000  0.361
 
band     4 # energy    5.23041810 # occ.  2.00000000
 
ion      s     py     pz     px    dxy    dyz    dz2    dxz  x2-y2    tot
    1  0.000  0.110  0.000  0.110  0.000  0.000  0.000  0.000  0.000  0.220
    2  0.000  0.110  0.000  0.110  0.000  0.000  0.000  0.000  0.000  0.220
tot    0.000  0.220  0.000  0.220  0.000  0.000  0.000  0.000  0.000  0.440
 
band     5 # energy    8.86406048 # occ.  0.00000000
 
ion      s     py     pz     px    dxy    dyz    dz2    dxz  x2-y2    tot
    1  0.093  0.000  0.090  0.000  0.000  0.000  0.000  0.000  0.000  0.184
    2  0.093  0.000  0.090  0.000  0.000  0.000  0.000  0.000  0.000  0.184
tot    0.186  0.001  0.179  0.001  0.000  0.000  0.000  0.000  0.000  0.367
 
band     6 # energy    9.45000895 # occ.  0.00000000
 
ion      s     py     pz     px    dxy    dyz    dz2    dxz  x2-y2    tot
    1  0.000  0.075  0.000  0.075  0.000  0.000  0.000  0.000  0.000  0.150
    2  0.000  0.075  0.000  0.075  0.000  0.000  0.000  0.000  0.000  0.150
tot    0.000  0.150  0.000  0.150  0.000  0.000  0.000  0.000  0.000  0.299
 
band     7 # energy    9.74216699 # occ.  0.00000000
 
ion      s     py     pz     px    dxy    dyz    dz2    dxz  x2-y2    tot
    1  0.030  0.009  0.103  0.009  0.000  0.000  0.000  0.000  0.000  0.151
    2  0.030  0.009  0.103  0.009  0.000  0.000  0.000  0.000  0.000  0.151
tot    0.061  0.018  0.205  0.018  0.000  0.000  0.000  0.000  0.000  0.302
 
band     8 # energy   11.50616036 # occ.  0.00000000
 
ion      s     py     pz     px    dxy    dyz    dz2    dxz  x2-y2    tot
    1  0.070  0.046  0.002  0.046  0.000  0.000  0.000  0.000  0.000  0.164
    2  0.070  0.046  0.002  0.046  0.000  0.000  0.000  0.000  0.000  0.164
tot    0.141  0.092  0.004  0.092  0.000  0.000  0.000  0.000  0.000  0.329
 
band     9 # energy   11.92702271 # occ.  0.00000000
 
ion      s     py     pz     px    dxy    dyz    dz2    dxz  x2-y2    tot
    1  0.000  0.001  0.000  0.001  0.000  0.000  0.000  0.000  0.000  0.001
    2  0.000  0.001  0.000  0.001  0.000  0.000  0.000  0.000  0.000  0.001
tot    0.000  0.001  0.000  0.001  0.000  0.000  0.000  0.000  0.000  0.002
 
band    10 # energy   15.41698016 # occ.  0.00000000
 
ion      s     py     pz     px    dxy    dyz    dz2    dxz  x2-y2    tot
    1  0.062  0.033  0.022  0.033  0.000  0.000  0.000  0.000  0.000  0.150
    2  0.062  0.033  0.022  0.033  0.000  0.000  0.000  0.000  0.000  0.150
tot    0.123  0.066  0.045  0.066  0.000  0.000  0.000  0.000  0.000  0.300
 
band    11 # energy   16.38651499 # occ.  0.00000000
 
ion      s     py     pz     px    dxy    dyz    dz2    dxz  x2-y2    tot
    1  0.024  0.038  0.029  0.038  0.000  0.000  0.000  0.000  0.000  0.128
    2  0.025  0.037  0.029  0.037  0.000  0.000  0.000  0.000  0.000  0.128
tot    0.049  0.075  0.058  0.075  0.000  0.000  0.000  0.000  0.000  0.256
 
band    12 # energy   27.49988375 # occ.  0.00000000
 
ion      s     py     pz     px    dxy    dyz    dz2    dxz  x2-y2    tot
    1  0.025  0.007  0.006  0.024  0.000  0.000  0.000  0.000  0.000  0.062
    2  0.006  0.013  0.029  0.042  0.000  0.000  0.000  0.000  0.000  0.090
tot    0.031  0.020  0.035  0.067  0.000  0.000  0.000  0.000  0.000  0.152
 

 k-point   165 :    0.16071429 0.16071429 0.32142857     weight = 0.00555556

band     1 # energy   -5.24400350 # occ.  2.00000000
 
ion      s     py     pz     px    dxy    dyz    dz2    dxz  x2-y2    tot
    1  0.210  0.004  0.000  0.004  0.000  0.000  0.000  0.000  0.000  0.219
    2  0.210  0.004  0.000  0.004  0.000  0.000  0.000  0.000  0.000  0.219
tot    0.420  0.009  0.001  0.009  0.000  0.000  0.000  0.000  0.000  0.438
 
band     2 # energy    2.25906590 # occ.  2.00000000
 
ion      s     py     pz     px    dxy    dyz    dz2    dxz  x2-y2    tot
    1  0.119  0.041  0.034  0.041  0.000  0.000  0.000  0.000  0.000  0.235
    2  0.119  0.041  0.034  0.041  0.000  0.000  0.000  0.000  0.000  0.235
tot    0.239  0.082  0.067  0.082  0.000  0.000  0.000  0.000  0.000  0.470
 
band     3 # energy    3.53012204 # occ.  2.00000000
 
ion      s     py     pz     px    dxy    dyz    dz2    dxz  x2-y2    tot
    1  0.011  0.032  0.107  0.032  0.000  0.000  0.000  0.000  0.000  0.182
    2  0.011  0.032  0.107  0.032  0.000  0.000  0.000  0.000  0.000  0.182
tot    0.022  0.064  0.215  0.064  0.000  0.000  0.000  0.000  0.000  0.365
 
band     4 # energy    5.31210370 # occ.  2.00000000
 
ion      s     py     pz     px    dxy    dyz    dz2    dxz  x2-y2    tot
    1  0.000  0.110  0.000  0.110  0.000  0.000  0.000  0.000  0.000  0.220
    2  0.000  0.110  0.000  0.110  0.000  0.000  0.000  0.000  0.000  0.220
tot    0.000  0.220  0.000  0.220  0.000  0.000  0.000  0.000  0.000  0.441
 
band     5 # energy    8.88783694 # occ.  0.00000000
 
ion      s     py     pz     px    dxy    dyz    dz2    dxz  x2-y2    tot
    1  0.097  0.000  0.093  0.000  0.000  0.000  0.000  0.000  0.000  0.190
    2  0.097  0.000  0.093  0.000  0.000  0.000  0.000  0.000  0.000  0.190
tot    0.194  0.001  0.186  0.001  0.000  0.000  0.000  0.000  0.000  0.381
 
band     6 # energy    9.32300098 # occ.  0.00000000
 
ion      s     py     pz     px    dxy    dyz    dz2    dxz  x2-y2    tot
    1  0.000  0.075  0.000  0.075  0.000  0.000  0.000  0.000  0.000  0.150
    2  0.000  0.075  0.000  0.075  0.000  0.000  0.000  0.000  0.000  0.150
tot    0.000  0.150  0.000  0.150  0.000  0.000  0.000  0.000  0.000  0.300
 
band     7 # energy    9.60415996 # occ.  0.00000000
 
ion      s     py     pz     px    dxy    dyz    dz2    dxz  x2-y2    tot
    1  0.030  0.011  0.100  0.011  0.000  0.000  0.000  0.000  0.000  0.152
    2  0.030  0.011  0.100  0.011  0.000  0.000  0.000  0.000  0.000  0.152
tot    0.059  0.022  0.201  0.022  0.000  0.000  0.000  0.000  0.000  0.305
 
band     8 # energy   11.50006811 # occ.  0.00000000
 
ion      s     py     pz     px    dxy    dyz    dz2    dxz  x2-y2    tot
    1  0.072  0.047  0.000  0.046  0.000  0.000  0.000  0.000  0.000  0.167
    2  0.072  0.047  0.000  0.046  0.000  0.000  0.000  0.000  0.000  0.167
tot    0.145  0.095  0.001  0.093  0.000  0.000  0.000  0.000  0.000  0.333
 
band     9 # energy   15.01505325 # occ.  0.00000000
 
ion      s     py     pz     px    dxy    dyz    dz2    dxz  x2-y2    tot
    1  0.060  0.027  0.020  0.028  0.000  0.000  0.000  0.000  0.000  0.137
    2  0.063  0.028  0.022  0.029  0.000  0.000  0.000  0.000  0.000  0.142
tot    0.124  0.055  0.042  0.058  0.000  0.000  0.000  0.000  0.000  0.279
 
band    10 # energy   16.25540283 # occ.  0.00000000
 
ion      s     py     pz     px    dxy    dyz    dz2    dxz  x2-y2    tot
    1  0.026  0.037  0.025  0.037  0.000  0.000  0.000  0.000  0.000  0.124
    2  0.038  0.033  0.023  0.033  0.000  0.000  0.000  0.000  0.000  0.126
tot    0.064  0.069  0.047  0.069  0.000  0.000  0.000  0.000  0.000  0.250
 
band    11 # energy   18.63632314 # occ.  0.00000000
 
ion      s     py     pz     px    dxy    dyz    dz2    dxz  x2-y2    tot
    1  0.021  0.005  0.012  0.006  0.000  0.000  0.000  0.000  0.000  0.044
    2  0.001  0.016  0.009  0.014  0.000  0.000  0.000  0.000  0.000  0.040
tot    0.022  0.021  0.021  0.020  0.000  0.000  0.000  0.000  0.000  0.084
 
band    12 # energy   21.93078158 # occ.  0.00000000
 
ion      s     py     pz     px    dxy    dyz    dz2    dxz  x2-y2    tot
    1  0.001  0.028  0.008  0.008  0.000  0.000  0.000  0.000  0.000  0.045
    2  0.000  0.015  0.005  0.016  0.000  0.000  0.000  0.000  0.000  0.036
tot    0.001  0.044  0.013  0.024  0.000  0.000  0.000  0.000  0.000  0.081
 

 k-point   166 :    0.15000000 0.15000000 0.30000000     weight = 0.00555556

band     1 # energy   -5.35552788 # occ.  2.00000000
 
ion      s     py     pz     px    dxy    dyz    dz2    dxz  x2-y2    tot
    1  0.210  0.004  0.000  0.004  0.000  0.000  0.000  0.000  0.000  0.218
    2  0.210  0.004  0.000  0.004  0.000  0.000  0.000  0.000  0.000  0.218
tot    0.420  0.008  0.000  0.008  0.000  0.000  0.000  0.000  0.000  0.437
 
band     2 # energy    2.51982856 # occ.  2.00000000
 
ion      s     py     pz     px    dxy    dyz    dz2    dxz  x2-y2    tot
    1  0.114  0.044  0.033  0.044  0.000  0.000  0.000  0.000  0.000  0.234
    2  0.114  0.044  0.033  0.044  0.000  0.000  0.000  0.000  0.000  0.234
tot    0.229  0.087  0.065  0.087  0.000  0.000  0.000  0.000  0.000  0.469
 
band     3 # energy    3.73033279 # occ.  2.00000000
 
ion      s     py     pz     px    dxy    dyz    dz2    dxz  x2-y2    tot
    1  0.010  0.031  0.112  0.031  0.000  0.000  0.000  0.000  0.000  0.184
    2  0.010  0.031  0.112  0.031  0.000  0.000  0.000  0.000  0.000  0.184
tot    0.020  0.063  0.224  0.063  0.000  0.000  0.000  0.000  0.000  0.369
 
band     4 # energy    5.38775888 # occ.  2.00000000
 
ion      s     py     pz     px    dxy    dyz    dz2    dxz  x2-y2    tot
    1  0.000  0.110  0.000  0.110  0.000  0.000  0.000  0.000  0.000  0.221
    2  0.000  0.110  0.000  0.110  0.000  0.000  0.000  0.000  0.000  0.221
tot    0.000  0.221  0.000  0.221  0.000  0.000  0.000  0.000  0.000  0.442
 
band     5 # energy    8.89799716 # occ.  0.00000000
 
ion      s     py     pz     px    dxy    dyz    dz2    dxz  x2-y2    tot
    1  0.100  0.000  0.096  0.000  0.000  0.000  0.000  0.000  0.000  0.196
    2  0.100  0.000  0.096  0.000  0.000  0.000  0.000  0.000  0.000  0.196
tot    0.200  0.000  0.191  0.000  0.000  0.000  0.000  0.000  0.000  0.392
 
band     6 # energy    9.20405077 # occ.  0.00000000
 
ion      s     py     pz     px    dxy    dyz    dz2    dxz  x2-y2    tot
    1  0.000  0.075  0.000  0.075  0.000  0.000  0.000  0.000  0.000  0.150
    2  0.000  0.075  0.000  0.075  0.000  0.000  0.000  0.000  0.000  0.150
tot    0.000  0.150  0.000  0.150  0.000  0.000  0.000  0.000  0.000  0.300
 
band     7 # energy    9.47288973 # occ.  0.00000000
 
ion      s     py     pz     px    dxy    dyz    dz2    dxz  x2-y2    tot
    1  0.028  0.014  0.098  0.014  0.000  0.000  0.000  0.000  0.000  0.153
    2  0.028  0.014  0.098  0.014  0.000  0.000  0.000  0.000  0.000  0.153
tot    0.057  0.027  0.195  0.027  0.000  0.000  0.000  0.000  0.000  0.307
 
band     8 # energy   11.48768484 # occ.  0.00000000
 
ion      s     py     pz     px    dxy    dyz    dz2    dxz  x2-y2    tot
    1  0.078  0.049  0.000  0.049  0.000  0.000  0.000  0.000  0.000  0.176
    2  0.078  0.049  0.000  0.049  0.000  0.000  0.000  0.000  0.000  0.176
tot    0.156  0.098  0.000  0.098  0.000  0.000  0.000  0.000  0.000  0.351
 
band     9 # energy   11.99830818 # occ.  0.00000000
 
ion      s     py     pz     px    dxy    dyz    dz2    dxz  x2-y2    tot
    1  0.000  0.000  0.000  0.000  0.000  0.000  0.000  0.000  0.000  0.000
    2  0.000  0.000  0.000  0.000  0.000  0.000  0.000  0.000  0.000  0.000
tot    0.000  0.000  0.000  0.000  0.000  0.000  0.000  0.000  0.000  0.000
 
band    10 # energy   15.83286332 # occ.  0.00000000
 
ion      s     py     pz     px    dxy    dyz    dz2    dxz  x2-y2    tot
    1  0.009  0.016  0.031  0.015  0.000  0.000  0.000  0.000  0.000  0.071
    2  0.090  0.044  0.004  0.045  0.000  0.000  0.000  0.000  0.000  0.183
tot    0.099  0.060  0.035  0.060  0.000  0.000  0.000  0.000  0.000  0.254
 
band    11 # energy   17.30996982 # occ.  0.00000000
 
ion      s     py     pz     px    dxy    dyz    dz2    dxz  x2-y2    tot
    1  0.054  0.002  0.004  0.003  0.000  0.000  0.000  0.000  0.000  0.063
    2  0.006  0.010  0.002  0.009  0.000  0.000  0.000  0.000  0.000  0.026
tot    0.060  0.012  0.006  0.011  0.000  0.000  0.000  0.000  0.000  0.089
 
band    12 # energy   26.65610839 # occ.  0.00000000
 
ion      s     py     pz     px    dxy    dyz    dz2    dxz  x2-y2    tot
    1  0.004  0.015  0.057  0.005  0.000  0.000  0.000  0.000  0.000  0.081
    2  0.002  0.000  0.062  0.014  0.000  0.000  0.000  0.000  0.000  0.078
tot    0.005  0.015  0.119  0.019  0.000  0.000  0.000  0.000  0.000  0.159
 

 k-point   167 :    0.13928571 0.13928571 0.27857143     weight = 0.00555556

band     1 # energy   -5.46009184 # occ.  2.00000000
 
ion      s     py     pz     px    dxy    dyz    dz2    dxz  x2-y2    tot
    1  0.211  0.003  0.000  0.003  0.000  0.000  0.000  0.000  0.000  0.218
    2  0.211  0.003  0.000  0.003  0.000  0.000  0.000  0.000  0.000  0.218
tot    0.421  0.007  0.000  0.007  0.000  0.000  0.000  0.000  0.000  0.435
 
band     2 # energy    2.78642670 # occ.  2.00000000
 
ion      s     py     pz     px    dxy    dyz    dz2    dxz  x2-y2    tot
    1  0.109  0.047  0.032  0.047  0.000  0.000  0.000  0.000  0.000  0.234
    2  0.109  0.047  0.032  0.047  0.000  0.000  0.000  0.000  0.000  0.234
tot    0.218  0.093  0.063  0.093  0.000  0.000  0.000  0.000  0.000  0.467
 
band     3 # energy    3.93281555 # occ.  2.00000000
 
ion      s     py     pz     px    dxy    dyz    dz2    dxz  x2-y2    tot
    1  0.009  0.030  0.117  0.030  0.000  0.000  0.000  0.000  0.000  0.187
    2  0.009  0.030  0.117  0.030  0.000  0.000  0.000  0.000  0.000  0.187
tot    0.018  0.061  0.234  0.061  0.000  0.000  0.000  0.000  0.000  0.373
 
band     4 # energy    5.45708801 # occ.  2.00000000
 
ion      s     py     pz     px    dxy    dyz    dz2    dxz  x2-y2    tot
    1  0.000  0.111  0.000  0.111  0.000  0.000  0.000  0.000  0.000  0.221
    2  0.000  0.111  0.000  0.111  0.000  0.000  0.000  0.000  0.000  0.221
tot    0.000  0.221  0.000  0.221  0.000  0.000  0.000  0.000  0.000  0.442
 
band     5 # energy    8.89630304 # occ.  0.00000000
 
ion      s     py     pz     px    dxy    dyz    dz2    dxz  x2-y2    tot
    1  0.102  0.000  0.098  0.000  0.000  0.000  0.000  0.000  0.000  0.200
    2  0.102  0.000  0.098  0.000  0.000  0.000  0.000  0.000  0.000  0.200
tot    0.204  0.000  0.196  0.000  0.000  0.000  0.000  0.000  0.000  0.401
 
band     6 # energy    9.09309282 # occ.  0.00000000
 
ion      s     py     pz     px    dxy    dyz    dz2    dxz  x2-y2    tot
    1  0.000  0.075  0.000  0.075  0.000  0.000  0.000  0.000  0.000  0.150
    2  0.000  0.075  0.000  0.075  0.000  0.000  0.000  0.000  0.000  0.150
tot    0.000  0.150  0.000  0.150  0.000  0.000  0.000  0.000  0.000  0.300
 
band     7 # energy    9.34838908 # occ.  0.00000000
 
ion      s     py     pz     px    dxy    dyz    dz2    dxz  x2-y2    tot
    1  0.027  0.017  0.094  0.017  0.000  0.000  0.000  0.000  0.000  0.154
    2  0.027  0.017  0.094  0.017  0.000  0.000  0.000  0.000  0.000  0.154
tot    0.054  0.033  0.188  0.033  0.000  0.000  0.000  0.000  0.000  0.308
 
band     8 # energy   11.46473840 # occ.  0.00000000
 
ion      s     py     pz     px    dxy    dyz    dz2    dxz  x2-y2    tot
    1  0.086  0.051  0.001  0.051  0.000  0.000  0.000  0.000  0.000  0.189
    2  0.086  0.051  0.001  0.051  0.000  0.000  0.000  0.000  0.000  0.189
tot    0.173  0.102  0.001  0.102  0.000  0.000  0.000  0.000  0.000  0.378
 
band     9 # energy   12.06198425 # occ.  0.00000000
 
ion      s     py     pz     px    dxy    dyz    dz2    dxz  x2-y2    tot
    1  0.000  0.000  0.000  0.000  0.000  0.000  0.000  0.000  0.000  0.000
    2  0.000  0.000  0.000  0.000  0.000  0.000  0.000  0.000  0.000  0.000
tot    0.000  0.000  0.000  0.000  0.000  0.000  0.000  0.000  0.000  0.000
 
band    10 # energy   14.25551948 # occ.  0.00000000
 
ion      s     py     pz     px    dxy    dyz    dz2    dxz  x2-y2    tot
    1  0.054  0.018  0.018  0.018  0.000  0.000  0.000  0.000  0.000  0.109
    2  0.054  0.018  0.018  0.018  0.000  0.000  0.000  0.000  0.000  0.109
tot    0.108  0.036  0.037  0.036  0.000  0.000  0.000  0.000  0.000  0.218
 
band    11 # energy   15.87637073 # occ.  0.00000000
 
ion      s     py     pz     px    dxy    dyz    dz2    dxz  x2-y2    tot
    1  0.044  0.031  0.017  0.031  0.000  0.000  0.000  0.000  0.000  0.123
    2  0.045  0.031  0.017  0.031  0.000  0.000  0.000  0.000  0.000  0.123
tot    0.089  0.061  0.035  0.061  0.000  0.000  0.000  0.000  0.000  0.246
 
band    12 # energy   23.90828250 # occ.  0.00000000
 
ion      s     py     pz     px    dxy    dyz    dz2    dxz  x2-y2    tot
    1  0.002  0.018  0.024  0.042  0.000  0.000  0.000  0.000  0.000  0.087
    2  0.007  0.011  0.043  0.002  0.000  0.000  0.000  0.000  0.000  0.064
tot    0.009  0.029  0.068  0.045  0.000  0.000  0.000  0.000  0.000  0.151
 

 k-point   168 :    0.12857143 0.12857143 0.25714286     weight = 0.00555556

band     1 # energy   -5.55752177 # occ.  2.00000000
 
ion      s     py     pz     px    dxy    dyz    dz2    dxz  x2-y2    tot
    1  0.211  0.003  0.000  0.003  0.000  0.000  0.000  0.000  0.000  0.217
    2  0.211  0.003  0.000  0.003  0.000  0.000  0.000  0.000  0.000  0.217
tot    0.422  0.006  0.000  0.006  0.000  0.000  0.000  0.000  0.000  0.434
 
band     2 # energy    3.05826435 # occ.  2.00000000
 
ion      s     py     pz     px    dxy    dyz    dz2    dxz  x2-y2    tot
    1  0.103  0.050  0.031  0.050  0.000  0.000  0.000  0.000  0.000  0.233
    2  0.103  0.050  0.031  0.050  0.000  0.000  0.000  0.000  0.000  0.233
tot    0.206  0.099  0.061  0.099  0.000  0.000  0.000  0.000  0.000  0.466
 
band     3 # energy    4.13622914 # occ.  2.00000000
 
ion      s     py     pz     px    dxy    dyz    dz2    dxz  x2-y2    tot
    1  0.008  0.029  0.122  0.029  0.000  0.000  0.000  0.000  0.000  0.189
    2  0.008  0.029  0.122  0.029  0.000  0.000  0.000  0.000  0.000  0.189
tot    0.015  0.059  0.245  0.059  0.000  0.000  0.000  0.000  0.000  0.377
 
band     4 # energy    5.51980360 # occ.  2.00000000
 
ion      s     py     pz     px    dxy    dyz    dz2    dxz  x2-y2    tot
    1  0.000  0.111  0.000  0.111  0.000  0.000  0.000  0.000  0.000  0.221
    2  0.000  0.111  0.000  0.111  0.000  0.000  0.000  0.000  0.000  0.221
tot    0.000  0.221  0.000  0.221  0.000  0.000  0.000  0.000  0.000  0.442
 
band     5 # energy    8.88470966 # occ.  0.00000000
 
ion      s     py     pz     px    dxy    dyz    dz2    dxz  x2-y2    tot
    1  0.103  0.000  0.100  0.000  0.000  0.000  0.000  0.000  0.000  0.204
    2  0.103  0.000  0.100  0.000  0.000  0.000  0.000  0.000  0.000  0.204
tot    0.206  0.000  0.200  0.000  0.000  0.000  0.000  0.000  0.000  0.407
 
band     6 # energy    8.99030251 # occ.  0.00000000
 
ion      s     py     pz     px    dxy    dyz    dz2    dxz  x2-y2    tot
    1  0.000  0.075  0.000  0.075  0.000  0.000  0.000  0.000  0.000  0.150
    2  0.000  0.075  0.000  0.075  0.000  0.000  0.000  0.000  0.000  0.150
tot    0.000  0.150  0.000  0.150  0.000  0.000  0.000  0.000  0.000  0.301
 
band     7 # energy    9.23021465 # occ.  0.00000000
 
ion      s     py     pz     px    dxy    dyz    dz2    dxz  x2-y2    tot
    1  0.026  0.020  0.090  0.020  0.000  0.000  0.000  0.000  0.000  0.155
    2  0.026  0.020  0.090  0.020  0.000  0.000  0.000  0.000  0.000  0.155
tot    0.051  0.040  0.179  0.040  0.000  0.000  0.000  0.000  0.000  0.310
 
band     8 # energy   11.41350517 # occ.  0.00000000
 
ion      s     py     pz     px    dxy    dyz    dz2    dxz  x2-y2    tot
    1  0.099  0.053  0.003  0.053  0.000  0.000  0.000  0.000  0.000  0.208
    2  0.099  0.053  0.003  0.053  0.000  0.000  0.000  0.000  0.000  0.208
tot    0.199  0.106  0.005  0.106  0.000  0.000  0.000  0.000  0.000  0.416
 
band     9 # energy   12.14315890 # occ.  0.00000000
 
ion      s     py     pz     px    dxy    dyz    dz2    dxz  x2-y2    tot
    1  0.000  0.000  0.000  0.000  0.000  0.000  0.000  0.000  0.000  0.000
    2  0.000  0.000  0.000  0.000  0.000  0.000  0.000  0.000  0.000  0.000
tot    0.000  0.000  0.000  0.000  0.000  0.000  0.000  0.000  0.000  0.000
 
band    10 # energy   13.95420970 # occ.  0.00000000
 
ion      s     py     pz     px    dxy    dyz    dz2    dxz  x2-y2    tot
    1  0.046  0.013  0.016  0.013  0.000  0.000  0.000  0.000  0.000  0.087
    2  0.046  0.012  0.016  0.012  0.000  0.000  0.000  0.000  0.000  0.087
tot    0.093  0.025  0.032  0.025  0.000  0.000  0.000  0.000  0.000  0.175
 
band    11 # energy   15.66936191 # occ.  0.00000000
 
ion      s     py     pz     px    dxy    dyz    dz2    dxz  x2-y2    tot
    1  0.051  0.028  0.014  0.028  0.000  0.000  0.000  0.000  0.000  0.122
    2  0.051  0.029  0.014  0.029  0.000  0.000  0.000  0.000  0.000  0.122
tot    0.102  0.057  0.028  0.057  0.000  0.000  0.000  0.000  0.000  0.244
 
band    12 # energy   23.92179703 # occ.  0.00000000
 
ion      s     py     pz     px    dxy    dyz    dz2    dxz  x2-y2    tot
    1  0.021  0.000  0.008  0.002  0.000  0.000  0.000  0.000  0.000  0.031
    2  0.003  0.034  0.002  0.040  0.000  0.000  0.000  0.000  0.000  0.079
tot    0.024  0.034  0.009  0.042  0.000  0.000  0.000  0.000  0.000  0.109
 

 k-point   169 :    0.11785714 0.11785714 0.23571429     weight = 0.00555556

band     1 # energy   -5.64765105 # occ.  2.00000000
 
ion      s     py     pz     px    dxy    dyz    dz2    dxz  x2-y2    tot
    1  0.211  0.003  0.000  0.003  0.000  0.000  0.000  0.000  0.000  0.216
    2  0.211  0.003  0.000  0.003  0.000  0.000  0.000  0.000  0.000  0.216
tot    0.422  0.005  0.000  0.005  0.000  0.000  0.000  0.000  0.000  0.433
 
band     2 # energy    3.33471941 # occ.  2.00000000
 
ion      s     py     pz     px    dxy    dyz    dz2    dxz  x2-y2    tot
    1  0.097  0.053  0.029  0.053  0.000  0.000  0.000  0.000  0.000  0.232
    2  0.097  0.053  0.029  0.053  0.000  0.000  0.000  0.000  0.000  0.232
tot    0.193  0.106  0.059  0.106  0.000  0.000  0.000  0.000  0.000  0.464
 
band     3 # energy    4.33919437 # occ.  2.00000000
 
ion      s     py     pz     px    dxy    dyz    dz2    dxz  x2-y2    tot
    1  0.007  0.028  0.129  0.028  0.000  0.000  0.000  0.000  0.000  0.191
    2  0.007  0.028  0.129  0.028  0.000  0.000  0.000  0.000  0.000  0.191
tot    0.013  0.056  0.257  0.056  0.000  0.000  0.000  0.000  0.000  0.382
 
band     4 # energy    5.57596694 # occ.  2.00000000
 
ion      s     py     pz     px    dxy    dyz    dz2    dxz  x2-y2    tot
    1  0.000  0.110  0.000  0.110  0.000  0.000  0.000  0.000  0.000  0.221
    2  0.000  0.110  0.000  0.110  0.000  0.000  0.000  0.000  0.000  0.221
tot    0.000  0.221  0.000  0.221  0.000  0.000  0.000  0.000  0.000  0.442
 
band     5 # energy    8.86535612 # occ.  0.00000000
 
ion      s     py     pz     px    dxy    dyz    dz2    dxz  x2-y2    tot
    1  0.103  0.000  0.102  0.000  0.000  0.000  0.000  0.000  0.000  0.205
    2  0.103  0.000  0.102  0.000  0.000  0.000  0.000  0.000  0.000  0.205
tot    0.206  0.000  0.203  0.000  0.000  0.000  0.000  0.000  0.000  0.410
 
band     6 # energy    8.89571399 # occ.  0.00000000
 
ion      s     py     pz     px    dxy    dyz    dz2    dxz  x2-y2    tot
    1  0.000  0.075  0.000  0.075  0.000  0.000  0.000  0.000  0.000  0.150
    2  0.000  0.075  0.000  0.075  0.000  0.000  0.000  0.000  0.000  0.150
tot    0.000  0.150  0.000  0.150  0.000  0.000  0.000  0.000  0.000  0.301
 
band     7 # energy    9.11853735 # occ.  0.00000000
 
ion      s     py     pz     px    dxy    dyz    dz2    dxz  x2-y2    tot
    1  0.024  0.023  0.085  0.023  0.000  0.000  0.000  0.000  0.000  0.155
    2  0.024  0.023  0.085  0.023  0.000  0.000  0.000  0.000  0.000  0.155
tot    0.048  0.047  0.169  0.047  0.000  0.000  0.000  0.000  0.000  0.311
 
band     8 # energy   11.31868704 # occ.  0.00000000
 
ion      s     py     pz     px    dxy    dyz    dz2    dxz  x2-y2    tot
    1  0.116  0.054  0.006  0.054  0.000  0.000  0.000  0.000  0.000  0.230
    2  0.116  0.054  0.006  0.054  0.000  0.000  0.000  0.000  0.000  0.231
tot    0.232  0.109  0.011  0.109  0.000  0.000  0.000  0.000  0.000  0.461
 
band     9 # energy   12.24162684 # occ.  0.00000000
 
ion      s     py     pz     px    dxy    dyz    dz2    dxz  x2-y2    tot
    1  0.000  0.000  0.000  0.000  0.000  0.000  0.000  0.000  0.000  0.000
    2  0.000  0.000  0.000  0.000  0.000  0.000  0.000  0.000  0.000  0.000
tot    0.000  0.000  0.000  0.000  0.000  0.000  0.000  0.000  0.000  0.000
 
band    10 # energy   13.71644157 # occ.  0.00000000
 
ion      s     py     pz     px    dxy    dyz    dz2    dxz  x2-y2    tot
    1  0.037  0.007  0.013  0.007  0.000  0.000  0.000  0.000  0.000  0.064
    2  0.037  0.007  0.013  0.007  0.000  0.000  0.000  0.000  0.000  0.064
tot    0.073  0.015  0.025  0.015  0.000  0.000  0.000  0.000  0.000  0.128
 
band    11 # energy   15.45209435 # occ.  0.00000000
 
ion      s     py     pz     px    dxy    dyz    dz2    dxz  x2-y2    tot
    1  0.057  0.026  0.011  0.026  0.000  0.000  0.000  0.000  0.000  0.120
    2  0.057  0.026  0.011  0.026  0.000  0.000  0.000  0.000  0.000  0.120
tot    0.115  0.052  0.021  0.052  0.000  0.000  0.000  0.000  0.000  0.240
 
band    12 # energy   16.99260685 # occ.  0.00000000
 
ion      s     py     pz     px    dxy    dyz    dz2    dxz  x2-y2    tot
    1  0.017  0.005  0.000  0.005  0.000  0.000  0.000  0.000  0.000  0.027
    2  0.019  0.004  0.002  0.004  0.000  0.000  0.000  0.000  0.000  0.029
tot    0.036  0.009  0.002  0.009  0.000  0.000  0.000  0.000  0.000  0.056
 

 k-point   170 :    0.10714286 0.10714286 0.21428571     weight = 0.00555556

band     1 # energy   -5.73035049 # occ.  2.00000000
 
ion      s     py     pz     px    dxy    dyz    dz2    dxz  x2-y2    tot
    1  0.212  0.002  0.000  0.002  0.000  0.000  0.000  0.000  0.000  0.216
    2  0.212  0.002  0.000  0.002  0.000  0.000  0.000  0.000  0.000  0.216
tot    0.423  0.004  0.000  0.004  0.000  0.000  0.000  0.000  0.000  0.432
 
band     2 # energy    3.61489911 # occ.  2.00000000
 
ion      s     py     pz     px    dxy    dyz    dz2    dxz  x2-y2    tot
    1  0.090  0.057  0.028  0.057  0.000  0.000  0.000  0.000  0.000  0.231
    2  0.090  0.057  0.028  0.057  0.000  0.000  0.000  0.000  0.000  0.231
tot    0.180  0.113  0.056  0.113  0.000  0.000  0.000  0.000  0.000  0.462
 
band     3 # energy    4.54006118 # occ.  2.00000000
 
ion      s     py     pz     px    dxy    dyz    dz2    dxz  x2-y2    tot
    1  0.005  0.026  0.136  0.026  0.000  0.000  0.000  0.000  0.000  0.193
    2  0.005  0.026  0.136  0.026  0.000  0.000  0.000  0.000  0.000  0.193
tot    0.011  0.053  0.271  0.053  0.000  0.000  0.000  0.000  0.000  0.387
 
band     4 # energy    5.62561315 # occ.  2.00000000
 
ion      s     py     pz     px    dxy    dyz    dz2    dxz  x2-y2    tot
    1  0.000  0.110  0.000  0.110  0.000  0.000  0.000  0.000  0.000  0.221
    2  0.000  0.110  0.000  0.110  0.000  0.000  0.000  0.000  0.000  0.221
tot    0.000  0.221  0.000  0.221  0.000  0.000  0.000  0.000  0.000  0.441
 
band     5 # energy    8.80931520 # occ.  0.00000000
 
ion      s     py     pz     px    dxy    dyz    dz2    dxz  x2-y2    tot
    1  0.000  0.075  0.000  0.075  0.000  0.000  0.000  0.000  0.000  0.151
    2  0.000  0.075  0.000  0.075  0.000  0.000  0.000  0.000  0.000  0.151
tot    0.000  0.151  0.000  0.151  0.000  0.000  0.000  0.000  0.000  0.301
 
band     6 # energy    8.84003482 # occ.  0.00000000
 
ion      s     py     pz     px    dxy    dyz    dz2    dxz  x2-y2    tot
    1  0.101  0.000  0.104  0.000  0.000  0.000  0.000  0.000  0.000  0.206
    2  0.101  0.000  0.104  0.000  0.000  0.000  0.000  0.000  0.000  0.206
tot    0.203  0.001  0.207  0.001  0.000  0.000  0.000  0.000  0.000  0.411
 
band     7 # energy    9.01314455 # occ.  0.00000000
 
ion      s     py     pz     px    dxy    dyz    dz2    dxz  x2-y2    tot
    1  0.022  0.028  0.079  0.028  0.000  0.000  0.000  0.000  0.000  0.156
    2  0.022  0.028  0.079  0.028  0.000  0.000  0.000  0.000  0.000  0.156
tot    0.044  0.055  0.157  0.055  0.000  0.000  0.000  0.000  0.000  0.312
 
band     8 # energy   11.16998768 # occ.  0.00000000
 
ion      s     py     pz     px    dxy    dyz    dz2    dxz  x2-y2    tot
    1  0.136  0.054  0.009  0.054  0.000  0.000  0.000  0.000  0.000  0.253
    2  0.136  0.054  0.009  0.054  0.000  0.000  0.000  0.000  0.000  0.253
tot    0.272  0.108  0.018  0.108  0.000  0.000  0.000  0.000  0.000  0.505
 
band     9 # energy   12.35603992 # occ.  0.00000000
 
ion      s     py     pz     px    dxy    dyz    dz2    dxz  x2-y2    tot
    1  0.000  0.000  0.000  0.000  0.000  0.000  0.000  0.000  0.000  0.000
    2  0.000  0.000  0.000  0.000  0.000  0.000  0.000  0.000  0.000  0.000
tot    0.000  0.000  0.000  0.000  0.000  0.000  0.000  0.000  0.000  0.001
 
band    10 # energy   13.54939545 # occ.  0.00000000
 
ion      s     py     pz     px    dxy    dyz    dz2    dxz  x2-y2    tot
    1  0.026  0.003  0.009  0.003  0.000  0.000  0.000  0.000  0.000  0.042
    2  0.026  0.003  0.009  0.003  0.000  0.000  0.000  0.000  0.000  0.042
tot    0.052  0.007  0.018  0.007  0.000  0.000  0.000  0.000  0.000  0.084
 
band    11 # energy   15.22953161 # occ.  0.00000000
 
ion      s     py     pz     px    dxy    dyz    dz2    dxz  x2-y2    tot
    1  0.064  0.024  0.008  0.024  0.000  0.000  0.000  0.000  0.000  0.118
    2  0.064  0.024  0.008  0.024  0.000  0.000  0.000  0.000  0.000  0.118
tot    0.127  0.047  0.016  0.047  0.000  0.000  0.000  0.000  0.000  0.237
 
band    12 # energy   23.94728712 # occ.  0.00000000
 
ion      s     py     pz     px    dxy    dyz    dz2    dxz  x2-y2    tot
    1  0.016  0.011  0.006  0.016  0.000  0.000  0.000  0.000  0.000  0.049
    2  0.008  0.022  0.006  0.029  0.000  0.000  0.000  0.000  0.000  0.065
tot    0.024  0.034  0.011  0.045  0.000  0.000  0.000  0.000  0.000  0.114
 

 k-point   171 :    0.09642857 0.09642857 0.19285714     weight = 0.00555556

band     1 # energy   -5.80548380 # occ.  2.00000000
 
ion      s     py     pz     px    dxy    dyz    dz2    dxz  x2-y2    tot
    1  0.212  0.002  0.000  0.002  0.000  0.000  0.000  0.000  0.000  0.215
    2  0.212  0.002  0.000  0.002  0.000  0.000  0.000  0.000  0.000  0.215
tot    0.424  0.003  0.000  0.003  0.000  0.000  0.000  0.000  0.000  0.431
 
band     2 # energy    3.89758335 # occ.  2.00000000
 
ion      s     py     pz     px    dxy    dyz    dz2    dxz  x2-y2    tot
    1  0.083  0.060  0.026  0.060  0.000  0.000  0.000  0.000  0.000  0.230
    2  0.083  0.060  0.026  0.060  0.000  0.000  0.000  0.000  0.000  0.230
tot    0.166  0.121  0.053  0.121  0.000  0.000  0.000  0.000  0.000  0.460
 
band     3 # energy    4.73691993 # occ.  2.00000000
 
ion      s     py     pz     px    dxy    dyz    dz2    dxz  x2-y2    tot
    1  0.004  0.024  0.143  0.024  0.000  0.000  0.000  0.000  0.000  0.196
    2  0.004  0.024  0.143  0.024  0.000  0.000  0.000  0.000  0.000  0.196
tot    0.008  0.049  0.287  0.049  0.000  0.000  0.000  0.000  0.000  0.392
 
band     4 # energy    5.66894628 # occ.  2.00000000
 
ion      s     py     pz     px    dxy    dyz    dz2    dxz  x2-y2    tot
    1  0.000  0.110  0.000  0.110  0.000  0.000  0.000  0.000  0.000  0.220
    2  0.000  0.110  0.000  0.110  0.000  0.000  0.000  0.000  0.000  0.220
tot    0.000  0.220  0.000  0.220  0.000  0.000  0.000  0.000  0.000  0.440
 
band     5 # energy    8.73102726 # occ.  0.00000000
 
ion      s     py     pz     px    dxy    dyz    dz2    dxz  x2-y2    tot
    1  0.000  0.075  0.000  0.075  0.000  0.000  0.000  0.000  0.000  0.151
    2  0.000  0.075  0.000  0.075  0.000  0.000  0.000  0.000  0.000  0.151
tot    0.000  0.151  0.000  0.151  0.000  0.000  0.000  0.000  0.000  0.301
 
band     6 # energy    8.81025930 # occ.  0.00000000
 
ion      s     py     pz     px    dxy    dyz    dz2    dxz  x2-y2    tot
    1  0.098  0.000  0.106  0.000  0.000  0.000  0.000  0.000  0.000  0.205
    2  0.098  0.000  0.106  0.000  0.000  0.000  0.000  0.000  0.000  0.205
tot    0.196  0.001  0.211  0.001  0.000  0.000  0.000  0.000  0.000  0.409
 
band     7 # energy    8.91394413 # occ.  0.00000000
 
ion      s     py     pz     px    dxy    dyz    dz2    dxz  x2-y2    tot
    1  0.020  0.032  0.072  0.032  0.000  0.000  0.000  0.000  0.000  0.156
    2  0.020  0.032  0.072  0.032  0.000  0.000  0.000  0.000  0.000  0.156
tot    0.039  0.065  0.143  0.065  0.000  0.000  0.000  0.000  0.000  0.312
 
band     8 # energy   10.96799378 # occ.  0.00000000
 
ion      s     py     pz     px    dxy    dyz    dz2    dxz  x2-y2    tot
    1  0.156  0.052  0.012  0.052  0.000  0.000  0.000  0.000  0.000  0.271
    2  0.156  0.052  0.012  0.052  0.000  0.000  0.000  0.000  0.000  0.271
tot    0.313  0.103  0.024  0.103  0.000  0.000  0.000  0.000  0.000  0.542
 
band     9 # energy   12.48408007 # occ.  0.00000000
 
ion      s     py     pz     px    dxy    dyz    dz2    dxz  x2-y2    tot
    1  0.000  0.000  0.000  0.000  0.000  0.000  0.000  0.000  0.000  0.001
    2  0.000  0.000  0.000  0.000  0.000  0.000  0.000  0.000  0.000  0.001
tot    0.000  0.001  0.000  0.001  0.000  0.000  0.000  0.000  0.000  0.001
 
band    10 # energy   14.98611317 # occ.  0.00000000
 
ion      s     py     pz     px    dxy    dyz    dz2    dxz  x2-y2    tot
    1  0.060  0.020  0.005  0.020  0.000  0.000  0.000  0.000  0.000  0.106
    2  0.078  0.021  0.003  0.021  0.000  0.000  0.000  0.000  0.000  0.124
tot    0.139  0.041  0.008  0.041  0.000  0.000  0.000  0.000  0.000  0.230
 
band    11 # energy   16.99667655 # occ.  0.00000000
 
ion      s     py     pz     px    dxy    dyz    dz2    dxz  x2-y2    tot
    1  0.018  0.006  0.006  0.004  0.000  0.000  0.000  0.000  0.000  0.034
    2  0.013  0.009  0.002  0.007  0.000  0.000  0.000  0.000  0.000  0.030
tot    0.031  0.015  0.007  0.011  0.000  0.000  0.000  0.000  0.000  0.064
 
band    12 # energy   23.15444757 # occ.  0.00000000
 
ion      s     py     pz     px    dxy    dyz    dz2    dxz  x2-y2    tot
    1  0.023  0.007  0.002  0.005  0.000  0.000  0.000  0.000  0.000  0.037
    2  0.018  0.019  0.001  0.013  0.000  0.000  0.000  0.000  0.000  0.051
tot    0.041  0.026  0.003  0.018  0.000  0.000  0.000  0.000  0.000  0.088
 

 k-point   172 :    0.08571429 0.08571429 0.17142857     weight = 0.00555556

band     1 # energy   -5.87295714 # occ.  2.00000000
 
ion      s     py     pz     px    dxy    dyz    dz2    dxz  x2-y2    tot
    1  0.212  0.001  0.000  0.001  0.000  0.000  0.000  0.000  0.000  0.215
    2  0.212  0.001  0.000  0.001  0.000  0.000  0.000  0.000  0.000  0.215
tot    0.424  0.003  0.000  0.003  0.000  0.000  0.000  0.000  0.000  0.430
 
band     2 # energy    4.18111614 # occ.  2.00000000
 
ion      s     py     pz     px    dxy    dyz    dz2    dxz  x2-y2    tot
    1  0.075  0.065  0.024  0.065  0.000  0.000  0.000  0.000  0.000  0.229
    2  0.075  0.065  0.024  0.065  0.000  0.000  0.000  0.000  0.000  0.229
tot    0.150  0.129  0.049  0.129  0.000  0.000  0.000  0.000  0.000  0.457
 
band     3 # energy    4.92743084 # occ.  2.00000000
 
ion      s     py     pz     px    dxy    dyz    dz2    dxz  x2-y2    tot
    1  0.003  0.022  0.152  0.022  0.000  0.000  0.000  0.000  0.000  0.199
    2  0.003  0.022  0.152  0.022  0.000  0.000  0.000  0.000  0.000  0.199
tot    0.006  0.044  0.304  0.044  0.000  0.000  0.000  0.000  0.000  0.397
 
band     4 # energy    5.70624488 # occ.  2.00000000
 
ion      s     py     pz     px    dxy    dyz    dz2    dxz  x2-y2    tot
    1  0.000  0.110  0.000  0.110  0.000  0.000  0.000  0.000  0.000  0.220
    2  0.000  0.110  0.000  0.110  0.000  0.000  0.000  0.000  0.000  0.220
tot    0.000  0.220  0.000  0.220  0.000  0.000  0.000  0.000  0.000  0.439
 
band     5 # energy    8.66097757 # occ.  0.00000000
 
ion      s     py     pz     px    dxy    dyz    dz2    dxz  x2-y2    tot
    1  0.000  0.075  0.000  0.075  0.000  0.000  0.000  0.000  0.000  0.151
    2  0.000  0.075  0.000  0.075  0.000  0.000  0.000  0.000  0.000  0.151
tot    0.000  0.151  0.000  0.151  0.000  0.000  0.000  0.000  0.000  0.302
 
band     6 # energy    8.77696457 # occ.  0.00000000
 
ion      s     py     pz     px    dxy    dyz    dz2    dxz  x2-y2    tot
    1  0.093  0.001  0.108  0.001  0.000  0.000  0.000  0.000  0.000  0.202
    2  0.093  0.001  0.108  0.001  0.000  0.000  0.000  0.000  0.000  0.202
tot    0.185  0.001  0.216  0.001  0.000  0.000  0.000  0.000  0.000  0.404
 
band     7 # energy    8.82102700 # occ.  0.00000000
 
ion      s     py     pz     px    dxy    dyz    dz2    dxz  x2-y2    tot
    1  0.017  0.038  0.064  0.038  0.000  0.000  0.000  0.000  0.000  0.156
    2  0.017  0.038  0.064  0.038  0.000  0.000  0.000  0.000  0.000  0.156
tot    0.034  0.075  0.128  0.075  0.000  0.000  0.000  0.000  0.000  0.312
 
band     8 # energy   10.72415979 # occ.  0.00000000
 
ion      s     py     pz     px    dxy    dyz    dz2    dxz  x2-y2    tot
    1  0.177  0.047  0.014  0.047  0.000  0.000  0.000  0.000  0.000  0.285
    2  0.177  0.047  0.014  0.047  0.000  0.000  0.000  0.000  0.000  0.285
tot    0.354  0.094  0.028  0.094  0.000  0.000  0.000  0.000  0.000  0.571
 
band     9 # energy   12.62404089 # occ.  0.00000000
 
ion      s     py     pz     px    dxy    dyz    dz2    dxz  x2-y2    tot
    1  0.000  0.000  0.000  0.000  0.000  0.000  0.000  0.000  0.000  0.001
    2  0.000  0.000  0.000  0.000  0.000  0.000  0.000  0.000  0.000  0.001
tot    0.000  0.001  0.000  0.001  0.000  0.000  0.000  0.000  0.000  0.002
 
band    10 # energy   14.78907793 # occ.  0.00000000
 
ion      s     py     pz     px    dxy    dyz    dz2    dxz  x2-y2    tot
    1  0.075  0.018  0.004  0.017  0.000  0.000  0.000  0.000  0.000  0.114
    2  0.075  0.018  0.004  0.018  0.000  0.000  0.000  0.000  0.000  0.114
tot    0.150  0.035  0.007  0.035  0.000  0.000  0.000  0.000  0.000  0.228
 
band    11 # energy   16.91663979 # occ.  0.00000000
 
ion      s     py     pz     px    dxy    dyz    dz2    dxz  x2-y2    tot
    1  0.014  0.009  0.001  0.008  0.000  0.000  0.000  0.000  0.000  0.032
    2  0.015  0.009  0.001  0.008  0.000  0.000  0.000  0.000  0.000  0.032
tot    0.029  0.017  0.001  0.017  0.000  0.000  0.000  0.000  0.000  0.064
 
band    12 # energy   17.57511176 # occ.  0.00000000
 
ion      s     py     pz     px    dxy    dyz    dz2    dxz  x2-y2    tot
    1  0.001  0.001  0.035  0.001  0.000  0.000  0.000  0.000  0.000  0.037
    2  0.001  0.001  0.035  0.001  0.000  0.000  0.000  0.000  0.000  0.038
tot    0.002  0.002  0.069  0.002  0.000  0.000  0.000  0.000  0.000  0.075
 

 k-point   173 :    0.07500000 0.07500000 0.15000000     weight = 0.00555556

band     1 # energy   -5.93267803 # occ.  2.00000000
 
ion      s     py     pz     px    dxy    dyz    dz2    dxz  x2-y2    tot
    1  0.212  0.001  0.000  0.001  0.000  0.000  0.000  0.000  0.000  0.215
    2  0.212  0.001  0.000  0.001  0.000  0.000  0.000  0.000  0.000  0.215
tot    0.425  0.002  0.000  0.002  0.000  0.000  0.000  0.000  0.000  0.429
 
band     2 # energy    4.46322188 # occ.  2.00000000
 
ion      s     py     pz     px    dxy    dyz    dz2    dxz  x2-y2    tot
    1  0.066  0.069  0.022  0.069  0.000  0.000  0.000  0.000  0.000  0.227
    2  0.066  0.069  0.022  0.069  0.000  0.000  0.000  0.000  0.000  0.227
tot    0.133  0.139  0.044  0.139  0.000  0.000  0.000  0.000  0.000  0.454
 
band     3 # energy    5.10902371 # occ.  2.00000000
 
ion      s     py     pz     px    dxy    dyz    dz2    dxz  x2-y2    tot
    1  0.002  0.019  0.161  0.019  0.000  0.000  0.000  0.000  0.000  0.201
    2  0.002  0.019  0.161  0.019  0.000  0.000  0.000  0.000  0.000  0.201
tot    0.004  0.038  0.322  0.038  0.000  0.000  0.000  0.000  0.000  0.403
 
band     4 # energy    5.73787680 # occ.  2.00000000
 
ion      s     py     pz     px    dxy    dyz    dz2    dxz  x2-y2    tot
    1  0.000  0.109  0.000  0.109  0.000  0.000  0.000  0.000  0.000  0.219
    2  0.000  0.109  0.000  0.109  0.000  0.000  0.000  0.000  0.000  0.219
tot    0.000  0.219  0.000  0.219  0.000  0.000  0.000  0.000  0.000  0.438
 
band     5 # energy    8.59913913 # occ.  0.00000000
 
ion      s     py     pz     px    dxy    dyz    dz2    dxz  x2-y2    tot
    1  0.000  0.075  0.000  0.075  0.000  0.000  0.000  0.000  0.000  0.151
    2  0.000  0.075  0.000  0.075  0.000  0.000  0.000  0.000  0.000  0.151
tot    0.000  0.151  0.000  0.151  0.000  0.000  0.000  0.000  0.000  0.302
 
band     6 # energy    8.73454242 # occ.  0.00000000
 
ion      s     py     pz     px    dxy    dyz    dz2    dxz  x2-y2    tot
    1  0.014  0.043  0.055  0.043  0.000  0.000  0.000  0.000  0.000  0.156
    2  0.014  0.043  0.055  0.043  0.000  0.000  0.000  0.000  0.000  0.156
tot    0.029  0.086  0.110  0.086  0.000  0.000  0.000  0.000  0.000  0.312
 
band     7 # energy    8.74045893 # occ.  0.00000000
 
ion      s     py     pz     px    dxy    dyz    dz2    dxz  x2-y2    tot
    1  0.084  0.001  0.112  0.001  0.000  0.000  0.000  0.000  0.000  0.198
    2  0.084  0.001  0.112  0.001  0.000  0.000  0.000  0.000  0.000  0.198
tot    0.169  0.002  0.223  0.002  0.000  0.000  0.000  0.000  0.000  0.396
 
band     8 # energy   10.45523984 # occ.  0.00000000
 
ion      s     py     pz     px    dxy    dyz    dz2    dxz  x2-y2    tot
    1  0.199  0.042  0.014  0.042  0.000  0.000  0.000  0.000  0.000  0.297
    2  0.199  0.042  0.014  0.042  0.000  0.000  0.000  0.000  0.000  0.297
tot    0.399  0.083  0.029  0.083  0.000  0.000  0.000  0.000  0.000  0.594
 
band     9 # energy   12.77298423 # occ.  0.00000000
 
ion      s     py     pz     px    dxy    dyz    dz2    dxz  x2-y2    tot
    1  0.000  0.001  0.000  0.001  0.000  0.000  0.000  0.000  0.000  0.001
    2  0.000  0.001  0.000  0.001  0.000  0.000  0.000  0.000  0.000  0.001
tot    0.000  0.001  0.000  0.001  0.000  0.000  0.000  0.000  0.000  0.002
 
band    10 # energy   14.58147353 # occ.  0.00000000
 
ion      s     py     pz     px    dxy    dyz    dz2    dxz  x2-y2    tot
    1  0.080  0.014  0.002  0.014  0.000  0.000  0.000  0.000  0.000  0.111
    2  0.081  0.015  0.002  0.015  0.000  0.000  0.000  0.000  0.000  0.112
tot    0.161  0.029  0.004  0.029  0.000  0.000  0.000  0.000  0.000  0.223
 
band    11 # energy   17.28518459 # occ.  0.00000000
 
ion      s     py     pz     px    dxy    dyz    dz2    dxz  x2-y2    tot
    1  0.003  0.003  0.020  0.009  0.000  0.000  0.000  0.000  0.000  0.035
    2  0.006  0.001  0.025  0.005  0.000  0.000  0.000  0.000  0.000  0.037
tot    0.009  0.004  0.045  0.014  0.000  0.000  0.000  0.000  0.000  0.072
 
band    12 # energy   28.27779103 # occ.  0.00000000
 
ion      s     py     pz     px    dxy    dyz    dz2    dxz  x2-y2    tot
    1  0.003  0.008  0.011  0.046  0.000  0.000  0.000  0.000  0.000  0.068
    2  0.000  0.015  0.025  0.033  0.000  0.000  0.000  0.000  0.000  0.073
tot    0.003  0.023  0.037  0.079  0.000  0.000  0.000  0.000  0.000  0.142
 

 k-point   174 :    0.06428571 0.06428571 0.12857143     weight = 0.00555556

band     1 # energy   -5.98457339 # occ.  2.00000000
 
ion      s     py     pz     px    dxy    dyz    dz2    dxz  x2-y2    tot
    1  0.213  0.001  0.000  0.001  0.000  0.000  0.000  0.000  0.000  0.214
    2  0.213  0.001  0.000  0.001  0.000  0.000  0.000  0.000  0.000  0.214
tot    0.425  0.002  0.000  0.002  0.000  0.000  0.000  0.000  0.000  0.429
 
band     2 # energy    4.74066014 # occ.  2.00000000
 
ion      s     py     pz     px    dxy    dyz    dz2    dxz  x2-y2    tot
    1  0.057  0.075  0.020  0.075  0.000  0.000  0.000  0.000  0.000  0.226
    2  0.057  0.075  0.020  0.075  0.000  0.000  0.000  0.000  0.000  0.226
tot    0.114  0.149  0.039  0.149  0.000  0.000  0.000  0.000  0.000  0.451
 
band     3 # energy    5.27862596 # occ.  2.00000000
 
ion      s     py     pz     px    dxy    dyz    dz2    dxz  x2-y2    tot
    1  0.001  0.016  0.171  0.016  0.000  0.000  0.000  0.000  0.000  0.204
    2  0.001  0.016  0.171  0.016  0.000  0.000  0.000  0.000  0.000  0.204
tot    0.003  0.032  0.342  0.032  0.000  0.000  0.000  0.000  0.000  0.409
 
band     4 # energy    5.76423311 # occ.  2.00000000
 
ion      s     py     pz     px    dxy    dyz    dz2    dxz  x2-y2    tot
    1  0.000  0.109  0.000  0.109  0.000  0.000  0.000  0.000  0.000  0.218
    2  0.000  0.109  0.000  0.109  0.000  0.000  0.000  0.000  0.000  0.218
tot    0.000  0.218  0.000  0.218  0.000  0.000  0.000  0.000  0.000  0.437
 
band     5 # energy    8.54549611 # occ.  0.00000000
 
ion      s     py     pz     px    dxy    dyz    dz2    dxz  x2-y2    tot
    1  0.000  0.076  0.000  0.076  0.000  0.000  0.000  0.000  0.000  0.151
    2  0.000  0.076  0.000  0.076  0.000  0.000  0.000  0.000  0.000  0.151
tot    0.000  0.151  0.000  0.151  0.000  0.000  0.000  0.000  0.000  0.302
 
band     6 # energy    8.65498558 # occ.  0.00000000
 
ion      s     py     pz     px    dxy    dyz    dz2    dxz  x2-y2    tot
    1  0.012  0.049  0.045  0.049  0.000  0.000  0.000  0.000  0.000  0.155
    2  0.012  0.049  0.045  0.049  0.000  0.000  0.000  0.000  0.000  0.155
tot    0.023  0.098  0.091  0.098  0.000  0.000  0.000  0.000  0.000  0.311
 
band     7 # energy    8.70019413 # occ.  0.00000000
 
ion      s     py     pz     px    dxy    dyz    dz2    dxz  x2-y2    tot
    1  0.072  0.002  0.116  0.002  0.000  0.000  0.000  0.000  0.000  0.192
    2  0.072  0.002  0.116  0.002  0.000  0.000  0.000  0.000  0.000  0.192
tot    0.145  0.003  0.232  0.003  0.000  0.000  0.000  0.000  0.000  0.384
 
band     8 # energy   12.92573257 # occ.  0.00000000
 
ion      s     py     pz     px    dxy    dyz    dz2    dxz  x2-y2    tot
    1  0.000  0.001  0.000  0.001  0.000  0.000  0.000  0.000  0.000  0.001
    2  0.000  0.001  0.000  0.001  0.000  0.000  0.000  0.000  0.000  0.001
tot    0.000  0.001  0.000  0.001  0.000  0.000  0.000  0.000  0.000  0.003
 
band     9 # energy   13.42051857 # occ.  0.00000000
 
ion      s     py     pz     px    dxy    dyz    dz2    dxz  x2-y2    tot
    1  0.005  0.000  0.002  0.000  0.000  0.000  0.000  0.000  0.000  0.007
    2  0.005  0.000  0.001  0.000  0.000  0.000  0.000  0.000  0.000  0.006
tot    0.010  0.000  0.003  0.000  0.000  0.000  0.000  0.000  0.000  0.013
 
band    10 # energy   14.39008110 # occ.  0.00000000
 
ion      s     py     pz     px    dxy    dyz    dz2    dxz  x2-y2    tot
    1  0.086  0.011  0.001  0.011  0.000  0.000  0.000  0.000  0.000  0.110
    2  0.085  0.011  0.001  0.011  0.000  0.000  0.000  0.000  0.000  0.109
tot    0.171  0.023  0.003  0.023  0.000  0.000  0.000  0.000  0.000  0.219
 
band    11 # energy   17.23346432 # occ.  0.00000000
 
ion      s     py     pz     px    dxy    dyz    dz2    dxz  x2-y2    tot
    1  0.002  0.007  0.023  0.004  0.000  0.000  0.000  0.000  0.000  0.036
    2  0.005  0.003  0.029  0.001  0.000  0.000  0.000  0.000  0.000  0.039
tot    0.007  0.010  0.053  0.006  0.000  0.000  0.000  0.000  0.000  0.075
 
band    12 # energy   18.06055848 # occ.  0.00000000
 
ion      s     py     pz     px    dxy    dyz    dz2    dxz  x2-y2    tot
    1  0.001  0.021  0.003  0.011  0.000  0.000  0.000  0.000  0.000  0.036
    2  0.001  0.022  0.002  0.011  0.000  0.000  0.000  0.000  0.000  0.036
tot    0.002  0.042  0.005  0.023  0.000  0.000  0.000  0.000  0.000  0.072
 

 k-point   175 :    0.05357143 0.05357143 0.10714286     weight = 0.00555556

band     1 # energy   -6.02859274 # occ.  2.00000000
 
ion      s     py     pz     px    dxy    dyz    dz2    dxz  x2-y2    tot
    1  0.213  0.001  0.000  0.001  0.000  0.000  0.000  0.000  0.000  0.214
    2  0.213  0.001  0.000  0.001  0.000  0.000  0.000  0.000  0.000  0.214
tot    0.426  0.001  0.000  0.001  0.000  0.000  0.000  0.000  0.000  0.428
 
band     2 # energy    5.00864479 # occ.  2.00000000
 
ion      s     py     pz     px    dxy    dyz    dz2    dxz  x2-y2    tot
    1  0.046  0.080  0.017  0.080  0.000  0.000  0.000  0.000  0.000  0.224
    2  0.046  0.080  0.017  0.080  0.000  0.000  0.000  0.000  0.000  0.224
tot    0.093  0.161  0.033  0.161  0.000  0.000  0.000  0.000  0.000  0.448
 
band     3 # energy    5.43280571 # occ.  2.00000000
 
ion      s     py     pz     px    dxy    dyz    dz2    dxz  x2-y2    tot
    1  0.001  0.013  0.181  0.013  0.000  0.000  0.000  0.000  0.000  0.207
    2  0.001  0.013  0.181  0.013  0.000  0.000  0.000  0.000  0.000  0.207
tot    0.002  0.025  0.363  0.025  0.000  0.000  0.000  0.000  0.000  0.414
 
band     4 # energy    5.78571002 # occ.  2.00000000
 
ion      s     py     pz     px    dxy    dyz    dz2    dxz  x2-y2    tot
    1  0.000  0.109  0.000  0.109  0.000  0.000  0.000  0.000  0.000  0.218
    2  0.000  0.109  0.000  0.109  0.000  0.000  0.000  0.000  0.000  0.218
tot    0.000  0.218  0.000  0.218  0.000  0.000  0.000  0.000  0.000  0.435
 
band     5 # energy    8.50011167 # occ.  0.00000000
 
ion      s     py     pz     px    dxy    dyz    dz2    dxz  x2-y2    tot
    1  0.000  0.076  0.000  0.076  0.000  0.000  0.000  0.000  0.000  0.151
    2  0.000  0.076  0.000  0.076  0.000  0.000  0.000  0.000  0.000  0.151
tot    0.000  0.151  0.000  0.151  0.000  0.000  0.000  0.000  0.000  0.302
 
band     6 # energy    8.58334851 # occ.  0.00000000
 
ion      s     py     pz     px    dxy    dyz    dz2    dxz  x2-y2    tot
    1  0.009  0.055  0.035  0.055  0.000  0.000  0.000  0.000  0.000  0.155
    2  0.009  0.055  0.035  0.055  0.000  0.000  0.000  0.000  0.000  0.155
tot    0.018  0.111  0.070  0.111  0.000  0.000  0.000  0.000  0.000  0.309
 
band     7 # energy    8.65471467 # occ.  0.00000000
 
ion      s     py     pz     px    dxy    dyz    dz2    dxz  x2-y2    tot
    1  0.057  0.002  0.122  0.002  0.000  0.000  0.000  0.000  0.000  0.184
    2  0.057  0.002  0.122  0.002  0.000  0.000  0.000  0.000  0.000  0.184
tot    0.113  0.005  0.245  0.005  0.000  0.000  0.000  0.000  0.000  0.367
 
band     8 # energy    9.91075082 # occ.  0.00000000
 
ion      s     py     pz     px    dxy    dyz    dz2    dxz  x2-y2    tot
    1  0.252  0.027  0.011  0.027  0.000  0.000  0.000  0.000  0.000  0.319
    2  0.252  0.027  0.011  0.027  0.000  0.000  0.000  0.000  0.000  0.319
tot    0.505  0.055  0.023  0.055  0.000  0.000  0.000  0.000  0.000  0.638
 
band     9 # energy   13.07925328 # occ.  0.00000000
 
ion      s     py     pz     px    dxy    dyz    dz2    dxz  x2-y2    tot
    1  0.000  0.001  0.000  0.001  0.000  0.000  0.000  0.000  0.000  0.001
    2  0.000  0.001  0.000  0.001  0.000  0.000  0.000  0.000  0.000  0.001
tot    0.000  0.001  0.000  0.001  0.000  0.000  0.000  0.000  0.000  0.003
 
band    10 # energy   13.44782835 # occ.  0.00000000
 
ion      s     py     pz     px    dxy    dyz    dz2    dxz  x2-y2    tot
    1  0.001  0.000  0.000  0.000  0.000  0.000  0.000  0.000  0.000  0.002
    2  0.001  0.000  0.000  0.000  0.000  0.000  0.000  0.000  0.000  0.002
tot    0.002  0.000  0.001  0.000  0.000  0.000  0.000  0.000  0.000  0.004
 
band    11 # energy   14.21827337 # occ.  0.00000000
 
ion      s     py     pz     px    dxy    dyz    dz2    dxz  x2-y2    tot
    1  0.090  0.008  0.001  0.008  0.000  0.000  0.000  0.000  0.000  0.107
    2  0.090  0.008  0.001  0.008  0.000  0.000  0.000  0.000  0.000  0.107
tot    0.180  0.017  0.001  0.017  0.000  0.000  0.000  0.000  0.000  0.215
 
band    12 # energy   17.03119872 # occ.  0.00000000
 
ion      s     py     pz     px    dxy    dyz    dz2    dxz  x2-y2    tot
    1  0.006  0.012  0.006  0.013  0.000  0.000  0.000  0.000  0.000  0.036
    2  0.007  0.009  0.011  0.010  0.000  0.000  0.000  0.000  0.000  0.038
tot    0.013  0.021  0.017  0.023  0.000  0.000  0.000  0.000  0.000  0.074
 

 k-point   176 :    0.04285714 0.04285714 0.08571429     weight = 0.00555556

band     1 # energy   -6.06467519 # occ.  2.00000000
 
ion      s     py     pz     px    dxy    dyz    dz2    dxz  x2-y2    tot
    1  0.213  0.000  0.000  0.000  0.000  0.000  0.000  0.000  0.000  0.214
    2  0.213  0.000  0.000  0.000  0.000  0.000  0.000  0.000  0.000  0.214
tot    0.426  0.001  0.000  0.001  0.000  0.000  0.000  0.000  0.000  0.428
 
band     2 # energy    5.26010313 # occ.  2.00000000
 
ion      s     py     pz     px    dxy    dyz    dz2    dxz  x2-y2    tot
    1  0.035  0.087  0.013  0.087  0.000  0.000  0.000  0.000  0.000  0.222
    2  0.035  0.087  0.013  0.087  0.000  0.000  0.000  0.000  0.000  0.222
tot    0.070  0.174  0.026  0.174  0.000  0.000  0.000  0.000  0.000  0.444
 
band     3 # energy    5.56760051 # occ.  2.00000000
 
ion      s     py     pz     px    dxy    dyz    dz2    dxz  x2-y2    tot
    1  0.000  0.009  0.192  0.009  0.000  0.000  0.000  0.000  0.000  0.210
    2  0.000  0.009  0.192  0.009  0.000  0.000  0.000  0.000  0.000  0.210
tot    0.001  0.018  0.383  0.018  0.000  0.000  0.000  0.000  0.000  0.420
 
band     4 # energy    5.80271627 # occ.  2.00000000
 
ion      s     py     pz     px    dxy    dyz    dz2    dxz  x2-y2    tot
    1  0.000  0.109  0.000  0.109  0.000  0.000  0.000  0.000  0.000  0.217
    2  0.000  0.109  0.000  0.109  0.000  0.000  0.000  0.000  0.000  0.217
tot    0.000  0.217  0.000  0.217  0.000  0.000  0.000  0.000  0.000  0.434
 
band     5 # energy    8.46296898 # occ.  0.00000000
 
ion      s     py     pz     px    dxy    dyz    dz2    dxz  x2-y2    tot
    1  0.000  0.076  0.000  0.076  0.000  0.000  0.000  0.000  0.000  0.151
    2  0.000  0.076  0.000  0.076  0.000  0.000  0.000  0.000  0.000  0.151
tot    0.000  0.151  0.000  0.151  0.000  0.000  0.000  0.000  0.000  0.302
 
band     6 # energy    8.52075096 # occ.  0.00000000
 
ion      s     py     pz     px    dxy    dyz    dz2    dxz  x2-y2    tot
    1  0.006  0.061  0.025  0.061  0.000  0.000  0.000  0.000  0.000  0.154
    2  0.006  0.061  0.025  0.061  0.000  0.000  0.000  0.000  0.000  0.154
tot    0.012  0.123  0.050  0.123  0.000  0.000  0.000  0.000  0.000  0.308
 
band     7 # energy    8.60153722 # occ.  0.00000000
 
ion      s     py     pz     px    dxy    dyz    dz2    dxz  x2-y2    tot
    1  0.037  0.003  0.130  0.003  0.000  0.000  0.000  0.000  0.000  0.173
    2  0.037  0.003  0.130  0.003  0.000  0.000  0.000  0.000  0.000  0.173
tot    0.074  0.006  0.260  0.006  0.000  0.000  0.000  0.000  0.000  0.346
 
band     8 # energy    9.66827026 # occ.  0.00000000
 
ion      s     py     pz     px    dxy    dyz    dz2    dxz  x2-y2    tot
    1  0.285  0.020  0.008  0.020  0.000  0.000  0.000  0.000  0.000  0.331
    2  0.285  0.020  0.008  0.020  0.000  0.000  0.000  0.000  0.000  0.331
tot    0.569  0.039  0.016  0.039  0.000  0.000  0.000  0.000  0.000  0.663
 
band     9 # energy   13.41982864 # occ.  0.00000000
 
ion      s     py     pz     px    dxy    dyz    dz2    dxz  x2-y2    tot
    1  0.000  0.001  0.000  0.000  0.000  0.000  0.000  0.000  0.000  0.001
    2  0.000  0.001  0.000  0.000  0.000  0.000  0.000  0.000  0.000  0.001
tot    0.001  0.001  0.000  0.000  0.000  0.000  0.000  0.000  0.000  0.002
 
band    10 # energy   14.06976565 # occ.  0.00000000
 
ion      s     py     pz     px    dxy    dyz    dz2    dxz  x2-y2    tot
    1  0.093  0.006  0.000  0.006  0.000  0.000  0.000  0.000  0.000  0.105
    2  0.094  0.006  0.000  0.006  0.000  0.000  0.000  0.000  0.000  0.105
tot    0.187  0.011  0.001  0.011  0.000  0.000  0.000  0.000  0.000  0.211
 
band    11 # energy   17.17123338 # occ.  0.00000000
 
ion      s     py     pz     px    dxy    dyz    dz2    dxz  x2-y2    tot
    1  0.003  0.016  0.011  0.007  0.000  0.000  0.000  0.000  0.000  0.038
    2  0.003  0.019  0.008  0.008  0.000  0.000  0.000  0.000  0.000  0.038
tot    0.006  0.035  0.020  0.015  0.000  0.000  0.000  0.000  0.000  0.076
 
band    12 # energy   28.41454736 # occ.  0.00000000
 
ion      s     py     pz     px    dxy    dyz    dz2    dxz  x2-y2    tot
    1  0.001  0.013  0.026  0.009  0.000  0.000  0.000  0.000  0.000  0.050
    2  0.000  0.015  0.018  0.009  0.000  0.000  0.000  0.000  0.000  0.043
tot    0.001  0.028  0.044  0.019  0.000  0.000  0.000  0.000  0.000  0.092
 

 k-point   177 :    0.03214286 0.03214286 0.06428571     weight = 0.00555556

band     1 # energy   -6.09277868 # occ.  2.00000000
 
ion      s     py     pz     px    dxy    dyz    dz2    dxz  x2-y2    tot
    1  0.213  0.000  0.000  0.000  0.000  0.000  0.000  0.000  0.000  0.214
    2  0.213  0.000  0.000  0.000  0.000  0.000  0.000  0.000  0.000  0.214
tot    0.427  0.000  0.000  0.000  0.000  0.000  0.000  0.000  0.000  0.427
 
band     2 # energy    5.48446700 # occ.  2.00000000
 
ion      s     py     pz     px    dxy    dyz    dz2    dxz  x2-y2    tot
    1  0.023  0.094  0.009  0.094  0.000  0.000  0.000  0.000  0.000  0.220
    2  0.023  0.094  0.009  0.094  0.000  0.000  0.000  0.000  0.000  0.220
tot    0.047  0.188  0.018  0.188  0.000  0.000  0.000  0.000  0.000  0.440
 
band     3 # energy    5.67881496 # occ.  2.00000000
 
ion      s     py     pz     px    dxy    dyz    dz2    dxz  x2-y2    tot
    1  0.000  0.006  0.201  0.006  0.000  0.000  0.000  0.000  0.000  0.212
    2  0.000  0.006  0.201  0.006  0.000  0.000  0.000  0.000  0.000  0.212
tot    0.000  0.011  0.402  0.011  0.000  0.000  0.000  0.000  0.000  0.425
 
band     4 # energy    5.81553688 # occ.  2.00000000
 
ion      s     py     pz     px    dxy    dyz    dz2    dxz  x2-y2    tot
    1  0.000  0.108  0.000  0.108  0.000  0.000  0.000  0.000  0.000  0.217
    2  0.000  0.108  0.000  0.108  0.000  0.000  0.000  0.000  0.000  0.217
tot    0.000  0.217  0.000  0.217  0.000  0.000  0.000  0.000  0.000  0.434
 
band     5 # energy    8.43407428 # occ.  0.00000000
 
ion      s     py     pz     px    dxy    dyz    dz2    dxz  x2-y2    tot
    1  0.000  0.076  0.000  0.076  0.000  0.000  0.000  0.000  0.000  0.151
    2  0.000  0.076  0.000  0.076  0.000  0.000  0.000  0.000  0.000  0.151
tot    0.000  0.151  0.000  0.151  0.000  0.000  0.000  0.000  0.000  0.303
 
band     6 # energy    8.46889744 # occ.  0.00000000
 
ion      s     py     pz     px    dxy    dyz    dz2    dxz  x2-y2    tot
    1  0.004  0.067  0.015  0.067  0.000  0.000  0.000  0.000  0.000  0.153
    2  0.004  0.067  0.015  0.067  0.000  0.000  0.000  0.000  0.000  0.153
tot    0.007  0.134  0.030  0.134  0.000  0.000  0.000  0.000  0.000  0.306
 
band     7 # energy    8.53945149 # occ.  0.00000000
 
ion      s     py     pz     px    dxy    dyz    dz2    dxz  x2-y2    tot
    1  0.018  0.003  0.138  0.003  0.000  0.000  0.000  0.000  0.000  0.163
    2  0.018  0.003  0.138  0.003  0.000  0.000  0.000  0.000  0.000  0.163
tot    0.036  0.006  0.277  0.006  0.000  0.000  0.000  0.000  0.000  0.325
 
band     8 # energy    9.46777218 # occ.  0.00000000
 
ion      s     py     pz     px    dxy    dyz    dz2    dxz  x2-y2    tot
    1  0.317  0.012  0.004  0.012  0.000  0.000  0.000  0.000  0.000  0.344
    2  0.317  0.012  0.004  0.012  0.000  0.000  0.000  0.000  0.000  0.344
tot    0.633  0.023  0.008  0.023  0.000  0.000  0.000  0.000  0.000  0.688
 
band     9 # energy   13.35657096 # occ.  0.00000000
 
ion      s     py     pz     px    dxy    dyz    dz2    dxz  x2-y2    tot
    1  0.000  0.000  0.000  0.000  0.000  0.000  0.000  0.000  0.000  0.001
    2  0.000  0.000  0.000  0.000  0.000  0.000  0.000  0.000  0.000  0.001
tot    0.000  0.001  0.000  0.001  0.000  0.000  0.000  0.000  0.000  0.002
 
band    10 # energy   13.95203582 # occ.  0.00000000
 
ion      s     py     pz     px    dxy    dyz    dz2    dxz  x2-y2    tot
    1  0.097  0.003  0.000  0.003  0.000  0.000  0.000  0.000  0.000  0.104
    2  0.097  0.003  0.000  0.003  0.000  0.000  0.000  0.000  0.000  0.104
tot    0.194  0.007  0.000  0.007  0.000  0.000  0.000  0.000  0.000  0.208
 
band    11 # energy   17.17662025 # occ.  0.00000000
 
ion      s     py     pz     px    dxy    dyz    dz2    dxz  x2-y2    tot
    1  0.000  0.006  0.029  0.004  0.000  0.000  0.000  0.000  0.000  0.039
    2  0.000  0.007  0.030  0.002  0.000  0.000  0.000  0.000  0.000  0.039
tot    0.001  0.013  0.059  0.006  0.000  0.000  0.000  0.000  0.000  0.079
 
band    12 # energy   29.19759154 # occ.  0.00000000
 
ion      s     py     pz     px    dxy    dyz    dz2    dxz  x2-y2    tot
    1  0.000  0.009  0.001  0.009  0.000  0.000  0.000  0.000  0.000  0.020
    2  0.000  0.003  0.001  0.008  0.000  0.000  0.000  0.000  0.000  0.013
tot    0.000  0.012  0.002  0.017  0.000  0.000  0.000  0.000  0.000  0.032
 

 k-point   178 :    0.02142857 0.02142857 0.04285714     weight = 0.00555556

band     1 # energy   -6.11287164 # occ.  2.00000000
 
ion      s     py     pz     px    dxy    dyz    dz2    dxz  x2-y2    tot
    1  0.213  0.000  0.000  0.000  0.000  0.000  0.000  0.000  0.000  0.214
    2  0.213  0.000  0.000  0.000  0.000  0.000  0.000  0.000  0.000  0.214
tot    0.427  0.000  0.000  0.000  0.000  0.000  0.000  0.000  0.000  0.427
 
band     2 # energy    5.66682941 # occ.  2.00000000
 
ion      s     py     pz     px    dxy    dyz    dz2    dxz  x2-y2    tot
    1  0.012  0.101  0.005  0.101  0.000  0.000  0.000  0.000  0.000  0.218
    2  0.012  0.101  0.005  0.101  0.000  0.000  0.000  0.000  0.000  0.218
tot    0.024  0.201  0.010  0.201  0.000  0.000  0.000  0.000  0.000  0.436
 
band     3 # energy    5.76216075 # occ.  2.00000000
 
ion      s     py     pz     px    dxy    dyz    dz2    dxz  x2-y2    tot
    1  0.000  0.003  0.209  0.003  0.000  0.000  0.000  0.000  0.000  0.214
    2  0.000  0.003  0.209  0.003  0.000  0.000  0.000  0.000  0.000  0.214
tot    0.000  0.005  0.418  0.005  0.000  0.000  0.000  0.000  0.000  0.429
 
band     4 # energy    5.82448046 # occ.  2.00000000
 
ion      s     py     pz     px    dxy    dyz    dz2    dxz  x2-y2    tot
    1  0.000  0.108  0.000  0.108  0.000  0.000  0.000  0.000  0.000  0.216
    2  0.000  0.108  0.000  0.108  0.000  0.000  0.000  0.000  0.000  0.216
tot    0.000  0.216  0.000  0.216  0.000  0.000  0.000  0.000  0.000  0.433
 
band     5 # energy    8.41342994 # occ.  0.00000000
 
ion      s     py     pz     px    dxy    dyz    dz2    dxz  x2-y2    tot
    1  0.000  0.076  0.000  0.076  0.000  0.000  0.000  0.000  0.000  0.151
    2  0.000  0.076  0.000  0.076  0.000  0.000  0.000  0.000  0.000  0.151
tot    0.000  0.151  0.000  0.151  0.000  0.000  0.000  0.000  0.000  0.303
 
band     6 # energy    8.42974547 # occ.  0.00000000
 
ion      s     py     pz     px    dxy    dyz    dz2    dxz  x2-y2    tot
    1  0.002  0.072  0.007  0.072  0.000  0.000  0.000  0.000  0.000  0.152
    2  0.002  0.072  0.007  0.072  0.000  0.000  0.000  0.000  0.000  0.152
tot    0.003  0.143  0.014  0.143  0.000  0.000  0.000  0.000  0.000  0.304
 
band     7 # energy    8.47316294 # occ.  0.00000000
 
ion      s     py     pz     px    dxy    dyz    dz2    dxz  x2-y2    tot
    1  0.005  0.002  0.145  0.002  0.000  0.000  0.000  0.000  0.000  0.155
    2  0.005  0.002  0.145  0.002  0.000  0.000  0.000  0.000  0.000  0.155
tot    0.010  0.005  0.291  0.005  0.000  0.000  0.000  0.000  0.000  0.310
 
band     8 # energy    9.32252384 # occ.  0.00000000
 
ion      s     py     pz     px    dxy    dyz    dz2    dxz  x2-y2    tot
    1  0.341  0.005  0.001  0.005  0.000  0.000  0.000  0.000  0.000  0.353
    2  0.341  0.005  0.001  0.005  0.000  0.000  0.000  0.000  0.000  0.353
tot    0.683  0.011  0.002  0.011  0.000  0.000  0.000  0.000  0.000  0.706
 
band     9 # energy   13.46057271 # occ.  0.00000000
 
ion      s     py     pz     px    dxy    dyz    dz2    dxz  x2-y2    tot
    1  0.000  0.000  0.000  0.000  0.000  0.000  0.000  0.000  0.000  0.000
    2  0.000  0.000  0.000  0.000  0.000  0.000  0.000  0.000  0.000  0.000
tot    0.000  0.000  0.000  0.000  0.000  0.000  0.000  0.000  0.000  0.001
 
band    10 # energy   13.53310493 # occ.  0.00000000
 
ion      s     py     pz     px    dxy    dyz    dz2    dxz  x2-y2    tot
    1  0.000  0.000  0.000  0.000  0.000  0.000  0.000  0.000  0.000  0.000
    2  0.000  0.000  0.000  0.000  0.000  0.000  0.000  0.000  0.000  0.000
tot    0.000  0.000  0.000  0.000  0.000  0.000  0.000  0.000  0.000  0.000
 
band    11 # energy   13.86464748 # occ.  0.00000000
 
ion      s     py     pz     px    dxy    dyz    dz2    dxz  x2-y2    tot
    1  0.100  0.002  0.000  0.002  0.000  0.000  0.000  0.000  0.000  0.103
    2  0.100  0.002  0.000  0.002  0.000  0.000  0.000  0.000  0.000  0.103
tot    0.199  0.003  0.000  0.003  0.000  0.000  0.000  0.000  0.000  0.205
 
band    12 # energy   17.11879329 # occ.  0.00000000
 
ion      s     py     pz     px    dxy    dyz    dz2    dxz  x2-y2    tot
    1  0.000  0.003  0.035  0.001  0.000  0.000  0.000  0.000  0.000  0.040
    2  0.000  0.002  0.036  0.001  0.000  0.000  0.000  0.000  0.000  0.040
tot    0.000  0.006  0.071  0.003  0.000  0.000  0.000  0.000  0.000  0.080
 

 k-point   179 :    0.01071429 0.01071429 0.02142857     weight = 0.00555556

band     1 # energy   -6.12493067 # occ.  2.00000000
 
ion      s     py     pz     px    dxy    dyz    dz2    dxz  x2-y2    tot
    1  0.213  0.000  0.000  0.000  0.000  0.000  0.000  0.000  0.000  0.213
    2  0.213  0.000  0.000  0.000  0.000  0.000  0.000  0.000  0.000  0.213
tot    0.427  0.000  0.000  0.000  0.000  0.000  0.000  0.000  0.000  0.427
 
band     2 # energy    5.78842285 # occ.  2.00000000
 
ion      s     py     pz     px    dxy    dyz    dz2    dxz  x2-y2    tot
    1  0.003  0.106  0.001  0.106  0.000  0.000  0.000  0.000  0.000  0.217
    2  0.003  0.106  0.001  0.106  0.000  0.000  0.000  0.000  0.000  0.217
tot    0.007  0.212  0.003  0.212  0.000  0.000  0.000  0.000  0.000  0.433
 
band     3 # energy    5.81393096 # occ.  2.00000000
 
ion      s     py     pz     px    dxy    dyz    dz2    dxz  x2-y2    tot
    1  0.000  0.001  0.214  0.001  0.000  0.000  0.000  0.000  0.000  0.216
    2  0.000  0.001  0.214  0.001  0.000  0.000  0.000  0.000  0.000  0.216
tot    0.000  0.001  0.429  0.001  0.000  0.000  0.000  0.000  0.000  0.431
 
band     4 # energy    5.82975857 # occ.  2.00000000
 
ion      s     py     pz     px    dxy    dyz    dz2    dxz  x2-y2    tot
    1  0.000  0.108  0.000  0.108  0.000  0.000  0.000  0.000  0.000  0.216
    2  0.000  0.108  0.000  0.108  0.000  0.000  0.000  0.000  0.000  0.216
tot    0.000  0.216  0.000  0.216  0.000  0.000  0.000  0.000  0.000  0.433
 
band     5 # energy    8.40104165 # occ.  0.00000000
 
ion      s     py     pz     px    dxy    dyz    dz2    dxz  x2-y2    tot
    1  0.000  0.076  0.000  0.076  0.000  0.000  0.000  0.000  0.000  0.151
    2  0.000  0.076  0.000  0.076  0.000  0.000  0.000  0.000  0.000  0.151
tot    0.000  0.151  0.000  0.151  0.000  0.000  0.000  0.000  0.000  0.303
 
band     6 # energy    8.40525880 # occ.  0.00000000
 
ion      s     py     pz     px    dxy    dyz    dz2    dxz  x2-y2    tot
    1  0.000  0.075  0.002  0.075  0.000  0.000  0.000  0.000  0.000  0.152
    2  0.000  0.075  0.002  0.075  0.000  0.000  0.000  0.000  0.000  0.152
tot    0.001  0.149  0.004  0.149  0.000  0.000  0.000  0.000  0.000  0.303
 
band     7 # energy    8.41853689 # occ.  0.00000000
 
ion      s     py     pz     px    dxy    dyz    dz2    dxz  x2-y2    tot
    1  0.000  0.001  0.150  0.001  0.000  0.000  0.000  0.000  0.000  0.152
    2  0.000  0.001  0.150  0.001  0.000  0.000  0.000  0.000  0.000  0.152
tot    0.001  0.002  0.300  0.002  0.000  0.000  0.000  0.000  0.000  0.304
 
band     8 # energy    9.23735792 # occ.  0.00000000
 
ion      s     py     pz     px    dxy    dyz    dz2    dxz  x2-y2    tot
    1  0.355  0.001  0.000  0.001  0.000  0.000  0.000  0.000  0.000  0.358
    2  0.355  0.001  0.000  0.001  0.000  0.000  0.000  0.000  0.000  0.358
tot    0.710  0.003  0.000  0.003  0.000  0.000  0.000  0.000  0.000  0.715
 
band     9 # energy   13.52909550 # occ.  0.00000000
 
ion      s     py     pz     px    dxy    dyz    dz2    dxz  x2-y2    tot
    1  0.000  0.000  0.000  0.000  0.000  0.000  0.000  0.000  0.000  0.000
    2  0.000  0.000  0.000  0.000  0.000  0.000  0.000  0.000  0.000  0.000
tot    0.000  0.000  0.000  0.000  0.000  0.000  0.000  0.000  0.000  0.000
 
band    10 # energy   13.54794836 # occ.  0.00000000
 
ion      s     py     pz     px    dxy    dyz    dz2    dxz  x2-y2    tot
    1  0.000  0.000  0.000  0.000  0.000  0.000  0.000  0.000  0.000  0.000
    2  0.000  0.000  0.000  0.000  0.000  0.000  0.000  0.000  0.000  0.000
tot    0.000  0.000  0.000  0.000  0.000  0.000  0.000  0.000  0.000  0.000
 
band    11 # energy   13.81118141 # occ.  0.00000000
 
ion      s     py     pz     px    dxy    dyz    dz2    dxz  x2-y2    tot
    1  0.101  0.000  0.000  0.000  0.000  0.000  0.000  0.000  0.000  0.102
    2  0.101  0.000  0.000  0.000  0.000  0.000  0.000  0.000  0.000  0.102
tot    0.202  0.001  0.000  0.001  0.000  0.000  0.000  0.000  0.000  0.204
 
band    12 # energy   17.10779517 # occ.  0.00000000
 
ion      s     py     pz     px    dxy    dyz    dz2    dxz  x2-y2    tot
    1  0.000  0.018  0.014  0.007  0.000  0.000  0.000  0.000  0.000  0.040
    2  0.000  0.018  0.014  0.008  0.000  0.000  0.000  0.000  0.000  0.040
tot    0.000  0.036  0.029  0.015  0.000  0.000  0.000  0.000  0.000  0.080
 

 k-point   180 :    0.00000000 0.00000000-0.00000000     weight = 0.00555556

band     1 # energy   -6.12894452 # occ.  2.00000000
 
ion      s     py     pz     px    dxy    dyz    dz2    dxz  x2-y2    tot
    1  0.213  0.000  0.000  0.000  0.000  0.000  0.000  0.000  0.000  0.213
    2  0.213  0.000  0.000  0.000  0.000  0.000  0.000  0.000  0.000  0.213
tot    0.427  0.000  0.000  0.000  0.000  0.000  0.000  0.000  0.000  0.427
 
band     2 # energy    5.83150303 # occ.  2.00000000
 
ion      s     py     pz     px    dxy    dyz    dz2    dxz  x2-y2    tot
    1  0.000  0.075  0.066  0.076  0.000  0.000  0.000  0.000  0.000  0.216
    2  0.000  0.075  0.066  0.076  0.000  0.000  0.000  0.000  0.000  0.216
tot    0.000  0.149  0.132  0.151  0.000  0.000  0.000  0.000  0.000  0.432
 
band     3 # energy    5.83150320 # occ.  2.00000000
 
ion      s     py     pz     px    dxy    dyz    dz2    dxz  x2-y2    tot
    1  0.000  0.131  0.072  0.013  0.000  0.000  0.000  0.000  0.000  0.216
    2  0.000  0.131  0.072  0.013  0.000  0.000  0.000  0.000  0.000  0.216
tot    0.000  0.262  0.144  0.026  0.000  0.000  0.000  0.000  0.000  0.432
 
band     4 # energy    5.83150321 # occ.  2.00000000
 
ion      s     py     pz     px    dxy    dyz    dz2    dxz  x2-y2    tot
    1  0.000  0.010  0.078  0.128  0.000  0.000  0.000  0.000  0.000  0.216
    2  0.000  0.010  0.078  0.128  0.000  0.000  0.000  0.000  0.000  0.216
tot    0.000  0.021  0.156  0.255  0.000  0.000  0.000  0.000  0.000  0.432
 
band     5 # energy    8.39691166 # occ.  0.00000000
 
ion      s     py     pz     px    dxy    dyz    dz2    dxz  x2-y2    tot
    1  0.000  0.051  0.053  0.047  0.000  0.000  0.000  0.000  0.000  0.151
    2  0.000  0.051  0.053  0.047  0.000  0.000  0.000  0.000  0.000  0.151
tot    0.000  0.101  0.107  0.095  0.000  0.000  0.000  0.000  0.000  0.303
 
band     6 # energy    8.39691174 # occ.  0.00000000
 
ion      s     py     pz     px    dxy    dyz    dz2    dxz  x2-y2    tot
    1  0.000  0.059  0.087  0.005  0.000  0.000  0.000  0.000  0.000  0.151
    2  0.000  0.059  0.087  0.005  0.000  0.000  0.000  0.000  0.000  0.151
tot    0.000  0.118  0.174  0.010  0.000  0.000  0.000  0.000  0.000  0.303
 
band     7 # energy    8.39691175 # occ.  0.00000000
 
ion      s     py     pz     px    dxy    dyz    dz2    dxz  x2-y2    tot
    1  0.000  0.042  0.011  0.099  0.000  0.000  0.000  0.000  0.000  0.151
    2  0.000  0.042  0.011  0.099  0.000  0.000  0.000  0.000  0.000  0.151
tot    0.000  0.083  0.022  0.198  0.000  0.000  0.000  0.000  0.000  0.303
 
band     8 # energy    9.20972455 # occ.  0.00000000
 
ion      s     py     pz     px    dxy    dyz    dz2    dxz  x2-y2    tot
    1  0.359  0.000  0.000  0.000  0.000  0.000  0.000  0.000  0.000  0.359
    2  0.359  0.000  0.000  0.000  0.000  0.000  0.000  0.000  0.000  0.359
tot    0.717  0.000  0.000  0.000  0.000  0.000  0.000  0.000  0.000  0.717
 
band     9 # energy   13.55302242 # occ.  0.00000000
 
ion      s     py     pz     px    dxy    dyz    dz2    dxz  x2-y2    tot
    1  0.000  0.000  0.000  0.000  0.000  0.000  0.000  0.000  0.000  0.000
    2  0.000  0.000  0.000  0.000  0.000  0.000  0.000  0.000  0.000  0.000
tot    0.000  0.000  0.000  0.000  0.000  0.000  0.000  0.000  0.000  0.000
 
band    10 # energy   13.79295429 # occ.  0.00000000
 
ion      s     py     pz     px    dxy    dyz    dz2    dxz  x2-y2    tot
    1  0.102  0.000  0.000  0.000  0.000  0.000  0.000  0.000  0.000  0.102
    2  0.102  0.000  0.000  0.000  0.000  0.000  0.000  0.000  0.000  0.102
tot    0.203  0.000  0.000  0.000  0.000  0.000  0.000  0.000  0.000  0.203
 
band    11 # energy   17.08587380 # occ.  0.00000000
 
ion      s     py     pz     px    dxy    dyz    dz2    dxz  x2-y2    tot
    1  0.000  0.000  0.037  0.003  0.000  0.000  0.000  0.000  0.000  0.040
    2  0.000  0.000  0.037  0.003  0.000  0.000  0.000  0.000  0.000  0.040
tot    0.000  0.001  0.073  0.006  0.000  0.000  0.000  0.000  0.000  0.080
 
band    12 # energy   17.08652674 # occ.  0.00000000
 
ion      s     py     pz     px    dxy    dyz    dz2    dxz  x2-y2    tot
    1  0.000  0.027  0.001  0.013  0.000  0.000  0.000  0.000  0.000  0.040
    2  0.000  0.027  0.001  0.013  0.000  0.000  0.000  0.000  0.000  0.040
tot    0.000  0.053  0.002  0.025  0.000  0.000  0.000  0.000  0.000  0.080
 
