<?xml version="1.0" encoding="ISO-8859-1"?>
<modeling>
 <generator>
  <i name="program" type="string">vasp </i>
  <i name="version" type="string">6.6.0  </i>
  <i name="subversion" type="string">06Mar2026 (build Apr 30 2026 15:36:16) complex                        parallel </i>
  <i name="platform" type="string">LinuxIFC </i>
  <i name="date" type="string">2026 05 02 </i>
  <i name="time" type="string">17:40:44 </i>
 </generator>
 <incar>
  <i type="string" name="SYSTEM">Si_diamond_PBE_band_vasp</i>
  <i type="int" name="ISTART">     0</i>
  <i type="string" name="PREC">Accurate</i>
  <i type="string" name="ALGO">Fast</i>
  <i type="int" name="ICHARG">     2</i>
  <i type="int" name="NELM">   100</i>
  <i type="int" name="IBRION">    -1</i>
  <i name="EDIFF">      0.00000100</i>
  <i type="int" name="NSW">     0</i>
  <i name="ENCUT">    400.00000000</i>
  <i type="logical" name="LREAL"> F  </i>
  <i type="int" name="ISMEAR">     0</i>
  <i name="SIGMA">      0.05000000</i>
  <i type="logical" name="LWAVE"> T  </i>
  <i type="logical" name="LCHARG"> T  </i>
  <i type="string" name="GGA">Pe</i>
 </incar>
 <primitive_cell>
  <structure name="primitive_cell" >
   <crystal>
    <varray name="basis" >
     <v>       0.00000000       2.71500000       2.71500000 </v>
     <v>       2.71500000       0.00000000       2.71500000 </v>
     <v>       2.71500000       2.71500000       0.00000000 </v>
    </varray>
    <i name="volume">     40.02575175 </i>
    <varray name="rec_basis" >
     <v>      -0.18416206       0.18416206       0.18416206 </v>
     <v>       0.18416206      -0.18416206       0.18416206 </v>
     <v>       0.18416206       0.18416206      -0.18416206 </v>
    </varray>
   </crystal>
   <varray name="positions" >
    <v>       0.00000000       0.00000000       0.00000000 </v>
    <v>       0.25000000       0.25000000       0.25000000 </v>
   </varray>
  </structure>
  <varray name="primitive_index" >
   <v type="int" >        1 </v>
   <v type="int" >        2 </v>
  </varray>
 </primitive_cell>
 <kpoints>
  <generation param="Gamma">
   <v type="int" name="divisions">       8        8        8 </v>
   <v name="usershift">      0.00000000       0.00000000       0.00000000 </v>
   <v name="genvec1">      0.12500000       0.00000000       0.00000000 </v>
   <v name="genvec2">      0.00000000       0.12500000       0.00000000 </v>
   <v name="genvec3">     -0.00000000      -0.00000000       0.12500000 </v>
   <v name="shift">      0.00000000       0.00000000       0.00000000 </v>
  </generation>
  <varray name="kpointlist" >
   <v>       0.00000000       0.00000000       0.00000000 </v>
   <v>       0.12500000       0.00000000       0.00000000 </v>
   <v>       0.25000000       0.00000000       0.00000000 </v>
   <v>       0.37500000       0.00000000       0.00000000 </v>
   <v>       0.50000000       0.00000000       0.00000000 </v>
   <v>       0.12500000       0.12500000       0.00000000 </v>
   <v>       0.25000000       0.12500000       0.00000000 </v>
   <v>       0.37500000       0.12500000       0.00000000 </v>
   <v>       0.50000000       0.12500000       0.00000000 </v>
   <v>      -0.37500000       0.12500000       0.00000000 </v>
   <v>      -0.25000000       0.12500000       0.00000000 </v>
   <v>      -0.12500000       0.12500000       0.00000000 </v>
   <v>       0.25000000       0.25000000       0.00000000 </v>
   <v>       0.37500000       0.25000000       0.00000000 </v>
   <v>       0.50000000       0.25000000       0.00000000 </v>
   <v>      -0.37500000       0.25000000       0.00000000 </v>
   <v>      -0.25000000       0.25000000       0.00000000 </v>
   <v>       0.37500000       0.37500000       0.00000000 </v>
   <v>       0.50000000       0.37500000       0.00000000 </v>
   <v>      -0.37500000       0.37500000       0.00000000 </v>
   <v>       0.50000000       0.50000000       0.00000000 </v>
   <v>       0.37500000       0.25000000       0.12500000 </v>
   <v>       0.50000000       0.25000000       0.12500000 </v>
   <v>      -0.37500000       0.25000000       0.12500000 </v>
   <v>       0.50000000       0.37500000       0.12500000 </v>
   <v>      -0.37500000       0.37500000       0.12500000 </v>
   <v>      -0.25000000       0.37500000       0.12500000 </v>
   <v>      -0.37500000       0.50000000       0.12500000 </v>
   <v>      -0.25000000       0.50000000       0.25000000 </v>
  </varray>
  <varray name="weights" >
   <v>       0.00195312 </v>
   <v>       0.01562500 </v>
   <v>       0.01562500 </v>
   <v>       0.01562500 </v>
   <v>       0.00781250 </v>
   <v>       0.01171875 </v>
   <v>       0.04687500 </v>
   <v>       0.04687500 </v>
   <v>       0.04687500 </v>
   <v>       0.04687500 </v>
   <v>       0.04687500 </v>
   <v>       0.02343750 </v>
   <v>       0.01171875 </v>
   <v>       0.04687500 </v>
   <v>       0.04687500 </v>
   <v>       0.04687500 </v>
   <v>       0.02343750 </v>
   <v>       0.01171875 </v>
   <v>       0.04687500 </v>
   <v>       0.02343750 </v>
   <v>       0.00585938 </v>
   <v>       0.04687500 </v>
   <v>       0.09375000 </v>
   <v>       0.04687500 </v>
   <v>       0.04687500 </v>
   <v>       0.09375000 </v>
   <v>       0.04687500 </v>
   <v>       0.02343750 </v>
   <v>       0.01171875 </v>
  </varray>
 </kpoints>
 <parameters>
  <separator name="general" >
   <i type="string" name="SYSTEM">Si_diamond_PBE_band_vasp</i>
   <i type="logical" name="LCOMPAT"> F  </i>
  </separator>
  <separator name="electronic" >
   <i type="string" name="PREC">accura</i>
   <i name="ENMAX">    400.00000000</i>
   <i name="ENAUG">    322.06900000</i>
   <i name="EDIFF">      0.00000100</i>
   <i type="int" name="IALGO">    68</i>
   <i type="int" name="IWAVPR">    10</i>
   <i name="MAXDIS">      0.00000000</i>
   <i type="int" name="NBANDS">     8</i>
   <i type="int" name="NBANDSLOW">    -1</i>
   <i type="int" name="NBANDSHIGH">    -1</i>
   <i name="NELECT">      8.00000000</i>
   <i type="int" name="TURBO">     0</i>
   <i type="int" name="IRESTART">     0</i>
   <i type="int" name="NREBOOT">     0</i>
   <i type="int" name="NMIN">     0</i>
   <i name="EREF">      0.00000000</i>
   <separator name="electronic smearing" >
    <i type="int" name="ISMEAR">     0</i>
    <i name="SIGMA">      0.05000000</i>
    <i name="KSPACING">      0.50000000</i>
    <i type="logical" name="KGAMMA"> T  </i>
    <i type="logical" name="KBLOWUP"> T  </i>
   </separator>
   <separator name="electronic projectors" >
    <i type="logical" name="LREAL"> F  </i>
    <v name="ROPT">      0.00000000</v>
    <i type="int" name="LMAXPAW">  -100</i>
    <i type="int" name="LMAXMIX">     2</i>
    <i type="logical" name="NLSPLINE"> F  </i>
   </separator>
   <separator name="electronic startup" >
    <i type="int" name="ISTART">     0</i>
    <i type="int" name="ICHARG">     2</i>
    <i type="int" name="INIWAV">     1</i>
   </separator>
   <separator name="electronic spin" >
    <i type="int" name="ISPIN">     1</i>
    <i type="logical" name="LNONCOLLINEAR"> F  </i>
    <v name="MAGMOM">      1.00000000      1.00000000</v>
    <i name="NUPDOWN">     -1.00000000</i>
    <i type="logical" name="LSORBIT"> F  </i>
    <v name="SAXIS">      0.00000000      0.00000000      1.00000000</v>
    <i type="logical" name="LSPIRAL"> F  </i>
    <v name="QSPIRAL">      0.00000000      0.00000000      0.00000000</v>
    <i type="logical" name="LZEROZ"> F  </i>
   </separator>
   <separator name="electronic exchange-correlation" >
    <i type="logical" name="LASPH"> F  </i>
   </separator>
   <separator name="electronic convergence" >
    <i type="int" name="NELM">   100</i>
    <i type="int" name="NELMDL">    -5</i>
    <i type="int" name="NELMIN">     2</i>
    <i name="ENINI">    400.00000000</i>
    <separator name="electronic convergence detail" >
     <i type="logical" name="LDIAG"> T  </i>
     <i type="logical" name="LSUBROT"> F  </i>
     <i type="logical" name="LROBUST"> F  </i>
     <i type="int" name="ISEARCH">     0</i>
     <i name="WEIMIN">      0.00000000</i>
     <i name="EBREAK">      0.00000003</i>
     <i name="DEPER">      0.30000000</i>
     <i type="int" name="NRMM">     4</i>
     <i name="TIME">      0.40000000</i>
    </separator>
   </separator>
   <separator name="electronic mixer" >
    <i name="AMIX">      0.40000000</i>
    <i name="BMIX">      1.00000000</i>
    <i name="AMIN">      0.10000000</i>
    <i name="AMIX_MAG">      1.60000000</i>
    <i name="BMIX_MAG">      1.00000000</i>
    <separator name="electronic mixer details" >
     <i type="int" name="IMIX">     4</i>
     <i type="logical" name="MIXFIRST"> F  </i>
     <i type="int" name="MAXMIX">   -45</i>
     <i name="WC">    100.00000000</i>
     <i type="int" name="INIMIX">     1</i>
     <i type="int" name="MIXPRE">     1</i>
     <i type="int" name="MREMOVE">     5</i>
    </separator>
   </separator>
   <separator name="electronic dipolcorrection" >
    <i type="logical" name="LDIPOL"> F  </i>
    <i type="logical" name="LMONO"> F  </i>
    <i type="int" name="IDIPOL">     0</i>
    <i name="EPSILON">      1.00000000</i>
    <v name="DIPOL">   -100.00000000   -100.00000000   -100.00000000</v>
    <i name="EFIELD">      0.00000000</i>
    <i type="logical" name="LVACPOTAV"> F  </i>
   </separator>
  </separator>
  <separator name="grids" >
   <i type="int" name="NGX">    28</i>
   <i type="int" name="NGY">    28</i>
   <i type="int" name="NGZ">    28</i>
   <i type="int" name="NGXF">    56</i>
   <i type="int" name="NGYF">    56</i>
   <i type="int" name="NGZF">    56</i>
   <i type="logical" name="ADDGRID"> F  </i>
  </separator>
  <separator name="ionic" >
   <i type="int" name="NSW">     0</i>
   <i type="int" name="IBRION">    -1</i>
   <i type="int" name="MDALGO">     0</i>
   <i type="int" name="ISIF">     2</i>
   <i name="PSTRESS">      0.00000000</i>
   <i name="EDIFFG">      0.00001000</i>
   <i type="int" name="NFREE">     0</i>
   <i name="POTIM">      0.50000000</i>
   <i name="SMASS">     -3.00000000</i>
   <i name="SCALEE">      1.00000000</i>
  </separator>
  <separator name="ionic md" >
   <i name="TEBEG">      0.00010000</i>
   <i name="TEEND">      0.00010000</i>
   <i type="int" name="NBLOCK">     1</i>
   <i type="int" name="KBLOCK">     1</i>
   <i type="int" name="NPACO">   256</i>
   <i name="APACO">     10.00000000</i>
  </separator>
  <separator name="symmetry" >
   <i type="int" name="ISYM">     2</i>
   <i name="SYMPREC">      0.00001000</i>
  </separator>
  <separator name="dos" >
   <i type="int" name="LORBIT">     0</i>
   <v name="RWIGS">     -1.00000000</v>
   <i type="int" name="NEDOS">   301</i>
   <i name="EMIN">     10.00000000</i>
   <i name="EMAX">    -10.00000000</i>
   <i name="EFERMI">      0.00000000</i>
  </separator>
  <separator name="writing" >
   <i type="int" name="NWRITE">     2</i>
   <i type="logical" name="LWAVE"> T  </i>
   <i type="logical" name="LDOWNSAMPLE"> F  </i>
   <i type="logical" name="LCHARG"> T  </i>
   <i type="logical" name="LPARD"> F  </i>
   <i type="logical" name="LVTOT"> F  </i>
   <i type="logical" name="LVHAR"> F  </i>
   <i type="logical" name="LELF"> F  </i>
   <i type="logical" name="LOPTICS"> F  </i>
   <v name="STM">      0.00000000      0.00000000      0.00000000      0.00000000      0.00000000      0.00000000      0.00000000</v>
  </separator>
  <separator name="performance" >
   <i type="int" name="NPAR">     1</i>
   <i type="int" name="NSIM">     4</i>
   <i type="int" name="NBLK">    -1</i>
   <i type="logical" name="LPLANE"> T  </i>
   <i type="logical" name="LSCALAPACK"> T  </i>
   <i type="logical" name="LSCAAWARE"> F  </i>
   <i type="logical" name="LSCALU"> F  </i>
   <i type="logical" name="LASYNC"> F  </i>
   <i type="logical" name="LORBITALREAL"> F  </i>
  </separator>
  <separator name="miscellaneous" >
   <i type="int" name="IDIOT">     3</i>
   <i type="int" name="PHON_NSTRUCT">    -1</i>
   <i type="logical" name="LMUSIC"> F  </i>
   <v name="POMASS">     28.08500000</v>
   <v name="DARWINR">      0.00000000</v>
   <v name="DARWINV">      1.00000000</v>
   <i type="logical" name="LCORR"> T  </i>
  </separator>
  <i type="logical" name="GGA_COMPAT"> T  </i>
  <i type="logical" name="LBERRY"> F  </i>
  <i type="int" name="ICORELEVEL">     0</i>
  <i type="logical" name="LDAU"> F  </i>
  <i type="int" name="I_CONSTRAINED_M">     0</i>
  <separator name="electronic exchange-correlation" >
   <i type="string" name="GGA    ">PE</i>
   <i type="string" name="XC_C">1</i>
   <i type="int" name="VOSKOWN">     0</i>
   <i type="logical" name="LHFCALC"> F  </i>
   <i type="string" name="PRECFOCK"></i>
   <i type="logical" name="LSYMGRAD"> F  </i>
   <i type="logical" name="LHFONE"> F  </i>
   <i type="logical" name="LRHFCALC"> F  </i>
   <i type="logical" name="LTHOMAS"> F  </i>
   <i type="logical" name="LMODELHF"> F  </i>
   <i type="logical" name="LFOCKACE"> F  </i>
   <i name="ENCUT4O">     -1.00000000</i>
   <i type="int" name="EXXOEP">     0</i>
   <i type="int" name="FOURORBIT">     0</i>
   <i name="AEXX">      0.00000000</i>
   <i name="BEXX">      1.00000000</i>
   <i name="HFALPHA">      0.00000000</i>
   <i name="MCALPHA">      0.00000000</i>
   <i name="ALDAX">      1.00000000</i>
   <i name="BLDAX">      0.00000000</i>
   <i name="AGGAX">      1.00000000</i>
   <i name="BGGAX">      0.00000000</i>
   <i name="AMGGAX">      1.00000000</i>
   <i name="ALDAC">      1.00000000</i>
   <i name="AGGAC">      1.00000000</i>
   <i name="AMGGAC">      1.00000000</i>
   <i type="int" name="NKREDX">     1</i>
   <i type="int" name="NKREDY">     1</i>
   <i type="int" name="NKREDZ">     1</i>
   <i type="logical" name="SHIFTRED"> F  </i>
   <i type="logical" name="ODDONLY"> F  </i>
   <i type="logical" name="EVENONLY"> F  </i>
   <i type="int" name="LMAXFOCK">     0</i>
   <i type="int" name="NMAXFOCKAE">     0</i>
   <i type="logical" name="LFOCKAEDFT"> F  </i>
   <i name="HFSCREEN">      0.00000000</i>
   <i name="HFSCREENC">      0.00000000</i>
   <i type="int" name="NBANDSGWLOW">     0</i>
  </separator>
  <separator name="vdW DFT" >
   <i type="logical" name="LUSE_VDW"> F  </i>
   <i type="int" name="IVDW_NL">    -1</i>
   <i type="logical" name="LSPIN_VDW"> F  </i>
   <i name="ZAB_VDW">     -0.84910000</i>
   <i name="GAMMA_VDW">      1.39626340</i>
   <i name="ALPHA_VDW">      0.00000000</i>
   <i name="PARAM1">      0.12340000</i>
   <i name="PARAM2">      1.00000000</i>
   <i name="BPARAM">      6.30000000</i>
   <i name="CPARAM">      0.00930000</i>
  </separator>
  <separator name="model GW" >
   <i type="int" name="MODEL_GW">     0</i>
   <i name="MODEL_EPS0">     12.00772552</i>
   <i name="MODEL_ALPHA">      1.00000000</i>
  </separator>
  <separator name="linear response parameters" >
   <i type="logical" name="LEPSILON"> F  </i>
   <i type="logical" name="LRPA"> F  </i>
   <i type="logical" name="LNABLA"> F  </i>
   <i type="logical" name="LVEL"> F  </i>
   <i name="CSHIFT">      0.10000000</i>
   <i name="OMEGAMAX">     -1.00000000</i>
   <i name="DEG_THRESHOLD">      0.00200000</i>
   <i name="RTIME">     -0.10000000</i>
   <i name="WPLASMAI">      0.00000000</i>
   <v name="DFIELD">      0.00000000      0.00000000      0.00000000</v>
   <v name="WPLASMA">      0.00000000      0.00000000      0.00000000      0.00000000      0.00000000      0.00000000      0.00000000      0.00000000      0.00000000</v>
  </separator>
  <separator name="orbital magnetization" >
   <i type="logical" name="NUCIND"> F  </i>
   <v name="MAGPOS">      0.00000000      0.00000000      0.00000000</v>
   <i type="logical" name="LNICSALL"> F  </i>
   <i type="logical" name="ORBITALMAG"> F  </i>
   <i type="logical" name="LMAGBLOCH"> F  </i>
   <i type="logical" name="LCHIMAG"> F  </i>
   <i type="logical" name="LGAUGE"> T  </i>
   <i type="int" name="MAGATOM">     0</i>
   <v name="MAGDIPOL">      0.00000000      0.00000000      0.00000000</v>
   <v name="AVECCONST">      0.00000000      0.00000000      0.00000000</v>
  </separator>
  <separator name="response functions" >
   <i type="logical" name="LALL_IN_ONE"> F  </i>
   <i type="int" name="IALL_IN_ONE">    -1</i>
   <i type="int" name="NBANDS_WAVE">    -1</i>
   <i type="logical" name="LFINITE_TEMPERATURE"> F  </i>
   <i type="logical" name="LADDER"> F  </i>
   <i type="logical" name="LRPAFORCE"> F  </i>
   <i type="logical" name="LFXC"> F  </i>
   <i type="logical" name="LHARTREE"> T  </i>
   <i type="int" name="IBSE">     2</i>
   <v type="int" name="KPOINT">    -1     0     0     0</v>
   <i type="logical" name="LTCTC"> F  </i>
   <i type="logical" name="LTCTE"> F  </i>
   <i type="logical" name="LTETE"> F  </i>
   <i type="logical" name="LTRIPLET"> F  </i>
   <i type="logical" name="LFXCEPS"> F  </i>
   <i type="logical" name="LFXHEG"> F  </i>
   <i type="int" name="NATURALO">     2</i>
   <i type="logical" name="LHOLEGF"> F  </i>
   <i type="logical" name="L2ORDER"> F  </i>
   <i type="logical" name="LDMP1"> F  </i>
   <i type="logical" name="LMP2LT"> F  </i>
   <i type="logical" name="LSMP2LT"> F  </i>
   <i type="logical" name="LGWLF"> F  </i>
   <i name="ENCUTGW">     -1.60000002</i>
   <i name="ENCUTGWSOFT">     -1.60000002</i>
   <i name="ENCUTLF">     -1.00000000</i>
   <i type="logical" name="ESF_SPLINES"> F  </i>
   <i name="ESF_CONV">      0.01000000</i>
   <i type="int" name="ESF_NINTER">    15</i>
   <i type="int" name="LMAXMP2">    -1</i>
   <i name="SCISSOR">      0.00000000</i>
   <i type="int" name="NOMEGA">     0</i>
   <i type="int" name="NOMEGAR">     0</i>
   <i type="int" name="NBANDSGW">    -1</i>
   <i type="int" name="NBANDSO">    -1</i>
   <i type="int" name="NBANDSV">    -1</i>
   <i type="int" name="NELMGW">     1</i>
   <i type="int" name="NELMHF">     1</i>
   <i type="int" name="DIM">     3</i>
   <i type="int" name="IESPILON">     4</i>
   <i type="int" name="ANTIRES">     0</i>
   <i name="OMEGAMAX">    -30.00000000</i>
   <i name="OMEGAMIN">    -30.00000000</i>
   <i name="OMEGATL">   -200.00000000</i>
   <i type="int" name="OMEGAGRID">     0</i>
   <i name="CSHIFT">     -0.10000000</i>
   <i type="logical" name="LSELFENERGY"> F  </i>
   <i type="logical" name="LSPECTRAL"> F  </i>
   <i type="logical" name="LSPECTRALGW"> F  </i>
   <i type="logical" name="LSINGLES"> F  </i>
   <i type="logical" name="LFERMIGW"> F  </i>
   <i type="logical" name="ODDONLYGW"> F  </i>
   <i type="logical" name="EVENONLYGW"> F  </i>
   <i type="int" name="NKREDLFX">     1</i>
   <i type="int" name="NKREDLFY">     1</i>
   <i type="int" name="NKREDLFZ">     1</i>
   <i type="int" name="MAXMEM">  2800</i>
   <i type="int" name="TELESCOPE">     0</i>
   <i type="int" name="NTAUPAR">    -1</i>
   <i type="int" name="NOMEGAPAR">    -1</i>
   <i name="DAMP_NEWTON">      0.80000001</i>
   <i type="logical" name="LFOCKSTD"> F  </i>
   <i type="logical" name="LCRPA"> F  </i>
   <i type="logical" name="LTWO_CENTRE"> F  </i>
   <i type="logical" name="LPCRPA"> T  </i>
   <i type="logical" name="LPCRPA_REV"> F  </i>
   <i type="logical" name="LDISENTANGLED"> F  </i>
   <i type="logical" name="LWCRPA"> F  </i>
   <i type="logical" name="LSCRPA"> F  </i>
   <i name="MSDGW_F">     -1.00000000</i>
   <i type="int" name="MSDGW_NS">    -1</i>
   <i type="int" name="MSDGW_NP">    -1</i>
   <i type="int" name="MSDGW_NXI">     2</i>
   <i type="int" name="MSDGW_SEED">  4357</i>
   <i name="LAMBDA">      1.00000000</i>
  </separator>
  <separator name="External order field" >
   <i name="OFIELD_KAPPA">      0.00000000</i>
   <v name="OFIELD_K">      0.00000000      0.00000000      0.00000000</v>
   <i name="OFIELD_Q6_NEAR">      0.00000000</i>
   <i name="OFIELD_Q6_FAR">      0.00000000</i>
   <i name="OFIELD_A">      0.00000000</i>
  </separator>
  <separator name="optional k-points parameters" >
   <i type="int" name="KPOINTS_OPT_MODE">     1</i>
   <i type="logical" name="LKPOINTS_OPT"> F  </i>
  </separator>
 </parameters>
 <atominfo>
  <atoms>       2 </atoms>
  <types>       1 </types>
  <array name="atoms" >
   <dimension dim="1">ion</dimension>
   <field type="string">element</field>
   <field type="int">atomtype</field>
   <set>
    <rc><c>Si</c><c>   1</c></rc>
    <rc><c>Si</c><c>   1</c></rc>
   </set>
  </array>
  <array name="atomtypes" >
   <dimension dim="1">type</dimension>
   <field type="int">atomspertype</field>
   <field type="string">element</field>
   <field>mass</field>
   <field>valence</field>
   <field type="string">pseudopotential</field>
   <set>
    <rc><c>   2</c><c>Si</c><c>     28.08500000</c><c>      4.00000000</c><c>  PAW_PBE Si 05Jan2001                  </c></rc>
   </set>
  </array>
 </atominfo>
 <structure name="initialpos" >
  <crystal>
   <varray name="basis" >
    <v>       0.00000000       2.71500000       2.71500000 </v>
    <v>       2.71500000       0.00000000       2.71500000 </v>
    <v>       2.71500000       2.71500000       0.00000000 </v>
   </varray>
   <i name="volume">     40.02575175 </i>
   <varray name="rec_basis" >
    <v>      -0.18416206       0.18416206       0.18416206 </v>
    <v>       0.18416206      -0.18416206       0.18416206 </v>
    <v>       0.18416206       0.18416206      -0.18416206 </v>
   </varray>
  </crystal>
  <varray name="positions" >
   <v>       0.00000000       0.00000000       0.00000000 </v>
   <v>       0.25000000       0.25000000       0.25000000 </v>
  </varray>
 </structure>
 <calculation>
  <scstep>
   <time name="dav">    0.05    0.05</time>
   <time name="total">    0.07    0.07</time>
   <energy>
    <i name="alphaZ">      3.36414726 </i>
    <i name="ewald">   -228.56352493 </i>
    <i name="hartreedc">    -11.00108242 </i>
    <i name="XCdc">    -18.60186697 </i>
    <i name="pawpsdc">    176.24759923 </i>
    <i name="pawaedc">   -141.06103558 </i>
    <i name="eentropy">     -0.00266196 </i>
    <i name="bandstr">     18.77136437 </i>
    <i name="atom">    206.13149246 </i>
    <i name="e_fr_energy">      5.28443147 </i>
    <i name="e_wo_entrp">      5.28709342 </i>
    <i name="e_0_energy">      5.28576245 </i>
   </energy>
  </scstep>
  <scstep>
   <time name="dav">    0.07    0.07</time>
   <time name="total">    0.07    0.07</time>
   <energy>
    <i name="e_fr_energy">    -10.81975849 </i>
    <i name="e_wo_entrp">    -10.81975849 </i>
    <i name="e_0_energy">    -10.81975849 </i>
   </energy>
  </scstep>
  <scstep>
   <time name="dav">    0.05    0.05</time>
   <time name="total">    0.05    0.05</time>
   <energy>
    <i name="e_fr_energy">    -11.02060369 </i>
    <i name="e_wo_entrp">    -11.02060369 </i>
    <i name="e_0_energy">    -11.02060369 </i>
   </energy>
  </scstep>
  <scstep>
   <time name="dav">    0.07    0.07</time>
   <time name="total">    0.07    0.07</time>
   <energy>
    <i name="e_fr_energy">    -11.02162256 </i>
    <i name="e_wo_entrp">    -11.02162256 </i>
    <i name="e_0_energy">    -11.02162256 </i>
   </energy>
  </scstep>
  <scstep>
   <time name="dav">    0.05    0.05</time>
   <time name="total">    0.06    0.06</time>
   <energy>
    <i name="e_fr_energy">    -11.02162307 </i>
    <i name="e_wo_entrp">    -11.02162307 </i>
    <i name="e_0_energy">    -11.02162307 </i>
   </energy>
  </scstep>
  <scstep>
   <time name="diag">    0.02    0.02</time>
   <time name="diis">    0.04    0.04</time>
   <time name="orth">    0.00    0.00</time>
   <time name="total">    0.08    0.08</time>
   <energy>
    <i name="e_fr_energy">    -10.89605859 </i>
    <i name="e_wo_entrp">    -10.89605859 </i>
    <i name="e_0_energy">    -10.89605859 </i>
   </energy>
  </scstep>
  <scstep>
   <time name="diag">    0.01    0.01</time>
   <time name="diis">    0.04    0.04</time>
   <time name="orth">    0.00    0.00</time>
   <time name="total">    0.08    0.08</time>
   <energy>
    <i name="e_fr_energy">    -10.83861559 </i>
    <i name="e_wo_entrp">    -10.83861559 </i>
    <i name="e_0_energy">    -10.83861559 </i>
   </energy>
  </scstep>
  <scstep>
   <time name="diag">    0.01    0.01</time>
   <time name="diis">    0.04    0.04</time>
   <time name="orth">    0.00    0.00</time>
   <time name="total">    0.08    0.08</time>
   <energy>
    <i name="e_fr_energy">    -10.84026769 </i>
    <i name="e_wo_entrp">    -10.84026769 </i>
    <i name="e_0_energy">    -10.84026769 </i>
   </energy>
  </scstep>
  <scstep>
   <time name="diag">    0.01    0.01</time>
   <time name="diis">    0.04    0.04</time>
   <time name="orth">    0.00    0.00</time>
   <time name="total">    0.08    0.08</time>
   <energy>
    <i name="e_fr_energy">    -10.84048929 </i>
    <i name="e_wo_entrp">    -10.84048929 </i>
    <i name="e_0_energy">    -10.84048929 </i>
   </energy>
  </scstep>
  <scstep>
   <time name="diag">    0.01    0.01</time>
   <time name="diis">    0.04    0.04</time>
   <time name="orth">    0.00    0.00</time>
   <time name="total">    0.08    0.08</time>
   <energy>
    <i name="e_fr_energy">    -10.84054707 </i>
    <i name="e_wo_entrp">    -10.84054707 </i>
    <i name="e_0_energy">    -10.84054707 </i>
   </energy>
  </scstep>
  <scstep>
   <time name="diag">    0.01    0.01</time>
   <time name="diis">    0.04    0.04</time>
   <time name="orth">    0.00    0.00</time>
   <time name="total">    0.08    0.08</time>
   <energy>
    <i name="e_fr_energy">    -10.84056075 </i>
    <i name="e_wo_entrp">    -10.84056075 </i>
    <i name="e_0_energy">    -10.84056075 </i>
   </energy>
  </scstep>
  <scstep>
   <time name="diag">    0.01    0.01</time>
   <time name="diis">    0.04    0.04</time>
   <time name="orth">    0.00    0.00</time>
   <time name="total">    0.08    0.08</time>
   <energy>
    <i name="e_fr_energy">    -10.84056211 </i>
    <i name="e_wo_entrp">    -10.84056211 </i>
    <i name="e_0_energy">    -10.84056211 </i>
   </energy>
  </scstep>
  <scstep>
   <time name="diag">    0.01    0.01</time>
   <time name="diis">    0.04    0.04</time>
   <time name="orth">    0.00    0.00</time>
   <time name="total">    0.07    0.08</time>
   <energy>
    <i name="e_fr_energy">    -10.84056070 </i>
    <i name="e_wo_entrp">    -10.84056070 </i>
    <i name="e_0_energy">    -10.84056070 </i>
   </energy>
  </scstep>
  <scstep>
   <time name="diag">    0.01    0.01</time>
   <time name="diis">    0.03    0.03</time>
   <time name="orth">    0.00    0.00</time>
   <time name="total">    0.06    0.06</time>
   <energy>
    <i name="alphaZ">      3.36414726 </i>
    <i name="ewald">   -228.56352493 </i>
    <i name="hartreedc">    -14.93067621 </i>
    <i name="XCdc">    -17.95972191 </i>
    <i name="pawpsdc">    870.82295331 </i>
    <i name="pawaedc">   -835.86088400 </i>
    <i name="eentropy">     -0.00000000 </i>
    <i name="bandstr">      6.15565309 </i>
    <i name="atom">    206.13149246 </i>
    <i name="e_fr_energy">    -10.84056094 </i>
    <i name="e_wo_entrp">    -10.84056094 </i>
    <i name="e_0_energy">    -10.84056094 </i>
   </energy>
  </scstep>
  <structure>
   <crystal>
    <varray name="basis" >
     <v>       0.00000000       2.71500000       2.71500000 </v>
     <v>       2.71500000       0.00000000       2.71500000 </v>
     <v>       2.71500000       2.71500000       0.00000000 </v>
    </varray>
    <i name="volume">     40.02575175 </i>
    <varray name="rec_basis" >
     <v>      -0.18416206       0.18416206       0.18416206 </v>
     <v>       0.18416206      -0.18416206       0.18416206 </v>
     <v>       0.18416206       0.18416206      -0.18416206 </v>
    </varray>
   </crystal>
   <varray name="positions" >
    <v>       0.00000000       0.00000000       0.00000000 </v>
    <v>       0.25000000       0.25000000       0.25000000 </v>
   </varray>
  </structure>
  <varray name="forces" >
   <v>       0.00000000       0.00000000       0.00000000 </v>
   <v>      -0.00000000      -0.00000000      -0.00000000 </v>
  </varray>
  <varray name="stress" >
   <v>      19.79007695       0.00000000       0.00000000 </v>
   <v>       0.00000000      19.79007695       0.00000000 </v>
   <v>       0.00000000      -0.00000000      19.79007695 </v>
  </varray>
  <energy>
   <i name="e_fr_energy">    -10.84056094 </i>
   <i name="e_wo_entrp">    -10.84056094 </i>
   <i name="e_0_energy">    -10.84056094 </i>
  </energy>
  <time name="totalsc">    1.22    1.22</time>
  <eigenvalues>
   <array>
    <dimension dim="1">band</dimension>
    <dimension dim="2">kpoint</dimension>
    <dimension dim="3">spin</dimension>
    <field>eigene</field>
    <field>occ</field>
    <set>
     <set comment="spin 1">
      <set comment="kpoint 1">
       <r>   -6.1289    1.0000 </r>
       <r>    5.8315    1.0000 </r>
       <r>    5.8315    1.0000 </r>
       <r>    5.8315    1.0000 </r>
       <r>    8.3969    0.0000 </r>
       <r>    8.3969    0.0000 </r>
       <r>    8.3969    0.0000 </r>
       <r>    9.2097    0.0000 </r>
      </set>
      <set comment="kpoint 2">
       <r>   -5.9247    1.0000 </r>
       <r>    4.2345    1.0000 </r>
       <r>    5.5429    1.0000 </r>
       <r>    5.5429    1.0000 </r>
       <r>    8.3377    0.0000 </r>
       <r>    8.8213    0.0000 </r>
       <r>    8.8213    0.0000 </r>
       <r>   10.5522    0.0000 </r>
      </set>
      <set comment="kpoint 3">
       <r>   -5.3289    1.0000 </r>
       <r>    1.9065    1.0000 </r>
       <r>    5.0726    1.0000 </r>
       <r>    5.0726    1.0000 </r>
       <r>    7.8648    0.0000 </r>
       <r>    9.3390    0.0000 </r>
       <r>    9.3390    0.0000 </r>
       <r>   12.7587    0.0000 </r>
      </set>
      <set comment="kpoint 4">
       <r>   -4.4348    1.0000 </r>
       <r>   -0.1137    1.0000 </r>
       <r>    4.7459    1.0000 </r>
       <r>    4.7459    1.0000 </r>
       <r>    7.5014    0.0000 </r>
       <r>    9.2831    0.0000 </r>
       <r>    9.2831    0.0000 </r>
       <r>   13.7172    0.0000 </r>
      </set>
      <set comment="kpoint 5">
       <r>   -3.7966    1.0000 </r>
       <r>   -1.1364    1.0000 </r>
       <r>    4.6342    1.0000 </r>
       <r>    4.6342    1.0000 </r>
       <r>    7.3735    0.0000 </r>
       <r>    9.1720    0.0000 </r>
       <r>    9.1720    0.0000 </r>
       <r>   13.5618    0.0000 </r>
      </set>
      <set comment="kpoint 6">
       <r>   -5.8559    1.0000 </r>
       <r>    4.5001    1.0000 </r>
       <r>    5.0254    1.0000 </r>
       <r>    5.0254    1.0000 </r>
       <r>    7.8451    0.0000 </r>
       <r>    9.5372    0.0000 </r>
       <r>    9.5372    0.0000 </r>
       <r>   10.2388    0.0000 </r>
      </set>
      <set comment="kpoint 7">
       <r>   -5.3870    1.0000 </r>
       <r>    2.6098    1.0000 </r>
       <r>    4.5140    1.0000 </r>
       <r>    4.5905    1.0000 </r>
       <r>    7.9811    0.0000 </r>
       <r>    9.5447    0.0000 </r>
       <r>   10.3016    0.0000 </r>
       <r>   10.5829    0.0000 </r>
      </set>
      <set comment="kpoint 8">
       <r>   -4.5718    1.0000 </r>
       <r>    0.5490    1.0000 </r>
       <r>    3.9992    1.0000 </r>
       <r>    4.2461    1.0000 </r>
       <r>    8.0807    0.0000 </r>
       <r>    9.4763    0.0000 </r>
       <r>   10.2970    0.0000 </r>
       <r>   11.3001    0.0000 </r>
      </set>
      <set comment="kpoint 9">
       <r>   -3.7099    1.0000 </r>
       <r>   -0.9148    1.0000 </r>
       <r>    3.5535    1.0000 </r>
       <r>    4.2708    1.0000 </r>
       <r>    8.0281    0.0000 </r>
       <r>    9.3482    0.0000 </r>
       <r>    9.9326    0.0000 </r>
       <r>   13.2044    0.0000 </r>
      </set>
      <set comment="kpoint 10">
       <r>   -3.9546    1.0000 </r>
       <r>   -0.5441    1.0000 </r>
       <r>    3.3717    1.0000 </r>
       <r>    4.5672    1.0000 </r>
       <r>    8.1952    0.0000 </r>
       <r>    9.4560    0.0000 </r>
       <r>    9.7008    0.0000 </r>
       <r>   13.7529    0.0000 </r>
      </set>
      <set comment="kpoint 11">
       <r>   -4.8782    1.0000 </r>
       <r>    1.2083    1.0000 </r>
       <r>    3.5223    1.0000 </r>
       <r>    5.0586    1.0000 </r>
       <r>    8.5546    0.0000 </r>
       <r>    9.5106    0.0000 </r>
       <r>    9.6890    0.0000 </r>
       <r>   12.1347    0.0000 </r>
      </set>
      <set comment="kpoint 12">
       <r>   -5.5884    1.0000 </r>
       <r>    3.1500    1.0000 </r>
       <r>    4.2040    1.0000 </r>
       <r>    5.5393    1.0000 </r>
       <r>    8.8790    0.0000 </r>
       <r>    8.9579    0.0000 </r>
       <r>    9.1923    0.0000 </r>
       <r>   11.3874    0.0000 </r>
      </set>
      <set comment="kpoint 13">
       <r>   -5.0465    1.0000 </r>
       <r>    2.3175    1.0000 </r>
       <r>    3.9429    1.0000 </r>
       <r>    3.9429    1.0000 </r>
       <r>    6.9628    0.0000 </r>
       <r>    8.9655    0.0000 </r>
       <r>   11.5909    0.0000 </r>
       <r>   11.5909    0.0000 </r>
      </set>
      <set comment="kpoint 14">
       <r>   -4.3362    1.0000 </r>
       <r>    0.8936    1.0000 </r>
       <r>    3.1624    1.0000 </r>
       <r>    3.6249    1.0000 </r>
       <r>    7.1832    0.0000 </r>
       <r>    8.7268    0.0000 </r>
       <r>   11.8328    0.0000 </r>
       <r>   12.1024    0.0000 </r>
      </set>
      <set comment="kpoint 15">
       <r>   -3.4098    1.0000 </r>
       <r>   -0.5488    1.0000 </r>
       <r>    2.2989    1.0000 </r>
       <r>    3.6282    1.0000 </r>
       <r>    7.3521    0.0000 </r>
       <r>   10.2801    0.0000 </r>
       <r>   11.5814    0.0000 </r>
       <r>   11.7521    0.0000 </r>
      </set>
      <set comment="kpoint 16">
       <r>   -3.2054    1.0000 </r>
       <r>   -0.8073    1.0000 </r>
       <r>    1.8403    1.0000 </r>
       <r>    3.9466    1.0000 </r>
       <r>    7.6769    0.0000 </r>
       <r>   11.2981    0.0000 </r>
       <r>   11.3134    0.0000 </r>
       <r>   12.7947    0.0000 </r>
      </set>
      <set comment="kpoint 17">
       <r>   -4.0843    1.0000 </r>
       <r>    0.3539    1.0000 </r>
       <r>    2.0803    1.0000 </r>
       <r>    4.5051    1.0000 </r>
       <r>    8.2833    0.0000 </r>
       <r>   10.6240    0.0000 </r>
       <r>   10.9651    0.0000 </r>
       <r>   11.9848    0.0000 </r>
      </set>
      <set comment="kpoint 18">
       <r>   -3.7335    1.0000 </r>
       <r>    0.0891    1.0000 </r>
       <r>    3.2267    1.0000 </r>
       <r>    3.2267    1.0000 </r>
       <r>    6.4472    0.0000 </r>
       <r>    7.3713    0.0000 </r>
       <r>   13.8757    0.0000 </r>
       <r>   13.8757    0.0000 </r>
      </set>
      <set comment="kpoint 19">
       <r>   -2.8359    1.0000 </r>
       <r>   -0.9961    1.0000 </r>
       <r>    2.3973    1.0000 </r>
       <r>    3.1506    1.0000 </r>
       <r>    6.7262    0.0000 </r>
       <r>    7.7992    0.0000 </r>
       <r>   14.1007    0.0000 </r>
       <r>   14.1906    0.0000 </r>
      </set>
      <set comment="kpoint 20">
       <r>   -2.3968    1.0000 </r>
       <r>   -1.3929    1.0000 </r>
       <r>    1.5310    1.0000 </r>
       <r>    3.4081    1.0000 </r>
       <r>    7.0358    0.0000 </r>
       <r>    9.9607    0.0000 </r>
       <r>   13.3049    0.0000 </r>
       <r>   13.8473    0.0000 </r>
      </set>
      <set comment="kpoint 21">
       <r>   -1.9831    1.0000 </r>
       <r>   -1.9831    1.0000 </r>
       <r>    2.9811    1.0000 </r>
       <r>    2.9811    1.0000 </r>
       <r>    6.5412    0.0000 </r>
       <r>    6.5412    0.0000 </r>
       <r>   15.9508    0.0000 </r>
       <r>   15.9509    0.0000 </r>
      </set>
      <set comment="kpoint 22">
       <r>   -4.7990    1.0000 </r>
       <r>    1.5448    1.0000 </r>
       <r>    3.1199    1.0000 </r>
       <r>    4.4052    1.0000 </r>
       <r>    8.2805    0.0000 </r>
       <r>    9.7384    0.0000 </r>
       <r>   10.0251    0.0000 </r>
       <r>   11.3354    0.0000 </r>
      </set>
      <set comment="kpoint 23">
       <r>   -3.9103    1.0000 </r>
       <r>   -0.0075    1.0000 </r>
       <r>    2.5122    1.0000 </r>
       <r>    3.9037    1.0000 </r>
       <r>    8.7103    0.0000 </r>
       <r>    9.3873    0.0000 </r>
       <r>   10.8528    0.0000 </r>
       <r>   11.7695    0.0000 </r>
      </set>
      <set comment="kpoint 24">
       <r>   -3.2577    1.0000 </r>
       <r>   -0.9529    1.0000 </r>
       <r>    2.3835    1.0000 </r>
       <r>    3.6740    1.0000 </r>
       <r>    8.9016    0.0000 </r>
       <r>    8.9636    0.0000 </r>
       <r>   11.7452    0.0000 </r>
       <r>   12.9510    0.0000 </r>
      </set>
      <set comment="kpoint 25">
       <r>   -3.5348    1.0000 </r>
       <r>   -0.1299    1.0000 </r>
       <r>    2.4709    1.0000 </r>
       <r>    3.0738    1.0000 </r>
       <r>    7.7795    0.0000 </r>
       <r>    8.4783    0.0000 </r>
       <r>   11.5885    0.0000 </r>
       <r>   13.8248    0.0000 </r>
      </set>
      <set comment="kpoint 26">
       <r>   -2.6597    1.0000 </r>
       <r>   -1.0981    1.0000 </r>
       <r>    1.7725    1.0000 </r>
       <r>    2.8730    1.0000 </r>
       <r>    8.2207    0.0000 </r>
       <r>   10.1127    0.0000 </r>
       <r>   11.1118    0.0000 </r>
       <r>   13.2745    0.0000 </r>
      </set>
      <set comment="kpoint 27">
       <r>   -3.0104    1.0000 </r>
       <r>   -0.7348    1.0000 </r>
       <r>    1.6056    1.0000 </r>
       <r>    3.2490    1.0000 </r>
       <r>    8.7007    0.0000 </r>
       <r>   10.3771    0.0000 </r>
       <r>   11.0486    0.0000 </r>
       <r>   12.8631    0.0000 </r>
      </set>
      <set comment="kpoint 28">
       <r>   -1.9050    1.0000 </r>
       <r>   -1.9050    1.0000 </r>
       <r>    2.4164    1.0000 </r>
       <r>    2.4164    1.0000 </r>
       <r>    7.8025    0.0000 </r>
       <r>    7.8025    0.0000 </r>
       <r>   13.6816    0.0000 </r>
       <r>   13.6816    0.0000 </r>
      </set>
      <set comment="kpoint 29">
       <r>   -1.8190    1.0000 </r>
       <r>   -1.8190    1.0000 </r>
       <r>    1.9802    1.0000 </r>
       <r>    1.9802    1.0000 </r>
       <r>   10.1000    0.0000 </r>
       <r>   10.1000    0.0000 </r>
       <r>   10.8387    0.0000 </r>
       <r>   10.8387    0.0000 </r>
      </set>
     </set>
    </set>
   </array>
  </eigenvalues>
  <separator name="orbital magnetization" >
   <v name="MAGDIPOLOUT">      0.00000000      0.00000000      0.00000000</v>
  </separator>
  <dos>
   <i name="efermi">      6.04692519 </i>
   <total>
    <array>
     <dimension dim="1">gridpoints</dimension>
     <dimension dim="2">spin</dimension>
     <field>energy</field>
     <field>total</field>
     <field>integrated</field>
     <set>
      <set comment="spin 1">
       <r>    -7.2329     0.0000     0.0000 </r>
       <r>    -7.1520     0.0000     0.0000 </r>
       <r>    -7.0710     0.0000     0.0000 </r>
       <r>    -6.9900     0.0000     0.0000 </r>
       <r>    -6.9091     0.0000     0.0000 </r>
       <r>    -6.8281     0.0000     0.0000 </r>
       <r>    -6.7472     0.0000     0.0000 </r>
       <r>    -6.6662     0.0000     0.0000 </r>
       <r>    -6.5852     0.0000     0.0000 </r>
       <r>    -6.5043     0.0000     0.0000 </r>
       <r>    -6.4233     0.0000     0.0000 </r>
       <r>    -6.3424     0.0000     0.0000 </r>
       <r>    -6.2614     0.0000     0.0000 </r>
       <r>    -6.1805     0.0035     0.0003 </r>
       <r>    -6.0995     0.0350     0.0031 </r>
       <r>    -6.0185     0.0113     0.0040 </r>
       <r>    -5.9376     0.1398     0.0153 </r>
       <r>    -5.8566     0.3767     0.0458 </r>
       <r>    -5.7757     0.1541     0.0583 </r>
       <r>    -5.6947     0.0041     0.0587 </r>
       <r>    -5.6137     0.1362     0.0697 </r>
       <r>    -5.5328     0.4085     0.1028 </r>
       <r>    -5.4518     0.0723     0.1086 </r>
       <r>    -5.3709     0.7899     0.1726 </r>
       <r>    -5.2899     0.6597     0.2260 </r>
       <r>    -5.2089     0.0554     0.2305 </r>
       <r>    -5.1280     0.0032     0.2307 </r>
       <r>    -5.0470     0.1400     0.2421 </r>
       <r>    -4.9661     0.1506     0.2542 </r>
       <r>    -4.8851     0.4939     0.2942 </r>
       <r>    -4.8041     1.1509     0.3874 </r>
       <r>    -4.7232     0.6484     0.4399 </r>
       <r>    -4.6422     0.0453     0.4436 </r>
       <r>    -4.5613     0.6876     0.4992 </r>
       <r>    -4.4803     0.4762     0.5378 </r>
       <r>    -4.3993     0.3354     0.5650 </r>
       <r>    -4.3184     0.8205     0.6314 </r>
       <r>    -4.2374     0.3524     0.6599 </r>
       <r>    -4.1565     0.0150     0.6611 </r>
       <r>    -4.0755     0.3350     0.6882 </r>
       <r>    -3.9946     0.3986     0.7205 </r>
       <r>    -3.9136     1.9224     0.8761 </r>
       <r>    -3.8326     1.3832     0.9881 </r>
       <r>    -3.7517     0.4009     1.0206 </r>
       <r>    -3.6707     1.0759     1.1077 </r>
       <r>    -3.5898     0.2349     1.1267 </r>
       <r>    -3.5088     0.8245     1.1935 </r>
       <r>    -3.4278     0.6162     1.2433 </r>
       <r>    -3.3469     0.7693     1.3056 </r>
       <r>    -3.2659     0.5590     1.3509 </r>
       <r>    -3.1850     1.4450     1.4679 </r>
       <r>    -3.1040     0.3510     1.4963 </r>
       <r>    -3.0230     0.4153     1.5299 </r>
       <r>    -2.9421     0.7111     1.5875 </r>
       <r>    -2.8611     0.3047     1.6121 </r>
       <r>    -2.7802     0.8168     1.6783 </r>
       <r>    -2.6992     0.3708     1.7083 </r>
       <r>    -2.6182     1.7315     1.8485 </r>
       <r>    -2.5373     0.2788     1.8710 </r>
       <r>    -2.4563     0.0274     1.8733 </r>
       <r>    -2.3754     0.3949     1.9052 </r>
       <r>    -2.2944     0.1562     1.9179 </r>
       <r>    -2.2134     0.0011     1.9180 </r>
       <r>    -2.1325     0.0000     1.9180 </r>
       <r>    -2.0515     0.0077     1.9186 </r>
       <r>    -1.9706     0.2140     1.9359 </r>
       <r>    -1.8896     0.8539     2.0050 </r>
       <r>    -1.8087     0.7245     2.0637 </r>
       <r>    -1.7277     0.2236     2.0818 </r>
       <r>    -1.6467     0.0028     2.0820 </r>
       <r>    -1.5658     0.0000     2.0820 </r>
       <r>    -1.4848     0.0027     2.0823 </r>
       <r>    -1.4039     0.2165     2.0998 </r>
       <r>    -1.3229     0.3460     2.1278 </r>
       <r>    -1.2419     0.0141     2.1289 </r>
       <r>    -1.1610     0.1339     2.1398 </r>
       <r>    -1.0800     1.6695     2.2749 </r>
       <r>    -0.9991     1.3612     2.3851 </r>
       <r>    -0.9181     1.9933     2.5465 </r>
       <r>    -0.8371     1.0410     2.6308 </r>
       <r>    -0.7562     1.1719     2.7257 </r>
       <r>    -0.6752     0.8747     2.7965 </r>
       <r>    -0.5943     0.2578     2.8174 </r>
       <r>    -0.5133     1.7058     2.9555 </r>
       <r>    -0.4323     0.4039     2.9882 </r>
       <r>    -0.3514     0.0015     2.9883 </r>
       <r>    -0.2704     0.0000     2.9883 </r>
       <r>    -0.1895     0.0593     2.9931 </r>
       <r>    -0.1085     1.0030     3.0743 </r>
       <r>    -0.0275     1.1374     3.1664 </r>
       <r>     0.0534     1.6071     3.2965 </r>
       <r>     0.1344     0.3135     3.3219 </r>
       <r>     0.2153     0.0291     3.3242 </r>
       <r>     0.2963     0.0299     3.3266 </r>
       <r>     0.3772     0.4018     3.3592 </r>
       <r>     0.4582     0.1523     3.3715 </r>
       <r>     0.5392     0.4476     3.4077 </r>
       <r>     0.6201     0.6798     3.4628 </r>
       <r>     0.7011     0.0255     3.4648 </r>
       <r>     0.7820     0.0009     3.4649 </r>
       <r>     0.8630     0.2227     3.4830 </r>
       <r>     0.9440     0.8448     3.5513 </r>
       <r>     1.0249     0.0894     3.5586 </r>
       <r>     1.1059     0.0023     3.5588 </r>
       <r>     1.1868     0.3124     3.5841 </r>
       <r>     1.2678     0.7898     3.6480 </r>
       <r>     1.3488     0.0535     3.6523 </r>
       <r>     1.4297     0.0019     3.6525 </r>
       <r>     1.5107     0.3596     3.6816 </r>
       <r>     1.5916     1.6446     3.8148 </r>
       <r>     1.6726     0.8606     3.8844 </r>
       <r>     1.7536     0.7220     3.9429 </r>
       <r>     1.8345     2.0422     4.1082 </r>
       <r>     1.9155     0.9696     4.1867 </r>
       <r>     1.9964     0.5496     4.2312 </r>
       <r>     2.0774     0.4529     4.2679 </r>
       <r>     2.1584     0.3022     4.2923 </r>
       <r>     2.2393     0.0649     4.2976 </r>
       <r>     2.3203     1.0022     4.3787 </r>
       <r>     2.4012     2.2325     4.5595 </r>
       <r>     2.4822     2.7644     4.7833 </r>
       <r>     2.5631     2.2694     4.9670 </r>
       <r>     2.6441     1.0355     5.0508 </r>
       <r>     2.7251     0.1917     5.0664 </r>
       <r>     2.8060     0.0678     5.0718 </r>
       <r>     2.8870     1.4469     5.1890 </r>
       <r>     2.9679     0.8978     5.2617 </r>
       <r>     3.0489     0.4946     5.3017 </r>
       <r>     3.1299     2.1966     5.4795 </r>
       <r>     3.2108     2.8839     5.7130 </r>
       <r>     3.2918     1.4301     5.8288 </r>
       <r>     3.3727     0.8203     5.8952 </r>
       <r>     3.4537     1.0172     5.9776 </r>
       <r>     3.5347     1.1275     6.0688 </r>
       <r>     3.6156     2.1077     6.2395 </r>
       <r>     3.6966     2.2325     6.4202 </r>
       <r>     3.7775     0.3565     6.4491 </r>
       <r>     3.8585     0.2470     6.4691 </r>
       <r>     3.9395     2.5156     6.6728 </r>
       <r>     4.0204     2.1021     6.8429 </r>
       <r>     4.1014     0.3466     6.8710 </r>
       <r>     4.1823     0.2326     6.8898 </r>
       <r>     4.2633     1.9028     7.0439 </r>
       <r>     4.3443     1.1703     7.1386 </r>
       <r>     4.4252     0.8223     7.2052 </r>
       <r>     4.5062     1.3067     7.3110 </r>
       <r>     4.5871     2.3984     7.5052 </r>
       <r>     4.6681     1.2621     7.6074 </r>
       <r>     4.7490     0.4862     7.6467 </r>
       <r>     4.8300     0.3523     7.6752 </r>
       <r>     4.9110     0.0071     7.6758 </r>
       <r>     4.9919     0.1419     7.6873 </r>
       <r>     5.0729     1.5334     7.8114 </r>
       <r>     5.1538     0.8208     7.8779 </r>
       <r>     5.2348     0.0125     7.8789 </r>
       <r>     5.3158     0.0000     7.8789 </r>
       <r>     5.3967     0.0000     7.8789 </r>
       <r>     5.4777     0.0487     7.8829 </r>
       <r>     5.5586     0.8801     7.9541 </r>
       <r>     5.6396     0.4184     7.9880 </r>
       <r>     5.7206     0.0038     7.9883 </r>
       <r>     5.8015     0.0286     7.9906 </r>
       <r>     5.8825     0.1053     7.9991 </r>
       <r>     5.9634     0.0108     8.0000 </r>
       <r>     6.0444     0.0000     8.0000 </r>
       <r>     6.1254     0.0000     8.0000 </r>
       <r>     6.2063     0.0000     8.0000 </r>
       <r>     6.2873     0.0000     8.0000 </r>
       <r>     6.3682     0.0037     8.0003 </r>
       <r>     6.4492     0.1489     8.0124 </r>
       <r>     6.5302     0.2433     8.0321 </r>
       <r>     6.6111     0.1767     8.0464 </r>
       <r>     6.6921     0.1998     8.0625 </r>
       <r>     6.7730     0.8571     8.1319 </r>
       <r>     6.8540     0.1075     8.1406 </r>
       <r>     6.9349     0.0635     8.1458 </r>
       <r>     7.0159     0.3725     8.1759 </r>
       <r>     7.0969     0.4164     8.2096 </r>
       <r>     7.1778     0.5250     8.2521 </r>
       <r>     7.2588     0.6353     8.3036 </r>
       <r>     7.3397     0.5210     8.3458 </r>
       <r>     7.4207     1.0662     8.4321 </r>
       <r>     7.5017     0.2611     8.4532 </r>
       <r>     7.5826     0.1921     8.4688 </r>
       <r>     7.6636     0.4092     8.5019 </r>
       <r>     7.7445     1.0331     8.5855 </r>
       <r>     7.8255     2.6498     8.8001 </r>
       <r>     7.9065     1.1741     8.8951 </r>
       <r>     7.9874     0.8515     8.9641 </r>
       <r>     8.0684     1.7717     9.1075 </r>
       <r>     8.1493     1.0243     9.1904 </r>
       <r>     8.2303     2.3753     9.3827 </r>
       <r>     8.3113     2.4324     9.5796 </r>
       <r>     8.3922     0.7047     9.6367 </r>
       <r>     8.4732     0.6186     9.6868 </r>
       <r>     8.5541     1.1902     9.7831 </r>
       <r>     8.6351     0.6716     9.8375 </r>
       <r>     8.7161     2.4553    10.0363 </r>
       <r>     8.7970     2.2595    10.2192 </r>
       <r>     8.8780     1.1719    10.3141 </r>
       <r>     8.9589     2.0567    10.4806 </r>
       <r>     9.0399     1.1273    10.5719 </r>
       <r>     9.1208     0.0704    10.5776 </r>
       <r>     9.2018     0.6467    10.6299 </r>
       <r>     9.2828     0.7875    10.6937 </r>
       <r>     9.3637     2.2521    10.8760 </r>
       <r>     9.4447     2.8678    11.1082 </r>
       <r>     9.5256     2.9555    11.3475 </r>
       <r>     9.6066     1.6424    11.4804 </r>
       <r>     9.6876     1.1067    11.5700 </r>
       <r>     9.7685     2.1415    11.7434 </r>
       <r>     9.8495     0.2848    11.7665 </r>
       <r>     9.9304     0.6582    11.8197 </r>
       <r>    10.0114     1.4229    11.9349 </r>
       <r>    10.0924     1.6656    12.0698 </r>
       <r>    10.1733     1.9332    12.2263 </r>
       <r>    10.2543     0.7992    12.2910 </r>
       <r>    10.3352     2.7717    12.5154 </r>
       <r>    10.4162     1.2934    12.6201 </r>
       <r>    10.4972     0.1886    12.6354 </r>
       <r>    10.5781     0.8373    12.7032 </r>
       <r>    10.6591     1.1423    12.7956 </r>
       <r>    10.7400     0.1146    12.8049 </r>
       <r>    10.8210     0.6016    12.8536 </r>
       <r>    10.9020     2.1000    13.0236 </r>
       <r>    10.9829     0.6282    13.0745 </r>
       <r>    11.0639     1.1154    13.1648 </r>
       <r>    11.1448     2.0913    13.3341 </r>
       <r>    11.2258     0.4600    13.3713 </r>
       <r>    11.3067     2.0442    13.5368 </r>
       <r>    11.3877     2.7122    13.7564 </r>
       <r>    11.4687     0.3982    13.7887 </r>
       <r>    11.5496     0.4463    13.8248 </r>
       <r>    11.6306     2.1487    13.9988 </r>
       <r>    11.7115     0.7648    14.0607 </r>
       <r>    11.7925     3.4706    14.3416 </r>
       <r>    11.8735     1.7108    14.4802 </r>
       <r>    11.9544     0.2612    14.5013 </r>
       <r>    12.0354     0.4587    14.5384 </r>
       <r>    12.1163     1.1138    14.6286 </r>
       <r>    12.1973     1.1615    14.7226 </r>
       <r>    12.2783     0.0485    14.7266 </r>
       <r>    12.3592     0.0000    14.7266 </r>
       <r>    12.4402     0.0000    14.7266 </r>
       <r>    12.5211     0.0000    14.7266 </r>
       <r>    12.6021     0.0000    14.7266 </r>
       <r>    12.6831     0.0072    14.7271 </r>
       <r>    12.7640     0.4351    14.7624 </r>
       <r>    12.8450     1.3626    14.8727 </r>
       <r>    12.9259     1.1301    14.9642 </r>
       <r>    13.0069     0.8590    15.0337 </r>
       <r>    13.0879     0.0665    15.0391 </r>
       <r>    13.1688     0.1845    15.0540 </r>
       <r>    13.2498     1.4532    15.1717 </r>
       <r>    13.3307     2.1506    15.3458 </r>
       <r>    13.4117     0.2633    15.3671 </r>
       <r>    13.4926     0.0057    15.3676 </r>
       <r>    13.5736     0.1182    15.3772 </r>
       <r>    13.6546     0.3445    15.4050 </r>
       <r>    13.7355     1.4471    15.5222 </r>
       <r>    13.8165     1.5476    15.6475 </r>
       <r>    13.8974     1.5247    15.7709 </r>
       <r>    13.9784     0.2231    15.7890 </r>
       <r>    14.0594     0.1415    15.8005 </r>
       <r>    14.1403     0.9555    15.8778 </r>
       <r>    14.2213     0.9965    15.9585 </r>
       <r>    14.3022     0.2224    15.9765 </r>
       <r>    14.3832     0.0009    15.9766 </r>
       <r>    14.4642     0.0000    15.9766 </r>
       <r>    14.5451     0.0000    15.9766 </r>
       <r>    14.6261     0.0000    15.9766 </r>
       <r>    14.7070     0.0000    15.9766 </r>
       <r>    14.7880     0.0000    15.9766 </r>
       <r>    14.8690     0.0000    15.9766 </r>
       <r>    14.9499     0.0000    15.9766 </r>
       <r>    15.0309     0.0000    15.9766 </r>
       <r>    15.1118     0.0000    15.9766 </r>
       <r>    15.1928     0.0000    15.9766 </r>
       <r>    15.2738     0.0000    15.9766 </r>
       <r>    15.3547     0.0000    15.9766 </r>
       <r>    15.4357     0.0000    15.9766 </r>
       <r>    15.5166     0.0000    15.9766 </r>
       <r>    15.5976     0.0000    15.9766 </r>
       <r>    15.6785     0.0000    15.9766 </r>
       <r>    15.7595     0.0000    15.9766 </r>
       <r>    15.8405     0.0003    15.9766 </r>
       <r>    15.9214     0.0584    15.9813 </r>
       <r>    16.0024     0.2098    15.9983 </r>
       <r>    16.0833     0.0209    16.0000 </r>
       <r>    16.1643     0.0000    16.0000 </r>
       <r>    16.2453     0.0000    16.0000 </r>
       <r>    16.3262     0.0000    16.0000 </r>
       <r>    16.4072     0.0000    16.0000 </r>
       <r>    16.4881     0.0000    16.0000 </r>
       <r>    16.5691     0.0000    16.0000 </r>
       <r>    16.6501     0.0000    16.0000 </r>
       <r>    16.7310     0.0000    16.0000 </r>
       <r>    16.8120     0.0000    16.0000 </r>
       <r>    16.8929     0.0000    16.0000 </r>
       <r>    16.9739     0.0000    16.0000 </r>
       <r>    17.0549     0.0000    16.0000 </r>
      </set>
     </set>
    </array>
   </total>
  </dos>
 </calculation>
 <structure name="finalpos" >
  <crystal>
   <varray name="basis" >
    <v>       0.00000000       2.71500000       2.71500000 </v>
    <v>       2.71500000       0.00000000       2.71500000 </v>
    <v>       2.71500000       2.71500000       0.00000000 </v>
   </varray>
   <i name="volume">     40.02575175 </i>
   <varray name="rec_basis" >
    <v>      -0.18416206       0.18416206       0.18416206 </v>
    <v>       0.18416206      -0.18416206       0.18416206 </v>
    <v>       0.18416206       0.18416206      -0.18416206 </v>
   </varray>
  </crystal>
  <varray name="positions" >
   <v>       0.00000000       0.00000000       0.00000000 </v>
   <v>       0.25000000       0.25000000       0.25000000 </v>
  </varray>
 </structure>
</modeling>
