<?xml version="1.0" encoding="ISO-8859-1"?>
<modeling>
 <generator>
  <i name="program" type="string">vasp </i>
  <i name="version" type="string">6.6.0  </i>
  <i name="subversion" type="string">06Mar2026 (build Apr 30 2026 15:36:16) complex                        parallel </i>
  <i name="platform" type="string">LinuxIFC </i>
  <i name="date" type="string">2026 05 02 </i>
  <i name="time" type="string">17:40:46 </i>
 </generator>
 <incar>
  <i type="string" name="SYSTEM">Si_diamond_PBE_band_vasp</i>
  <i type="int" name="ISTART">     1</i>
  <i type="string" name="PREC">Accurate</i>
  <i type="string" name="ALGO">Fast</i>
  <i type="int" name="ICHARG">    11</i>
  <i type="int" name="NELM">   100</i>
  <i type="int" name="IBRION">    -1</i>
  <i name="EDIFF">      0.00000100</i>
  <i type="int" name="NSW">     0</i>
  <i type="int" name="ISYM">     0</i>
  <i name="ENCUT">    400.00000000</i>
  <i type="int" name="NBANDS">    12</i>
  <i type="logical" name="LREAL"> F  </i>
  <i type="int" name="ISMEAR">     0</i>
  <i name="SIGMA">      0.05000000</i>
  <i type="logical" name="LWAVE"> T  </i>
  <i type="logical" name="LCHARG"> F  </i>
  <i type="int" name="LORBIT">    11</i>
  <i type="string" name="GGA">Pe</i>
 </incar>
 <primitive_cell>
  <structure name="primitive_cell" >
   <crystal>
    <varray name="basis" >
     <v>       0.00000000       2.71500000       2.71500000 </v>
     <v>       2.71500000       0.00000000       2.71500000 </v>
     <v>       2.71500000       2.71500000       0.00000000 </v>
    </varray>
    <i name="volume">     40.02575175 </i>
    <varray name="rec_basis" >
     <v>      -0.18416206       0.18416206       0.18416206 </v>
     <v>       0.18416206      -0.18416206       0.18416206 </v>
     <v>       0.18416206       0.18416206      -0.18416206 </v>
    </varray>
   </crystal>
   <varray name="positions" >
    <v>       0.00000000       0.00000000       0.00000000 </v>
    <v>       0.25000000       0.25000000       0.25000000 </v>
   </varray>
  </structure>
  <varray name="primitive_index" >
   <v type="int" >        1 </v>
   <v type="int" >        2 </v>
  </varray>
 </primitive_cell>
 <kpoints>
  <generation param="listgenerated">
   <i name="divisions" type="int">      36 </i>
   <v>       0.50000000       0.50000000       0.50000000 </v>
   <v>       0.00000000       0.00000000       0.00000000 </v>
   <v>       0.50000000       0.00000000       0.50000000 </v>
   <v>       0.50000000       0.25000000       0.75000000 </v>
   <v>       0.37500000       0.37500000       0.75000000 </v>
   <v>       0.00000000       0.00000000      -0.00000000 </v>
  </generation>
  <varray name="kpointlist" >
   <v>       0.50000000       0.50000000       0.50000000 </v>
   <v>       0.48571429       0.48571429       0.48571429 </v>
   <v>       0.47142857       0.47142857       0.47142857 </v>
   <v>       0.45714286       0.45714286       0.45714286 </v>
   <v>       0.44285714       0.44285714       0.44285714 </v>
   <v>       0.42857143       0.42857143       0.42857143 </v>
   <v>       0.41428571       0.41428571       0.41428571 </v>
   <v>       0.40000000       0.40000000       0.40000000 </v>
   <v>       0.38571429       0.38571429       0.38571429 </v>
   <v>       0.37142857       0.37142857       0.37142857 </v>
   <v>       0.35714286       0.35714286       0.35714286 </v>
   <v>       0.34285714       0.34285714       0.34285714 </v>
   <v>       0.32857143       0.32857143       0.32857143 </v>
   <v>       0.31428571       0.31428571       0.31428571 </v>
   <v>       0.30000000       0.30000000       0.30000000 </v>
   <v>       0.28571429       0.28571429       0.28571429 </v>
   <v>       0.27142857       0.27142857       0.27142857 </v>
   <v>       0.25714286       0.25714286       0.25714286 </v>
   <v>       0.24285714       0.24285714       0.24285714 </v>
   <v>       0.22857143       0.22857143       0.22857143 </v>
   <v>       0.21428571       0.21428571       0.21428571 </v>
   <v>       0.20000000       0.20000000       0.20000000 </v>
   <v>       0.18571429       0.18571429       0.18571429 </v>
   <v>       0.17142857       0.17142857       0.17142857 </v>
   <v>       0.15714286       0.15714286       0.15714286 </v>
   <v>       0.14285714       0.14285714       0.14285714 </v>
   <v>       0.12857143       0.12857143       0.12857143 </v>
   <v>       0.11428571       0.11428571       0.11428571 </v>
   <v>       0.10000000       0.10000000       0.10000000 </v>
   <v>       0.08571429       0.08571429       0.08571429 </v>
   <v>       0.07142857       0.07142857       0.07142857 </v>
   <v>       0.05714286       0.05714286       0.05714286 </v>
   <v>       0.04285714       0.04285714       0.04285714 </v>
   <v>       0.02857143       0.02857143       0.02857143 </v>
   <v>       0.01428571       0.01428571       0.01428571 </v>
   <v>       0.00000000       0.00000000       0.00000000 </v>
   <v>       0.00000000       0.00000000       0.00000000 </v>
   <v>       0.01428571       0.00000000       0.01428571 </v>
   <v>       0.02857143       0.00000000       0.02857143 </v>
   <v>       0.04285714       0.00000000       0.04285714 </v>
   <v>       0.05714286       0.00000000       0.05714286 </v>
   <v>       0.07142857       0.00000000       0.07142857 </v>
   <v>       0.08571429       0.00000000       0.08571429 </v>
   <v>       0.10000000       0.00000000       0.10000000 </v>
   <v>       0.11428571       0.00000000       0.11428571 </v>
   <v>       0.12857143       0.00000000       0.12857143 </v>
   <v>       0.14285714       0.00000000       0.14285714 </v>
   <v>       0.15714286       0.00000000       0.15714286 </v>
   <v>       0.17142857       0.00000000       0.17142857 </v>
   <v>       0.18571429       0.00000000       0.18571429 </v>
   <v>       0.20000000       0.00000000       0.20000000 </v>
   <v>       0.21428571       0.00000000       0.21428571 </v>
   <v>       0.22857143       0.00000000       0.22857143 </v>
   <v>       0.24285714       0.00000000       0.24285714 </v>
   <v>       0.25714286       0.00000000       0.25714286 </v>
   <v>       0.27142857       0.00000000       0.27142857 </v>
   <v>       0.28571429       0.00000000       0.28571429 </v>
   <v>       0.30000000       0.00000000       0.30000000 </v>
   <v>       0.31428571       0.00000000       0.31428571 </v>
   <v>       0.32857143       0.00000000       0.32857143 </v>
   <v>       0.34285714       0.00000000       0.34285714 </v>
   <v>       0.35714286       0.00000000       0.35714286 </v>
   <v>       0.37142857       0.00000000       0.37142857 </v>
   <v>       0.38571429       0.00000000       0.38571429 </v>
   <v>       0.40000000       0.00000000       0.40000000 </v>
   <v>       0.41428571       0.00000000       0.41428571 </v>
   <v>       0.42857143       0.00000000       0.42857143 </v>
   <v>       0.44285714       0.00000000       0.44285714 </v>
   <v>       0.45714286       0.00000000       0.45714286 </v>
   <v>       0.47142857       0.00000000       0.47142857 </v>
   <v>       0.48571429       0.00000000       0.48571429 </v>
   <v>       0.50000000       0.00000000       0.50000000 </v>
   <v>       0.50000000       0.00000000       0.50000000 </v>
   <v>       0.50000000       0.00714286       0.50714286 </v>
   <v>       0.50000000       0.01428571       0.51428571 </v>
   <v>       0.50000000       0.02142857       0.52142857 </v>
   <v>       0.50000000       0.02857143       0.52857143 </v>
   <v>       0.50000000       0.03571429       0.53571429 </v>
   <v>       0.50000000       0.04285714       0.54285714 </v>
   <v>       0.50000000       0.05000000       0.55000000 </v>
   <v>       0.50000000       0.05714286       0.55714286 </v>
   <v>       0.50000000       0.06428571       0.56428571 </v>
   <v>       0.50000000       0.07142857       0.57142857 </v>
   <v>       0.50000000       0.07857143       0.57857143 </v>
   <v>       0.50000000       0.08571429       0.58571429 </v>
   <v>       0.50000000       0.09285714       0.59285714 </v>
   <v>       0.50000000       0.10000000       0.60000000 </v>
   <v>       0.50000000       0.10714286       0.60714286 </v>
   <v>       0.50000000       0.11428571       0.61428571 </v>
   <v>       0.50000000       0.12142857       0.62142857 </v>
   <v>       0.50000000       0.12857143       0.62857143 </v>
   <v>       0.50000000       0.13571429       0.63571429 </v>
   <v>       0.50000000       0.14285714       0.64285714 </v>
   <v>       0.50000000       0.15000000       0.65000000 </v>
   <v>       0.50000000       0.15714286       0.65714286 </v>
   <v>       0.50000000       0.16428571       0.66428571 </v>
   <v>       0.50000000       0.17142857       0.67142857 </v>
   <v>       0.50000000       0.17857143       0.67857143 </v>
   <v>       0.50000000       0.18571429       0.68571429 </v>
   <v>       0.50000000       0.19285714       0.69285714 </v>
   <v>       0.50000000       0.20000000       0.70000000 </v>
   <v>       0.50000000       0.20714286       0.70714286 </v>
   <v>       0.50000000       0.21428571       0.71428571 </v>
   <v>       0.50000000       0.22142857       0.72142857 </v>
   <v>       0.50000000       0.22857143       0.72857143 </v>
   <v>       0.50000000       0.23571429       0.73571429 </v>
   <v>       0.50000000       0.24285714       0.74285714 </v>
   <v>       0.50000000       0.25000000       0.75000000 </v>
   <v>       0.50000000       0.25000000       0.75000000 </v>
   <v>       0.49642857       0.25357143       0.75000000 </v>
   <v>       0.49285714       0.25714286       0.75000000 </v>
   <v>       0.48928571       0.26071429       0.75000000 </v>
   <v>       0.48571429       0.26428571       0.75000000 </v>
   <v>       0.48214286       0.26785714       0.75000000 </v>
   <v>       0.47857143       0.27142857       0.75000000 </v>
   <v>       0.47500000       0.27500000       0.75000000 </v>
   <v>       0.47142857       0.27857143       0.75000000 </v>
   <v>       0.46785714       0.28214286       0.75000000 </v>
   <v>       0.46428571       0.28571429       0.75000000 </v>
   <v>       0.46071429       0.28928571       0.75000000 </v>
   <v>       0.45714286       0.29285714       0.75000000 </v>
   <v>       0.45357143       0.29642857       0.75000000 </v>
   <v>       0.45000000       0.30000000       0.75000000 </v>
   <v>       0.44642857       0.30357143       0.75000000 </v>
   <v>       0.44285714       0.30714286       0.75000000 </v>
   <v>       0.43928571       0.31071429       0.75000000 </v>
   <v>       0.43571429       0.31428571       0.75000000 </v>
   <v>       0.43214286       0.31785714       0.75000000 </v>
   <v>       0.42857143       0.32142857       0.75000000 </v>
   <v>       0.42500000       0.32500000       0.75000000 </v>
   <v>       0.42142857       0.32857143       0.75000000 </v>
   <v>       0.41785714       0.33214286       0.75000000 </v>
   <v>       0.41428571       0.33571429       0.75000000 </v>
   <v>       0.41071429       0.33928571       0.75000000 </v>
   <v>       0.40714286       0.34285714       0.75000000 </v>
   <v>       0.40357143       0.34642857       0.75000000 </v>
   <v>       0.40000000       0.35000000       0.75000000 </v>
   <v>       0.39642857       0.35357143       0.75000000 </v>
   <v>       0.39285714       0.35714286       0.75000000 </v>
   <v>       0.38928571       0.36071429       0.75000000 </v>
   <v>       0.38571429       0.36428571       0.75000000 </v>
   <v>       0.38214286       0.36785714       0.75000000 </v>
   <v>       0.37857143       0.37142857       0.75000000 </v>
   <v>       0.37500000       0.37500000       0.75000000 </v>
   <v>       0.37500000       0.37500000       0.75000000 </v>
   <v>       0.36428571       0.36428571       0.72857143 </v>
   <v>       0.35357143       0.35357143       0.70714286 </v>
   <v>       0.34285714       0.34285714       0.68571429 </v>
   <v>       0.33214286       0.33214286       0.66428571 </v>
   <v>       0.32142857       0.32142857       0.64285714 </v>
   <v>       0.31071429       0.31071429       0.62142857 </v>
   <v>       0.30000000       0.30000000       0.60000000 </v>
   <v>       0.28928571       0.28928571       0.57857143 </v>
   <v>       0.27857143       0.27857143       0.55714286 </v>
   <v>       0.26785714       0.26785714       0.53571429 </v>
   <v>       0.25714286       0.25714286       0.51428571 </v>
   <v>       0.24642857       0.24642857       0.49285714 </v>
   <v>       0.23571429       0.23571429       0.47142857 </v>
   <v>       0.22500000       0.22500000       0.45000000 </v>
   <v>       0.21428571       0.21428571       0.42857143 </v>
   <v>       0.20357143       0.20357143       0.40714286 </v>
   <v>       0.19285714       0.19285714       0.38571429 </v>
   <v>       0.18214286       0.18214286       0.36428571 </v>
   <v>       0.17142857       0.17142857       0.34285714 </v>
   <v>       0.16071429       0.16071429       0.32142857 </v>
   <v>       0.15000000       0.15000000       0.30000000 </v>
   <v>       0.13928571       0.13928571       0.27857143 </v>
   <v>       0.12857143       0.12857143       0.25714286 </v>
   <v>       0.11785714       0.11785714       0.23571429 </v>
   <v>       0.10714286       0.10714286       0.21428571 </v>
   <v>       0.09642857       0.09642857       0.19285714 </v>
   <v>       0.08571429       0.08571429       0.17142857 </v>
   <v>       0.07500000       0.07500000       0.15000000 </v>
   <v>       0.06428571       0.06428571       0.12857143 </v>
   <v>       0.05357143       0.05357143       0.10714286 </v>
   <v>       0.04285714       0.04285714       0.08571429 </v>
   <v>       0.03214286       0.03214286       0.06428571 </v>
   <v>       0.02142857       0.02142857       0.04285714 </v>
   <v>       0.01071429       0.01071429       0.02142857 </v>
   <v>       0.00000000       0.00000000      -0.00000000 </v>
  </varray>
  <varray name="weights" >
   <v>       0.00555556 </v>
   <v>       0.00555556 </v>
   <v>       0.00555556 </v>
   <v>       0.00555556 </v>
   <v>       0.00555556 </v>
   <v>       0.00555556 </v>
   <v>       0.00555556 </v>
   <v>       0.00555556 </v>
   <v>       0.00555556 </v>
   <v>       0.00555556 </v>
   <v>       0.00555556 </v>
   <v>       0.00555556 </v>
   <v>       0.00555556 </v>
   <v>       0.00555556 </v>
   <v>       0.00555556 </v>
   <v>       0.00555556 </v>
   <v>       0.00555556 </v>
   <v>       0.00555556 </v>
   <v>       0.00555556 </v>
   <v>       0.00555556 </v>
   <v>       0.00555556 </v>
   <v>       0.00555556 </v>
   <v>       0.00555556 </v>
   <v>       0.00555556 </v>
   <v>       0.00555556 </v>
   <v>       0.00555556 </v>
   <v>       0.00555556 </v>
   <v>       0.00555556 </v>
   <v>       0.00555556 </v>
   <v>       0.00555556 </v>
   <v>       0.00555556 </v>
   <v>       0.00555556 </v>
   <v>       0.00555556 </v>
   <v>       0.00555556 </v>
   <v>       0.00555556 </v>
   <v>       0.00555556 </v>
   <v>       0.00555556 </v>
   <v>       0.00555556 </v>
   <v>       0.00555556 </v>
   <v>       0.00555556 </v>
   <v>       0.00555556 </v>
   <v>       0.00555556 </v>
   <v>       0.00555556 </v>
   <v>       0.00555556 </v>
   <v>       0.00555556 </v>
   <v>       0.00555556 </v>
   <v>       0.00555556 </v>
   <v>       0.00555556 </v>
   <v>       0.00555556 </v>
   <v>       0.00555556 </v>
   <v>       0.00555556 </v>
   <v>       0.00555556 </v>
   <v>       0.00555556 </v>
   <v>       0.00555556 </v>
   <v>       0.00555556 </v>
   <v>       0.00555556 </v>
   <v>       0.00555556 </v>
   <v>       0.00555556 </v>
   <v>       0.00555556 </v>
   <v>       0.00555556 </v>
   <v>       0.00555556 </v>
   <v>       0.00555556 </v>
   <v>       0.00555556 </v>
   <v>       0.00555556 </v>
   <v>       0.00555556 </v>
   <v>       0.00555556 </v>
   <v>       0.00555556 </v>
   <v>       0.00555556 </v>
   <v>       0.00555556 </v>
   <v>       0.00555556 </v>
   <v>       0.00555556 </v>
   <v>       0.00555556 </v>
   <v>       0.00555556 </v>
   <v>       0.00555556 </v>
   <v>       0.00555556 </v>
   <v>       0.00555556 </v>
   <v>       0.00555556 </v>
   <v>       0.00555556 </v>
   <v>       0.00555556 </v>
   <v>       0.00555556 </v>
   <v>       0.00555556 </v>
   <v>       0.00555556 </v>
   <v>       0.00555556 </v>
   <v>       0.00555556 </v>
   <v>       0.00555556 </v>
   <v>       0.00555556 </v>
   <v>       0.00555556 </v>
   <v>       0.00555556 </v>
   <v>       0.00555556 </v>
   <v>       0.00555556 </v>
   <v>       0.00555556 </v>
   <v>       0.00555556 </v>
   <v>       0.00555556 </v>
   <v>       0.00555556 </v>
   <v>       0.00555556 </v>
   <v>       0.00555556 </v>
   <v>       0.00555556 </v>
   <v>       0.00555556 </v>
   <v>       0.00555556 </v>
   <v>       0.00555556 </v>
   <v>       0.00555556 </v>
   <v>       0.00555556 </v>
   <v>       0.00555556 </v>
   <v>       0.00555556 </v>
   <v>       0.00555556 </v>
   <v>       0.00555556 </v>
   <v>       0.00555556 </v>
   <v>       0.00555556 </v>
   <v>       0.00555556 </v>
   <v>       0.00555556 </v>
   <v>       0.00555556 </v>
   <v>       0.00555556 </v>
   <v>       0.00555556 </v>
   <v>       0.00555556 </v>
   <v>       0.00555556 </v>
   <v>       0.00555556 </v>
   <v>       0.00555556 </v>
   <v>       0.00555556 </v>
   <v>       0.00555556 </v>
   <v>       0.00555556 </v>
   <v>       0.00555556 </v>
   <v>       0.00555556 </v>
   <v>       0.00555556 </v>
   <v>       0.00555556 </v>
   <v>       0.00555556 </v>
   <v>       0.00555556 </v>
   <v>       0.00555556 </v>
   <v>       0.00555556 </v>
   <v>       0.00555556 </v>
   <v>       0.00555556 </v>
   <v>       0.00555556 </v>
   <v>       0.00555556 </v>
   <v>       0.00555556 </v>
   <v>       0.00555556 </v>
   <v>       0.00555556 </v>
   <v>       0.00555556 </v>
   <v>       0.00555556 </v>
   <v>       0.00555556 </v>
   <v>       0.00555556 </v>
   <v>       0.00555556 </v>
   <v>       0.00555556 </v>
   <v>       0.00555556 </v>
   <v>       0.00555556 </v>
   <v>       0.00555556 </v>
   <v>       0.00555556 </v>
   <v>       0.00555556 </v>
   <v>       0.00555556 </v>
   <v>       0.00555556 </v>
   <v>       0.00555556 </v>
   <v>       0.00555556 </v>
   <v>       0.00555556 </v>
   <v>       0.00555556 </v>
   <v>       0.00555556 </v>
   <v>       0.00555556 </v>
   <v>       0.00555556 </v>
   <v>       0.00555556 </v>
   <v>       0.00555556 </v>
   <v>       0.00555556 </v>
   <v>       0.00555556 </v>
   <v>       0.00555556 </v>
   <v>       0.00555556 </v>
   <v>       0.00555556 </v>
   <v>       0.00555556 </v>
   <v>       0.00555556 </v>
   <v>       0.00555556 </v>
   <v>       0.00555556 </v>
   <v>       0.00555556 </v>
   <v>       0.00555556 </v>
   <v>       0.00555556 </v>
   <v>       0.00555556 </v>
   <v>       0.00555556 </v>
   <v>       0.00555556 </v>
   <v>       0.00555556 </v>
   <v>       0.00555556 </v>
   <v>       0.00555556 </v>
   <v>       0.00555556 </v>
   <v>       0.00555556 </v>
   <v>       0.00555556 </v>
   <v>       0.00555556 </v>
   <v>       0.00555556 </v>
  </varray>
 </kpoints>
 <parameters>
  <separator name="general" >
   <i type="string" name="SYSTEM">Si_diamond_PBE_band_vasp</i>
   <i type="logical" name="LCOMPAT"> F  </i>
  </separator>
  <separator name="electronic" >
   <i type="string" name="PREC">accura</i>
   <i name="ENMAX">    400.00000000</i>
   <i name="ENAUG">    322.06900000</i>
   <i name="EDIFF">      0.00000100</i>
   <i type="int" name="IALGO">    68</i>
   <i type="int" name="IWAVPR">    10</i>
   <i name="MAXDIS">      0.00000000</i>
   <i type="int" name="NBANDS">    12</i>
   <i type="int" name="NBANDSLOW">    -1</i>
   <i type="int" name="NBANDSHIGH">    -1</i>
   <i name="NELECT">      8.00000000</i>
   <i type="int" name="TURBO">     0</i>
   <i type="int" name="IRESTART">     0</i>
   <i type="int" name="NREBOOT">     0</i>
   <i type="int" name="NMIN">     0</i>
   <i name="EREF">      0.00000000</i>
   <separator name="electronic smearing" >
    <i type="int" name="ISMEAR">     0</i>
    <i name="SIGMA">      0.05000000</i>
    <i name="KSPACING">      0.50000000</i>
    <i type="logical" name="KGAMMA"> T  </i>
    <i type="logical" name="KBLOWUP"> T  </i>
   </separator>
   <separator name="electronic projectors" >
    <i type="logical" name="LREAL"> F  </i>
    <v name="ROPT">      0.00000000</v>
    <i type="int" name="LMAXPAW">  -100</i>
    <i type="int" name="LMAXMIX">     2</i>
    <i type="logical" name="NLSPLINE"> F  </i>
   </separator>
   <separator name="electronic startup" >
    <i type="int" name="ISTART">     1</i>
    <i type="int" name="ICHARG">    11</i>
    <i type="int" name="INIWAV">     1</i>
   </separator>
   <separator name="electronic spin" >
    <i type="int" name="ISPIN">     1</i>
    <i type="logical" name="LNONCOLLINEAR"> F  </i>
    <v name="MAGMOM">      1.00000000      1.00000000</v>
    <i name="NUPDOWN">     -1.00000000</i>
    <i type="logical" name="LSORBIT"> F  </i>
    <v name="SAXIS">      0.00000000      0.00000000      1.00000000</v>
    <i type="logical" name="LSPIRAL"> F  </i>
    <v name="QSPIRAL">      0.00000000      0.00000000      0.00000000</v>
    <i type="logical" name="LZEROZ"> F  </i>
   </separator>
   <separator name="electronic exchange-correlation" >
    <i type="logical" name="LASPH"> F  </i>
   </separator>
   <separator name="electronic convergence" >
    <i type="int" name="NELM">   100</i>
    <i type="int" name="NELMDL">     0</i>
    <i type="int" name="NELMIN">     2</i>
    <i name="ENINI">    400.00000000</i>
    <separator name="electronic convergence detail" >
     <i type="logical" name="LDIAG"> T  </i>
     <i type="logical" name="LSUBROT"> F  </i>
     <i type="logical" name="LROBUST"> F  </i>
     <i type="int" name="ISEARCH">     0</i>
     <i name="WEIMIN">      0.00000000</i>
     <i name="EBREAK">      0.00000002</i>
     <i name="DEPER">      0.30000000</i>
     <i type="int" name="NRMM">     4</i>
     <i name="TIME">      0.40000000</i>
    </separator>
   </separator>
   <separator name="electronic mixer" >
    <i name="AMIX">      0.40000000</i>
    <i name="BMIX">      1.00000000</i>
    <i name="AMIN">      0.10000000</i>
    <i name="AMIX_MAG">      1.60000000</i>
    <i name="BMIX_MAG">      1.00000000</i>
    <separator name="electronic mixer details" >
     <i type="int" name="IMIX">     4</i>
     <i type="logical" name="MIXFIRST"> F  </i>
     <i type="int" name="MAXMIX">   -45</i>
     <i name="WC">    100.00000000</i>
     <i type="int" name="INIMIX">     1</i>
     <i type="int" name="MIXPRE">     1</i>
     <i type="int" name="MREMOVE">     5</i>
    </separator>
   </separator>
   <separator name="electronic dipolcorrection" >
    <i type="logical" name="LDIPOL"> F  </i>
    <i type="logical" name="LMONO"> F  </i>
    <i type="int" name="IDIPOL">     0</i>
    <i name="EPSILON">      1.00000000</i>
    <v name="DIPOL">   -100.00000000   -100.00000000   -100.00000000</v>
    <i name="EFIELD">      0.00000000</i>
    <i type="logical" name="LVACPOTAV"> F  </i>
   </separator>
  </separator>
  <separator name="grids" >
   <i type="int" name="NGX">    28</i>
   <i type="int" name="NGY">    28</i>
   <i type="int" name="NGZ">    28</i>
   <i type="int" name="NGXF">    56</i>
   <i type="int" name="NGYF">    56</i>
   <i type="int" name="NGZF">    56</i>
   <i type="logical" name="ADDGRID"> F  </i>
  </separator>
  <separator name="ionic" >
   <i type="int" name="NSW">     0</i>
   <i type="int" name="IBRION">    -1</i>
   <i type="int" name="MDALGO">     0</i>
   <i type="int" name="ISIF">     2</i>
   <i name="PSTRESS">      0.00000000</i>
   <i name="EDIFFG">      0.00001000</i>
   <i type="int" name="NFREE">     0</i>
   <i name="POTIM">      0.50000000</i>
   <i name="SMASS">     -3.00000000</i>
   <i name="SCALEE">      1.00000000</i>
  </separator>
  <separator name="ionic md" >
   <i name="TEBEG">      0.00010000</i>
   <i name="TEEND">      0.00010000</i>
   <i type="int" name="NBLOCK">     1</i>
   <i type="int" name="KBLOCK">     1</i>
   <i type="int" name="NPACO">   256</i>
   <i name="APACO">     10.00000000</i>
  </separator>
  <separator name="symmetry" >
   <i type="int" name="ISYM">     0</i>
   <i name="SYMPREC">      0.00001000</i>
  </separator>
  <separator name="dos" >
   <i type="int" name="LORBIT">    11</i>
   <v name="RWIGS">     -1.00000000</v>
   <i type="int" name="NEDOS">   301</i>
   <i name="EMIN">     10.00000000</i>
   <i name="EMAX">    -10.00000000</i>
   <i name="EFERMI">      0.00000000</i>
  </separator>
  <separator name="writing" >
   <i type="int" name="NWRITE">     2</i>
   <i type="logical" name="LWAVE"> T  </i>
   <i type="logical" name="LDOWNSAMPLE"> F  </i>
   <i type="logical" name="LCHARG"> F  </i>
   <i type="logical" name="LPARD"> F  </i>
   <i type="logical" name="LVTOT"> F  </i>
   <i type="logical" name="LVHAR"> F  </i>
   <i type="logical" name="LELF"> F  </i>
   <i type="logical" name="LOPTICS"> F  </i>
   <v name="STM">      0.00000000      0.00000000      0.00000000      0.00000000      0.00000000      0.00000000      0.00000000</v>
  </separator>
  <separator name="performance" >
   <i type="int" name="NPAR">     1</i>
   <i type="int" name="NSIM">     4</i>
   <i type="int" name="NBLK">    -1</i>
   <i type="logical" name="LPLANE"> T  </i>
   <i type="logical" name="LSCALAPACK"> T  </i>
   <i type="logical" name="LSCAAWARE"> F  </i>
   <i type="logical" name="LSCALU"> F  </i>
   <i type="logical" name="LASYNC"> F  </i>
   <i type="logical" name="LORBITALREAL"> F  </i>
  </separator>
  <separator name="miscellaneous" >
   <i type="int" name="IDIOT">     3</i>
   <i type="int" name="PHON_NSTRUCT">    -1</i>
   <i type="logical" name="LMUSIC"> F  </i>
   <v name="POMASS">     28.08500000</v>
   <v name="DARWINR">      0.00000000</v>
   <v name="DARWINV">      1.00000000</v>
   <i type="logical" name="LCORR"> T  </i>
  </separator>
  <i type="logical" name="GGA_COMPAT"> T  </i>
  <i type="logical" name="LBERRY"> F  </i>
  <i type="int" name="ICORELEVEL">     0</i>
  <i type="logical" name="LDAU"> F  </i>
  <i type="int" name="I_CONSTRAINED_M">     0</i>
  <separator name="electronic exchange-correlation" >
   <i type="string" name="GGA    ">PE</i>
   <i type="string" name="XC_C">1</i>
   <i type="int" name="VOSKOWN">     0</i>
   <i type="logical" name="LHFCALC"> F  </i>
   <i type="string" name="PRECFOCK"></i>
   <i type="logical" name="LSYMGRAD"> F  </i>
   <i type="logical" name="LHFONE"> F  </i>
   <i type="logical" name="LRHFCALC"> F  </i>
   <i type="logical" name="LTHOMAS"> F  </i>
   <i type="logical" name="LMODELHF"> F  </i>
   <i type="logical" name="LFOCKACE"> F  </i>
   <i name="ENCUT4O">     -1.00000000</i>
   <i type="int" name="EXXOEP">     0</i>
   <i type="int" name="FOURORBIT">     0</i>
   <i name="AEXX">      0.00000000</i>
   <i name="BEXX">      1.00000000</i>
   <i name="HFALPHA">      0.00000000</i>
   <i name="MCALPHA">      0.00000000</i>
   <i name="ALDAX">      1.00000000</i>
   <i name="BLDAX">      0.00000000</i>
   <i name="AGGAX">      1.00000000</i>
   <i name="BGGAX">      0.00000000</i>
   <i name="AMGGAX">      1.00000000</i>
   <i name="ALDAC">      1.00000000</i>
   <i name="AGGAC">      1.00000000</i>
   <i name="AMGGAC">      1.00000000</i>
   <i type="int" name="NKREDX">     1</i>
   <i type="int" name="NKREDY">     1</i>
   <i type="int" name="NKREDZ">     1</i>
   <i type="logical" name="SHIFTRED"> F  </i>
   <i type="logical" name="ODDONLY"> F  </i>
   <i type="logical" name="EVENONLY"> F  </i>
   <i type="int" name="LMAXFOCK">     0</i>
   <i type="int" name="NMAXFOCKAE">     0</i>
   <i type="logical" name="LFOCKAEDFT"> F  </i>
   <i name="HFSCREEN">      0.00000000</i>
   <i name="HFSCREENC">      0.00000000</i>
   <i type="int" name="NBANDSGWLOW">     0</i>
  </separator>
  <separator name="vdW DFT" >
   <i type="logical" name="LUSE_VDW"> F  </i>
   <i type="int" name="IVDW_NL">    -1</i>
   <i type="logical" name="LSPIN_VDW"> F  </i>
   <i name="ZAB_VDW">     -0.84910000</i>
   <i name="GAMMA_VDW">      1.39626340</i>
   <i name="ALPHA_VDW">      0.00000000</i>
   <i name="PARAM1">      0.12340000</i>
   <i name="PARAM2">      1.00000000</i>
   <i name="BPARAM">      6.30000000</i>
   <i name="CPARAM">      0.00930000</i>
  </separator>
  <separator name="model GW" >
   <i type="int" name="MODEL_GW">     0</i>
   <i name="MODEL_EPS0">     12.00772552</i>
   <i name="MODEL_ALPHA">      1.00000000</i>
  </separator>
  <separator name="linear response parameters" >
   <i type="logical" name="LEPSILON"> F  </i>
   <i type="logical" name="LRPA"> F  </i>
   <i type="logical" name="LNABLA"> F  </i>
   <i type="logical" name="LVEL"> F  </i>
   <i name="CSHIFT">      0.10000000</i>
   <i name="OMEGAMAX">     -1.00000000</i>
   <i name="DEG_THRESHOLD">      0.00200000</i>
   <i name="RTIME">     -0.10000000</i>
   <i name="WPLASMAI">      0.00000000</i>
   <v name="DFIELD">      0.00000000      0.00000000      0.00000000</v>
   <v name="WPLASMA">      0.00000000      0.00000000      0.00000000      0.00000000      0.00000000      0.00000000      0.00000000      0.00000000      0.00000000</v>
  </separator>
  <separator name="orbital magnetization" >
   <i type="logical" name="NUCIND"> F  </i>
   <v name="MAGPOS">      0.00000000      0.00000000      0.00000000</v>
   <i type="logical" name="LNICSALL"> F  </i>
   <i type="logical" name="ORBITALMAG"> F  </i>
   <i type="logical" name="LMAGBLOCH"> F  </i>
   <i type="logical" name="LCHIMAG"> F  </i>
   <i type="logical" name="LGAUGE"> T  </i>
   <i type="int" name="MAGATOM">     0</i>
   <v name="MAGDIPOL">      0.00000000      0.00000000      0.00000000</v>
   <v name="AVECCONST">      0.00000000      0.00000000      0.00000000</v>
  </separator>
  <separator name="response functions" >
   <i type="logical" name="LALL_IN_ONE"> F  </i>
   <i type="int" name="IALL_IN_ONE">    -1</i>
   <i type="int" name="NBANDS_WAVE">    -1</i>
   <i type="logical" name="LFINITE_TEMPERATURE"> F  </i>
   <i type="logical" name="LADDER"> F  </i>
   <i type="logical" name="LRPAFORCE"> F  </i>
   <i type="logical" name="LFXC"> F  </i>
   <i type="logical" name="LHARTREE"> T  </i>
   <i type="int" name="IBSE">     2</i>
   <v type="int" name="KPOINT">    -1     0     0     0</v>
   <i type="logical" name="LTCTC"> F  </i>
   <i type="logical" name="LTCTE"> F  </i>
   <i type="logical" name="LTETE"> F  </i>
   <i type="logical" name="LTRIPLET"> F  </i>
   <i type="logical" name="LFXCEPS"> F  </i>
   <i type="logical" name="LFXHEG"> F  </i>
   <i type="int" name="NATURALO">     2</i>
   <i type="logical" name="LHOLEGF"> F  </i>
   <i type="logical" name="L2ORDER"> F  </i>
   <i type="logical" name="LDMP1"> F  </i>
   <i type="logical" name="LMP2LT"> F  </i>
   <i type="logical" name="LSMP2LT"> F  </i>
   <i type="logical" name="LGWLF"> F  </i>
   <i name="ENCUTGW">     -1.60000002</i>
   <i name="ENCUTGWSOFT">     -1.60000002</i>
   <i name="ENCUTLF">     -1.00000000</i>
   <i type="logical" name="ESF_SPLINES"> F  </i>
   <i name="ESF_CONV">      0.01000000</i>
   <i type="int" name="ESF_NINTER">    15</i>
   <i type="int" name="LMAXMP2">    -1</i>
   <i name="SCISSOR">      0.00000000</i>
   <i type="int" name="NOMEGA">     0</i>
   <i type="int" name="NOMEGAR">     0</i>
   <i type="int" name="NBANDSGW">    -1</i>
   <i type="int" name="NBANDSO">    -1</i>
   <i type="int" name="NBANDSV">    -1</i>
   <i type="int" name="NELMGW">     1</i>
   <i type="int" name="NELMHF">     1</i>
   <i type="int" name="DIM">     3</i>
   <i type="int" name="IESPILON">     4</i>
   <i type="int" name="ANTIRES">     0</i>
   <i name="OMEGAMAX">    -30.00000000</i>
   <i name="OMEGAMIN">    -30.00000000</i>
   <i name="OMEGATL">   -200.00000000</i>
   <i type="int" name="OMEGAGRID">     0</i>
   <i name="CSHIFT">     -0.10000000</i>
   <i type="logical" name="LSELFENERGY"> F  </i>
   <i type="logical" name="LSPECTRAL"> F  </i>
   <i type="logical" name="LSPECTRALGW"> F  </i>
   <i type="logical" name="LSINGLES"> F  </i>
   <i type="logical" name="LFERMIGW"> F  </i>
   <i type="logical" name="ODDONLYGW"> F  </i>
   <i type="logical" name="EVENONLYGW"> F  </i>
   <i type="int" name="NKREDLFX">     1</i>
   <i type="int" name="NKREDLFY">     1</i>
   <i type="int" name="NKREDLFZ">     1</i>
   <i type="int" name="MAXMEM">  2800</i>
   <i type="int" name="TELESCOPE">     0</i>
   <i type="int" name="NTAUPAR">    -1</i>
   <i type="int" name="NOMEGAPAR">    -1</i>
   <i name="DAMP_NEWTON">      0.80000001</i>
   <i type="logical" name="LFOCKSTD"> F  </i>
   <i type="logical" name="LCRPA"> F  </i>
   <i type="logical" name="LTWO_CENTRE"> F  </i>
   <i type="logical" name="LPCRPA"> T  </i>
   <i type="logical" name="LPCRPA_REV"> F  </i>
   <i type="logical" name="LDISENTANGLED"> F  </i>
   <i type="logical" name="LWCRPA"> F  </i>
   <i type="logical" name="LSCRPA"> F  </i>
   <i name="MSDGW_F">     -1.00000000</i>
   <i type="int" name="MSDGW_NS">    -1</i>
   <i type="int" name="MSDGW_NP">    -1</i>
   <i type="int" name="MSDGW_NXI">     2</i>
   <i type="int" name="MSDGW_SEED">  4357</i>
   <i name="LAMBDA">      1.00000000</i>
  </separator>
  <separator name="External order field" >
   <i name="OFIELD_KAPPA">      0.00000000</i>
   <v name="OFIELD_K">      0.00000000      0.00000000      0.00000000</v>
   <i name="OFIELD_Q6_NEAR">      0.00000000</i>
   <i name="OFIELD_Q6_FAR">      0.00000000</i>
   <i name="OFIELD_A">      0.00000000</i>
  </separator>
  <separator name="optional k-points parameters" >
   <i type="int" name="KPOINTS_OPT_MODE">     1</i>
   <i type="logical" name="LKPOINTS_OPT"> F  </i>
  </separator>
 </parameters>
 <atominfo>
  <atoms>       2 </atoms>
  <types>       1 </types>
  <array name="atoms" >
   <dimension dim="1">ion</dimension>
   <field type="string">element</field>
   <field type="int">atomtype</field>
   <set>
    <rc><c>Si</c><c>   1</c></rc>
    <rc><c>Si</c><c>   1</c></rc>
   </set>
  </array>
  <array name="atomtypes" >
   <dimension dim="1">type</dimension>
   <field type="int">atomspertype</field>
   <field type="string">element</field>
   <field>mass</field>
   <field>valence</field>
   <field type="string">pseudopotential</field>
   <set>
    <rc><c>   2</c><c>Si</c><c>     28.08500000</c><c>      4.00000000</c><c>  PAW_PBE Si 05Jan2001                  </c></rc>
   </set>
  </array>
 </atominfo>
 <structure name="initialpos" >
  <crystal>
   <varray name="basis" >
    <v>       0.00000000       2.71500000       2.71500000 </v>
    <v>       2.71500000       0.00000000       2.71500000 </v>
    <v>       2.71500000       2.71500000       0.00000000 </v>
   </varray>
   <i name="volume">     40.02575175 </i>
   <varray name="rec_basis" >
    <v>      -0.18416206       0.18416206       0.18416206 </v>
    <v>       0.18416206      -0.18416206       0.18416206 </v>
    <v>       0.18416206       0.18416206      -0.18416206 </v>
   </varray>
  </crystal>
  <varray name="positions" >
   <v>       0.00000000       0.00000000       0.00000000 </v>
   <v>       0.25000000       0.25000000       0.25000000 </v>
  </varray>
 </structure>
 <calculation>
  <scstep>
   <time name="dav">    0.58    0.58</time>
   <time name="total">    0.60    0.60</time>
   <energy>
    <i name="alphaZ">      3.36414726 </i>
    <i name="ewald">   -228.56352493 </i>
    <i name="hartreedc">    -14.93056039 </i>
    <i name="XCdc">    -17.95974656 </i>
    <i name="pawpsdc">    870.58449660 </i>
    <i name="pawaedc">   -835.62243720 </i>
    <i name="eentropy">     -0.00000012 </i>
    <i name="bandstr">     11.33855170 </i>
    <i name="atom">    206.13149246 </i>
    <i name="e_fr_energy">     -5.65758117 </i>
    <i name="e_wo_entrp">     -5.65758106 </i>
    <i name="e_0_energy">     -5.65758111 </i>
   </energy>
  </scstep>
  <scstep>
   <time name="diag">    0.10    0.10</time>
   <time name="diis">    0.38    0.38</time>
   <time name="orth">    0.00    0.00</time>
   <time name="total">    0.49    0.49</time>
   <energy>
    <i name="e_fr_energy">     -8.29031909 </i>
    <i name="e_wo_entrp">     -8.28988058 </i>
    <i name="e_0_energy">     -8.29009984 </i>
   </energy>
  </scstep>
  <scstep>
   <time name="diag">    0.10    0.10</time>
   <time name="diis">    0.38    0.38</time>
   <time name="orth">    0.00    0.00</time>
   <time name="total">    0.48    0.48</time>
   <energy>
    <i name="e_fr_energy">     -8.78557816 </i>
    <i name="e_wo_entrp">     -8.78557816 </i>
    <i name="e_0_energy">     -8.78557816 </i>
   </energy>
  </scstep>
  <scstep>
   <time name="diag">    0.10    0.10</time>
   <time name="diis">    0.39    0.39</time>
   <time name="orth">    0.00    0.00</time>
   <time name="total">    0.49    0.49</time>
   <energy>
    <i name="e_fr_energy">     -8.83804949 </i>
    <i name="e_wo_entrp">     -8.83804949 </i>
    <i name="e_0_energy">     -8.83804949 </i>
   </energy>
  </scstep>
  <scstep>
   <time name="diag">    0.10    0.10</time>
   <time name="diis">    0.38    0.38</time>
   <time name="orth">    0.00    0.00</time>
   <time name="total">    0.48    0.48</time>
   <energy>
    <i name="e_fr_energy">     -8.84700076 </i>
    <i name="e_wo_entrp">     -8.84700076 </i>
    <i name="e_0_energy">     -8.84700076 </i>
   </energy>
  </scstep>
  <scstep>
   <time name="diag">    0.10    0.10</time>
   <time name="diis">    0.38    0.38</time>
   <time name="orth">    0.00    0.00</time>
   <time name="total">    0.48    0.48</time>
   <energy>
    <i name="e_fr_energy">     -8.84866100 </i>
    <i name="e_wo_entrp">     -8.84866100 </i>
    <i name="e_0_energy">     -8.84866100 </i>
   </energy>
  </scstep>
  <scstep>
   <time name="diag">    0.10    0.10</time>
   <time name="diis">    0.38    0.38</time>
   <time name="orth">    0.00    0.00</time>
   <time name="total">    0.48    0.48</time>
   <energy>
    <i name="e_fr_energy">     -8.84900343 </i>
    <i name="e_wo_entrp">     -8.84900343 </i>
    <i name="e_0_energy">     -8.84900343 </i>
   </energy>
  </scstep>
  <scstep>
   <time name="diag">    0.10    0.10</time>
   <time name="diis">    0.38    0.38</time>
   <time name="orth">    0.00    0.00</time>
   <time name="total">    0.48    0.48</time>
   <energy>
    <i name="e_fr_energy">     -8.84907164 </i>
    <i name="e_wo_entrp">     -8.84907164 </i>
    <i name="e_0_energy">     -8.84907164 </i>
   </energy>
  </scstep>
  <scstep>
   <time name="diag">    0.10    0.10</time>
   <time name="diis">    0.37    0.37</time>
   <time name="orth">    0.00    0.00</time>
   <time name="total">    0.47    0.47</time>
   <energy>
    <i name="e_fr_energy">     -8.84908663 </i>
    <i name="e_wo_entrp">     -8.84908663 </i>
    <i name="e_0_energy">     -8.84908663 </i>
   </energy>
  </scstep>
  <scstep>
   <time name="diag">    0.09    0.09</time>
   <time name="diis">    0.35    0.35</time>
   <time name="orth">    0.00    0.00</time>
   <time name="total">    0.44    0.44</time>
   <energy>
    <i name="e_fr_energy">     -8.84909001 </i>
    <i name="e_wo_entrp">     -8.84909001 </i>
    <i name="e_0_energy">     -8.84909001 </i>
   </energy>
  </scstep>
  <scstep>
   <time name="diag">    0.09    0.09</time>
   <time name="diis">    0.29    0.29</time>
   <time name="orth">    0.00    0.00</time>
   <time name="total">    0.38    0.38</time>
   <energy>
    <i name="alphaZ">      3.36414726 </i>
    <i name="ewald">   -228.56352493 </i>
    <i name="hartreedc">    -14.93056039 </i>
    <i name="XCdc">    -17.95974656 </i>
    <i name="pawpsdc">    870.58449660 </i>
    <i name="pawaedc">   -835.62243720 </i>
    <i name="eentropy">     -0.00000000 </i>
    <i name="bandstr">      8.14704197 </i>
    <i name="atom">    206.13149246 </i>
    <i name="e_fr_energy">     -8.84909079 </i>
    <i name="e_wo_entrp">     -8.84909079 </i>
    <i name="e_0_energy">     -8.84909079 </i>
   </energy>
  </scstep>
  <structure>
   <crystal>
    <varray name="basis" >
     <v>       0.00000000       2.71500000       2.71500000 </v>
     <v>       2.71500000       0.00000000       2.71500000 </v>
     <v>       2.71500000       2.71500000       0.00000000 </v>
    </varray>
    <i name="volume">     40.02575175 </i>
    <varray name="rec_basis" >
     <v>      -0.18416206       0.18416206       0.18416206 </v>
     <v>       0.18416206      -0.18416206       0.18416206 </v>
     <v>       0.18416206       0.18416206      -0.18416206 </v>
    </varray>
   </crystal>
   <varray name="positions" >
    <v>       0.00000000       0.00000000       0.00000000 </v>
    <v>       0.25000000       0.25000000       0.25000000 </v>
   </varray>
  </structure>
  <varray name="forces" >
   <v>      -0.06171107      -0.06090394      -0.38473943 </v>
   <v>       0.06171107       0.06090394       0.38473943 </v>
  </varray>
  <varray name="stress" >
   <v>      44.95107718     -19.19861372     -13.68298425 </v>
   <v>     -19.19861354      85.93322438     -14.35204035 </v>
   <v>     -13.68298419     -14.35204023     138.82150476 </v>
  </varray>
  <energy>
   <i name="e_fr_energy">     -8.84909079 </i>
   <i name="e_wo_entrp">     -8.84909079 </i>
   <i name="e_0_energy">     -8.84909079 </i>
  </energy>
  <time name="totalsc">    5.40    5.42</time>
  <eigenvalues>
   <array>
    <dimension dim="1">band</dimension>
    <dimension dim="2">kpoint</dimension>
    <dimension dim="3">spin</dimension>
    <field>eigene</field>
    <field>occ</field>
    <set>
     <set comment="spin 1">
      <set comment="kpoint 1">
       <r>   -3.7966    1.0000 </r>
       <r>   -1.1364    1.0000 </r>
       <r>    4.6342    1.0000 </r>
       <r>    4.6342    1.0000 </r>
       <r>    7.3735    0.0000 </r>
       <r>    9.1720    0.0000 </r>
       <r>    9.1720    0.0000 </r>
       <r>   13.5618    0.0000 </r>
       <r>   16.3845    0.0000 </r>
       <r>   16.3856    0.0000 </r>
       <r>   17.1912    0.0000 </r>
       <r>   34.1405    0.0000 </r>
      </set>
      <set comment="kpoint 2">
       <r>   -3.8083    1.0000 </r>
       <r>   -1.1196    1.0000 </r>
       <r>    4.6356    1.0000 </r>
       <r>    4.6356    1.0000 </r>
       <r>    7.3752    0.0000 </r>
       <r>    9.1737    0.0000 </r>
       <r>    9.1737    0.0000 </r>
       <r>   13.5644    0.0000 </r>
       <r>   16.2863    0.0000 </r>
       <r>   17.1613    0.0000 </r>
       <r>   26.7255    0.0000 </r>
       <r>   27.4440    0.0000 </r>
      </set>
      <set comment="kpoint 3">
       <r>   -3.8427    1.0000 </r>
       <r>   -1.0702    1.0000 </r>
       <r>    4.6400    1.0000 </r>
       <r>    4.6400    1.0000 </r>
       <r>    7.3802    0.0000 </r>
       <r>    9.1787    0.0000 </r>
       <r>    9.1787    0.0000 </r>
       <r>   13.5722    0.0000 </r>
       <r>   16.0736    0.0000 </r>
       <r>   17.0396    0.0000 </r>
       <r>   17.3809    0.0000 </r>
       <r>   25.4093    0.0000 </r>
      </set>
      <set comment="kpoint 4">
       <r>   -3.8971    1.0000 </r>
       <r>   -0.9905    1.0000 </r>
       <r>    4.6473    1.0000 </r>
       <r>    4.6473    1.0000 </r>
       <r>    7.3886    0.0000 </r>
       <r>    9.1870    0.0000 </r>
       <r>    9.1870    0.0000 </r>
       <r>   13.5851    0.0000 </r>
       <r>   15.8258    0.0000 </r>
       <r>   15.8258    0.0000 </r>
       <r>   16.8492    0.0000 </r>
       <r>   18.6981    0.0000 </r>
      </set>
      <set comment="kpoint 5">
       <r>   -3.9684    1.0000 </r>
       <r>   -0.8840    1.0000 </r>
       <r>    4.6576    1.0000 </r>
       <r>    4.6576    1.0000 </r>
       <r>    7.4003    0.0000 </r>
       <r>    9.1983    0.0000 </r>
       <r>    9.1983    0.0000 </r>
       <r>   13.6026    0.0000 </r>
       <r>   15.5696    0.0000 </r>
       <r>   15.5738    0.0000 </r>
       <r>   18.1402    0.0000 </r>
       <r>   24.2349    0.0000 </r>
      </set>
      <set comment="kpoint 6">
       <r>   -4.0529    1.0000 </r>
       <r>   -0.7542    1.0000 </r>
       <r>    4.6707    1.0000 </r>
       <r>    4.6707    1.0000 </r>
       <r>    7.4155    0.0000 </r>
       <r>    9.2126    0.0000 </r>
       <r>    9.2126    0.0000 </r>
       <r>   13.6241    0.0000 </r>
       <r>   15.3142    0.0000 </r>
       <r>   15.3144    0.0000 </r>
       <r>   16.4334    0.0000 </r>
       <r>   29.4069    0.0000 </r>
      </set>
      <set comment="kpoint 7">
       <r>   -4.1471    1.0000 </r>
       <r>   -0.6046    1.0000 </r>
       <r>    4.6868    1.0000 </r>
       <r>    4.6868    1.0000 </r>
       <r>    7.4339    0.0000 </r>
       <r>    9.2292    0.0000 </r>
       <r>    9.2292    0.0000 </r>
       <r>   13.6487    0.0000 </r>
       <r>   15.0635    0.0000 </r>
       <r>   16.0395    0.0000 </r>
       <r>   19.0829    0.0000 </r>
       <r>   23.3144    0.0000 </r>
      </set>
      <set comment="kpoint 8">
       <r>   -4.2483    1.0000 </r>
       <r>   -0.4382    1.0000 </r>
       <r>    4.7058    1.0000 </r>
       <r>    4.7058    1.0000 </r>
       <r>    7.4556    0.0000 </r>
       <r>    9.2478    0.0000 </r>
       <r>    9.2478    0.0000 </r>
       <r>   13.6749    0.0000 </r>
       <r>   14.8200    0.0000 </r>
       <r>   15.6126    0.0000 </r>
       <r>   22.8390    0.0000 </r>
       <r>   29.4363    0.0000 </r>
      </set>
      <set comment="kpoint 9">
       <r>   -4.3539    1.0000 </r>
       <r>   -0.2574    1.0000 </r>
       <r>    4.7276    1.0000 </r>
       <r>    4.7276    1.0000 </r>
       <r>    7.4806    0.0000 </r>
       <r>    9.2677    0.0000 </r>
       <r>    9.2677    0.0000 </r>
       <r>   13.7007    0.0000 </r>
       <r>   14.5851    0.0000 </r>
       <r>   15.6289    0.0000 </r>
       <r>   22.2059    0.0000 </r>
       <r>   24.6776    0.0000 </r>
      </set>
      <set comment="kpoint 10">
       <r>   -4.4620    1.0000 </r>
       <r>   -0.0644    1.0000 </r>
       <r>    4.7523    1.0000 </r>
       <r>    4.7523    1.0000 </r>
       <r>    7.5087    0.0000 </r>
       <r>    9.2883    0.0000 </r>
       <r>    9.2883    0.0000 </r>
       <r>   13.7219    0.0000 </r>
       <r>   14.3600    0.0000 </r>
       <r>   14.3600    0.0000 </r>
       <r>   15.4721    0.0000 </r>
       <r>   23.9593    0.0000 </r>
      </set>
      <set comment="kpoint 11">
       <r>   -4.5710    1.0000 </r>
       <r>    0.1394    1.0000 </r>
       <r>    4.7799    1.0000 </r>
       <r>    4.7799    1.0000 </r>
       <r>    7.5399    0.0000 </r>
       <r>    9.3086    0.0000 </r>
       <r>    9.3086    0.0000 </r>
       <r>   13.7379    0.0000 </r>
       <r>   14.1461    0.0000 </r>
       <r>   15.2141    0.0000 </r>
       <r>   19.9793    0.0000 </r>
       <r>   20.0431    0.0000 </r>
      </set>
      <set comment="kpoint 12">
       <r>   -4.6798    1.0000 </r>
       <r>    0.3525    1.0000 </r>
       <r>    4.8103    1.0000 </r>
       <r>    4.8103    1.0000 </r>
       <r>    7.5743    0.0000 </r>
       <r>    9.3277    0.0000 </r>
       <r>    9.3277    0.0000 </r>
       <r>   13.7259    0.0000 </r>
       <r>   13.9448    0.0000 </r>
       <r>   13.9448    0.0000 </r>
       <r>   15.0664    0.0000 </r>
       <r>   20.2000    0.0000 </r>
      </set>
      <set comment="kpoint 13">
       <r>   -4.7873    1.0000 </r>
       <r>    0.5740    1.0000 </r>
       <r>    4.8435    1.0000 </r>
       <r>    4.8435    1.0000 </r>
       <r>    7.6117    0.0000 </r>
       <r>    9.3446    0.0000 </r>
       <r>    9.3446    0.0000 </r>
       <r>   13.7313    0.0000 </r>
       <r>   14.9048    0.0000 </r>
       <r>   19.4529    0.0000 </r>
       <r>   20.6776    0.0000 </r>
       <r>   30.7750    0.0000 </r>
      </set>
      <set comment="kpoint 14">
       <r>   -4.8928    1.0000 </r>
       <r>    0.8028    1.0000 </r>
       <r>    4.8794    1.0000 </r>
       <r>    4.8794    1.0000 </r>
       <r>    7.6519    0.0000 </r>
       <r>    9.3579    0.0000 </r>
       <r>    9.3579    0.0000 </r>
       <r>   13.5892    0.0000 </r>
       <r>   13.6153    0.0000 </r>
       <r>   19.2208    0.0000 </r>
       <r>   21.6608    0.0000 </r>
       <r>   22.7404    0.0000 </r>
      </set>
      <set comment="kpoint 15">
       <r>   -4.9956    1.0000 </r>
       <r>    1.0384    1.0000 </r>
       <r>    4.9180    1.0000 </r>
       <r>    4.9180    1.0000 </r>
       <r>    7.6949    0.0000 </r>
       <r>    9.3663    0.0000 </r>
       <r>    9.3663    0.0000 </r>
       <r>   13.4275    0.0000 </r>
       <r>   13.4485    0.0000 </r>
       <r>   14.6822    0.0000 </r>
       <r>   21.0828    0.0000 </r>
       <r>   30.7533    0.0000 </r>
      </set>
      <set comment="kpoint 16">
       <r>   -5.0954    1.0000 </r>
       <r>    1.2800    1.0000 </r>
       <r>    4.9591    1.0000 </r>
       <r>    4.9591    1.0000 </r>
       <r>    7.7406    0.0000 </r>
       <r>    9.3686    0.0000 </r>
       <r>    9.3686    0.0000 </r>
       <r>   13.2890    0.0000 </r>
       <r>   13.2890    0.0000 </r>
       <r>   13.3010    0.0000 </r>
       <r>   14.7402    0.0000 </r>
       <r>   22.9895    0.0000 </r>
      </set>
      <set comment="kpoint 17">
       <r>   -5.1917    1.0000 </r>
       <r>    1.5270    1.0000 </r>
       <r>    5.0028    1.0000 </r>
       <r>    5.0028    1.0000 </r>
       <r>    7.7886    0.0000 </r>
       <r>    9.3633    0.0000 </r>
       <r>    9.3633    0.0000 </r>
       <r>   13.0981    0.0000 </r>
       <r>   13.1693    0.0000 </r>
       <r>   13.1693    0.0000 </r>
       <r>   14.7624    0.0000 </r>
       <r>   18.1504    0.0000 </r>
      </set>
      <set comment="kpoint 18">
       <r>   -5.2842    1.0000 </r>
       <r>    1.7789    1.0000 </r>
       <r>    5.0488    1.0000 </r>
       <r>    5.0488    1.0000 </r>
       <r>    7.8389    0.0000 </r>
       <r>    9.3495    0.0000 </r>
       <r>    9.3495    0.0000 </r>
       <r>   12.9271    0.0000 </r>
       <r>   14.6501    0.0000 </r>
       <r>   17.8483    0.0000 </r>
       <r>   23.8825    0.0000 </r>
       <r>   31.9801    0.0000 </r>
      </set>
      <set comment="kpoint 19">
       <r>   -5.3726    1.0000 </r>
       <r>    2.0352    1.0000 </r>
       <r>    5.0970    1.0000 </r>
       <r>    5.0970    1.0000 </r>
       <r>    7.8911    0.0000 </r>
       <r>    9.3261    0.0000 </r>
       <r>    9.3261    0.0000 </r>
       <r>   12.6410    0.0000 </r>
       <r>   12.9913    0.0000 </r>
       <r>   14.8543    0.0000 </r>
       <r>   17.5652    0.0000 </r>
       <r>   25.4660    0.0000 </r>
      </set>
      <set comment="kpoint 20">
       <r>   -5.4567    1.0000 </r>
       <r>    2.2953    1.0000 </r>
       <r>    5.1472    1.0000 </r>
       <r>    5.1472    1.0000 </r>
       <r>    7.9450    0.0000 </r>
       <r>    9.2928    0.0000 </r>
       <r>    9.2928    0.0000 </r>
       <r>   12.3953    0.0000 </r>
       <r>   12.9340    0.0000 </r>
       <r>   14.9075    0.0000 </r>
       <r>   17.2591    0.0000 </r>
       <r>   20.1175    0.0000 </r>
      </set>
      <set comment="kpoint 21">
       <r>   -5.5363    1.0000 </r>
       <r>    2.5588    1.0000 </r>
       <r>    5.1992    1.0000 </r>
       <r>    5.1992    1.0000 </r>
       <r>    8.0002    0.0000 </r>
       <r>    9.2496    0.0000 </r>
       <r>    9.2496    0.0000 </r>
       <r>   12.1468    0.0000 </r>
       <r>   14.8531    0.0000 </r>
       <r>   17.0144    0.0000 </r>
       <r>   24.0116    0.0000 </r>
       <r>   25.7421    0.0000 </r>
      </set>
      <set comment="kpoint 22">
       <r>   -5.6113    1.0000 </r>
       <r>    2.8250    1.0000 </r>
       <r>    5.2528    1.0000 </r>
       <r>    5.2528    1.0000 </r>
       <r>    8.0563    0.0000 </r>
       <r>    9.1970    0.0000 </r>
       <r>    9.1970    0.0000 </r>
       <r>   12.7584    0.0000 </r>
       <r>   14.9842    0.0000 </r>
       <r>   16.8032    0.0000 </r>
       <r>   23.8868    0.0000 </r>
       <r>   25.5889    0.0000 </r>
      </set>
      <set comment="kpoint 23">
       <r>   -5.6815    1.0000 </r>
       <r>    3.0931    1.0000 </r>
       <r>    5.3075    1.0000 </r>
       <r>    5.3075    1.0000 </r>
       <r>    8.1126    0.0000 </r>
       <r>    9.1360    0.0000 </r>
       <r>    9.1360    0.0000 </r>
       <r>   11.6363    0.0000 </r>
       <r>   12.8863    0.0000 </r>
       <r>   14.9845    0.0000 </r>
       <r>   16.6330    0.0000 </r>
       <r>   24.6017    0.0000 </r>
      </set>
      <set comment="kpoint 24">
       <r>   -5.7469    1.0000 </r>
       <r>    3.3626    1.0000 </r>
       <r>    5.3631    1.0000 </r>
       <r>    5.3631    1.0000 </r>
       <r>    8.1686    0.0000 </r>
       <r>    9.0681    0.0000 </r>
       <r>    9.0681    0.0000 </r>
       <r>   11.3793    0.0000 </r>
       <r>   12.9075    0.0000 </r>
       <r>   14.9993    0.0000 </r>
       <r>   24.7100    0.0000 </r>
       <r>   25.7715    0.0000 </r>
      </set>
      <set comment="kpoint 25">
       <r>   -5.8073    1.0000 </r>
       <r>    3.6324    1.0000 </r>
       <r>    5.4190    1.0000 </r>
       <r>    5.4190    1.0000 </r>
       <r>    8.2235    0.0000 </r>
       <r>    8.9950    0.0000 </r>
       <r>    8.9950    0.0000 </r>
       <r>   11.1224    0.0000 </r>
       <r>   12.9443    0.0000 </r>
       <r>   12.9443    0.0000 </r>
       <r>   14.8654    0.0000 </r>
       <r>   26.1741    0.0000 </r>
      </set>
      <set comment="kpoint 26">
       <r>   -5.8627    1.0000 </r>
       <r>    3.9015    1.0000 </r>
       <r>    5.4746    1.0000 </r>
       <r>    5.4746    1.0000 </r>
       <r>    8.2764    0.0000 </r>
       <r>    8.9185    0.0000 </r>
       <r>    8.9185    0.0000 </r>
       <r>   10.8668    0.0000 </r>
       <r>   12.9943    0.0000 </r>
       <r>   12.9943    0.0000 </r>
       <r>   14.7508    0.0000 </r>
       <r>   16.4698    0.0000 </r>
      </set>
      <set comment="kpoint 27">
       <r>   -5.9130    1.0000 </r>
       <r>    4.1683    1.0000 </r>
       <r>    5.5294    1.0000 </r>
       <r>    5.5294    1.0000 </r>
       <r>    8.3260    0.0000 </r>
       <r>    8.8407    0.0000 </r>
       <r>    8.8407    0.0000 </r>
       <r>   10.6145    0.0000 </r>
       <r>   13.0548    0.0000 </r>
       <r>   14.6152    0.0000 </r>
       <r>   16.5795    0.0000 </r>
       <r>   26.9436    0.0000 </r>
      </set>
      <set comment="kpoint 28">
       <r>   -5.9581    1.0000 </r>
       <r>    4.4312    1.0000 </r>
       <r>    5.5826    1.0000 </r>
       <r>    5.5826    1.0000 </r>
       <r>    8.3709    0.0000 </r>
       <r>    8.7635    0.0000 </r>
       <r>    8.7635    0.0000 </r>
       <r>   10.3678    0.0000 </r>
       <r>   13.1233    0.0000 </r>
       <r>   13.1233    0.0000 </r>
       <r>   14.4724    0.0000 </r>
       <r>   18.0750    0.0000 </r>
      </set>
      <set comment="kpoint 29">
       <r>   -5.9980    1.0000 </r>
       <r>    4.6875    1.0000 </r>
       <r>    5.6333    1.0000 </r>
       <r>    5.6333    1.0000 </r>
       <r>    8.4093    0.0000 </r>
       <r>    8.6891    0.0000 </r>
       <r>    8.6891    0.0000 </r>
       <r>   10.1300    0.0000 </r>
       <r>   13.1967    0.0000 </r>
       <r>   13.1967    0.0000 </r>
       <r>   14.3312    0.0000 </r>
       <r>   27.6997    0.0000 </r>
      </set>
      <set comment="kpoint 30">
       <r>   -6.0326    1.0000 </r>
       <r>    4.9341    1.0000 </r>
       <r>    5.6805    1.0000 </r>
       <r>    5.6805    1.0000 </r>
       <r>    8.4390    0.0000 </r>
       <r>    8.6193    0.0000 </r>
       <r>    8.6193    0.0000 </r>
       <r>    9.9059    0.0000 </r>
       <r>   13.2717    0.0000 </r>
       <r>   14.1991    0.0000 </r>
       <r>   16.8632    0.0000 </r>
       <r>   21.8755    0.0000 </r>
      </set>
      <set comment="kpoint 31">
       <r>   -6.0620    1.0000 </r>
       <r>    5.1666    1.0000 </r>
       <r>    5.7232    1.0000 </r>
       <r>    5.7232    1.0000 </r>
       <r>    8.4569    0.0000 </r>
       <r>    8.5562    0.0000 </r>
       <r>    8.5562    0.0000 </r>
       <r>    9.7016    0.0000 </r>
       <r>   13.3447    0.0000 </r>
       <r>   14.0809    0.0000 </r>
       <r>   17.3986    0.0000 </r>
       <r>   28.5707    0.0000 </r>
      </set>
      <set comment="kpoint 32">
       <r>   -6.0861    1.0000 </r>
       <r>    5.3786    1.0000 </r>
       <r>    5.7602    1.0000 </r>
       <r>    5.7602    1.0000 </r>
       <r>    8.4608    0.0000 </r>
       <r>    8.5015    0.0000 </r>
       <r>    8.5015    0.0000 </r>
       <r>    9.5250    0.0000 </r>
       <r>   13.4122    0.0000 </r>
       <r>   13.9770    0.0000 </r>
       <r>   17.3502    0.0000 </r>
       <r>   29.0203    0.0000 </r>
      </set>
      <set comment="kpoint 33">
       <r>   -6.1048    1.0000 </r>
       <r>    5.5619    1.0000 </r>
       <r>    5.7905    1.0000 </r>
       <r>    5.7905    1.0000 </r>
       <r>    8.4497    0.0000 </r>
       <r>    8.4570    0.0000 </r>
       <r>    8.4570    0.0000 </r>
       <r>    9.3844    0.0000 </r>
       <r>   13.4702    0.0000 </r>
       <r>   13.4702    0.0000 </r>
       <r>   13.8998    0.0000 </r>
       <r>   28.8539    0.0000 </r>
      </set>
      <set comment="kpoint 34">
       <r>   -6.1182    1.0000 </r>
       <r>    5.7060    1.0000 </r>
       <r>    5.8130    1.0000 </r>
       <r>    5.8130    1.0000 </r>
       <r>    8.4240    0.0000 </r>
       <r>    8.4240    0.0000 </r>
       <r>    8.4279    0.0000 </r>
       <r>    9.2854    0.0000 </r>
       <r>   13.5150    0.0000 </r>
       <r>   13.8396    0.0000 </r>
       <r>   17.1193    0.0000 </r>
       <r>   29.0179    0.0000 </r>
      </set>
      <set comment="kpoint 35">
       <r>   -6.1263    1.0000 </r>
       <r>    5.7991    1.0000 </r>
       <r>    5.8268    1.0000 </r>
       <r>    5.8268    1.0000 </r>
       <r>    8.4038    0.0000 </r>
       <r>    8.4038    0.0000 </r>
       <r>    8.4061    0.0000 </r>
       <r>    9.2282    0.0000 </r>
       <r>   13.5433    0.0000 </r>
       <r>   13.5433    0.0000 </r>
       <r>   13.8052    0.0000 </r>
       <r>   17.1026    0.0000 </r>
      </set>
      <set comment="kpoint 36">
       <r>   -6.1289    1.0000 </r>
       <r>    5.8315    1.0000 </r>
       <r>    5.8315    1.0000 </r>
       <r>    5.8315    1.0000 </r>
       <r>    8.3969    0.0000 </r>
       <r>    8.3969    0.0000 </r>
       <r>    8.3969    0.0000 </r>
       <r>    9.2097    0.0000 </r>
       <r>   13.5530    0.0000 </r>
       <r>   13.7928    0.0000 </r>
       <r>   17.0862    0.0000 </r>
       <r>   29.1965    0.0000 </r>
      </set>
      <set comment="kpoint 37">
       <r>   -6.1289    1.0000 </r>
       <r>    5.8315    1.0000 </r>
       <r>    5.8315    1.0000 </r>
       <r>    5.8315    1.0000 </r>
       <r>    8.3969    0.0000 </r>
       <r>    8.3969    0.0000 </r>
       <r>    8.3969    0.0000 </r>
       <r>    9.2097    0.0000 </r>
       <r>   13.5530    0.0000 </r>
       <r>   13.7929    0.0000 </r>
       <r>   17.0858    0.0000 </r>
       <r>   29.7803    0.0000 </r>
      </set>
      <set comment="kpoint 38">
       <r>   -6.1254    1.0000 </r>
       <r>    5.8069    1.0000 </r>
       <r>    5.8159    1.0000 </r>
       <r>    5.8159    1.0000 </r>
       <r>    8.3880    0.0000 </r>
       <r>    8.4169    0.0000 </r>
       <r>    8.4169    0.0000 </r>
       <r>    9.2339    0.0000 </r>
       <r>   13.5275    0.0000 </r>
       <r>   13.8088    0.0000 </r>
       <r>   17.0933    0.0000 </r>
       <r>   29.3895    0.0000 </r>
      </set>
      <set comment="kpoint 39">
       <r>   -6.1147    1.0000 </r>
       <r>    5.7353    1.0000 </r>
       <r>    5.7707    1.0000 </r>
       <r>    5.7707    1.0000 </r>
       <r>    8.3615    0.0000 </r>
       <r>    8.4753    0.0000 </r>
       <r>    8.4753    0.0000 </r>
       <r>    9.3038    0.0000 </r>
       <r>   13.4376    0.0000 </r>
       <r>   13.5688    0.0000 </r>
       <r>   13.8568    0.0000 </r>
       <r>   17.1408    0.0000 </r>
      </set>
      <set comment="kpoint 40">
       <r>   -6.0968    1.0000 </r>
       <r>    5.6222    1.0000 </r>
       <r>    5.6996    1.0000 </r>
       <r>    5.6996    1.0000 </r>
       <r>    8.3186    0.0000 </r>
       <r>    8.5684    0.0000 </r>
       <r>    8.5684    0.0000 </r>
       <r>    9.4128    0.0000 </r>
       <r>   13.3106    0.0000 </r>
       <r>   13.9348    0.0000 </r>
       <r>   17.2116    0.0000 </r>
       <r>   29.0510    0.0000 </r>
      </set>
      <set comment="kpoint 41">
       <r>   -6.0718    1.0000 </r>
       <r>    5.4749    1.0000 </r>
       <r>    5.6077    1.0000 </r>
       <r>    5.6077    1.0000 </r>
       <r>    8.2608    0.0000 </r>
       <r>    8.6911    0.0000 </r>
       <r>    8.6911    0.0000 </r>
       <r>    9.5518    0.0000 </r>
       <r>   13.1387    0.0000 </r>
       <r>   14.0407    0.0000 </r>
       <r>   17.2636    0.0000 </r>
       <r>   29.4395    0.0000 </r>
      </set>
      <set comment="kpoint 42">
       <r>   -6.0396    1.0000 </r>
       <r>    5.3006    1.0000 </r>
       <r>    5.5001    1.0000 </r>
       <r>    5.5001    1.0000 </r>
       <r>    8.1899    0.0000 </r>
       <r>    8.8380    0.0000 </r>
       <r>    8.8380    0.0000 </r>
       <r>    9.7100    0.0000 </r>
       <r>   12.9503    0.0000 </r>
       <r>   13.6519    0.0000 </r>
       <r>   14.1763    0.0000 </r>
       <r>   29.1092    0.0000 </r>
      </set>
      <set comment="kpoint 43">
       <r>   -6.0004    1.0000 </r>
       <r>    5.1057    1.0000 </r>
       <r>    5.3815    1.0000 </r>
       <r>    5.3815    1.0000 </r>
       <r>    8.1083    0.0000 </r>
       <r>    9.0048    0.0000 </r>
       <r>    9.0048    0.0000 </r>
       <r>    9.8755    0.0000 </r>
       <r>   12.7567    0.0000 </r>
       <r>   14.3350    0.0000 </r>
       <r>   17.3911    0.0000 </r>
       <r>   28.1519    0.0000 </r>
      </set>
      <set comment="kpoint 44">
       <r>   -5.9540    1.0000 </r>
       <r>    4.8951    1.0000 </r>
       <r>    5.2554    1.0000 </r>
       <r>    5.2554    1.0000 </r>
       <r>    8.0179    0.0000 </r>
       <r>    9.1877    0.0000 </r>
       <r>    9.1877    0.0000 </r>
       <r>   10.0343    0.0000 </r>
       <r>   12.5737    0.0000 </r>
       <r>   13.7471    0.0000 </r>
       <r>   14.5164    0.0000 </r>
       <r>   17.4580    0.0000 </r>
      </set>
      <set comment="kpoint 45">
       <r>   -5.9006    1.0000 </r>
       <r>    4.6728    1.0000 </r>
       <r>    5.1248    1.0000 </r>
       <r>    5.1248    1.0000 </r>
       <r>    7.9210    0.0000 </r>
       <r>    9.3834    0.0000 </r>
       <r>    9.3834    0.0000 </r>
       <r>   10.1681    0.0000 </r>
       <r>   12.4210    0.0000 </r>
       <r>   13.8064    0.0000 </r>
       <r>   14.7178    0.0000 </r>
       <r>   32.3743    0.0000 </r>
      </set>
      <set comment="kpoint 46">
       <r>   -5.8401    1.0000 </r>
       <r>    4.4415    1.0000 </r>
       <r>    4.9922    1.0000 </r>
       <r>    4.9922    1.0000 </r>
       <r>    7.8193    0.0000 </r>
       <r>    9.5897    0.0000 </r>
       <r>    9.5897    0.0000 </r>
       <r>   10.2547    0.0000 </r>
       <r>   12.3227    0.0000 </r>
       <r>   13.8736    0.0000 </r>
       <r>   14.9372    0.0000 </r>
       <r>   17.9677    0.0000 </r>
      </set>
      <set comment="kpoint 47">
       <r>   -5.7726    1.0000 </r>
       <r>    4.2036    1.0000 </r>
       <r>    4.8590    1.0000 </r>
       <r>    4.8590    1.0000 </r>
       <r>    7.7147    0.0000 </r>
       <r>    9.8047    0.0000 </r>
       <r>    9.8047    0.0000 </r>
       <r>   10.2726    0.0000 </r>
       <r>   12.3008    0.0000 </r>
       <r>   13.9487    0.0000 </r>
       <r>   15.1727    0.0000 </r>
       <r>   17.7117    0.0000 </r>
      </set>
      <set comment="kpoint 48">
       <r>   -5.6982    1.0000 </r>
       <r>    3.9604    1.0000 </r>
       <r>    4.7267    1.0000 </r>
       <r>    4.7267    1.0000 </r>
       <r>    7.6087    0.0000 </r>
       <r>   10.0271    0.0000 </r>
       <r>   10.0271    0.0000 </r>
       <r>   10.2142    0.0000 </r>
       <r>   12.3647    0.0000 </r>
       <r>   14.0316    0.0000 </r>
       <r>   15.4223    0.0000 </r>
       <r>   18.2551    0.0000 </r>
      </set>
      <set comment="kpoint 49">
       <r>   -5.6167    1.0000 </r>
       <r>    3.7134    1.0000 </r>
       <r>    4.5963    1.0000 </r>
       <r>    4.5963    1.0000 </r>
       <r>    7.5026    0.0000 </r>
       <r>   10.0903    0.0000 </r>
       <r>   10.2558    0.0000 </r>
       <r>   10.2558    0.0000 </r>
       <r>   12.5042    0.0000 </r>
       <r>   14.1228    0.0000 </r>
       <r>   15.6844    0.0000 </r>
       <r>   17.9813    0.0000 </r>
      </set>
      <set comment="kpoint 50">
       <r>   -5.5284    1.0000 </r>
       <r>    3.4634    1.0000 </r>
       <r>    4.4687    1.0000 </r>
       <r>    4.4687    1.0000 </r>
       <r>    7.3976    0.0000 </r>
       <r>    9.9204    0.0000 </r>
       <r>   10.4896    0.0000 </r>
       <r>   10.4896    0.0000 </r>
       <r>   12.6994    0.0000 </r>
       <r>   14.2215    0.0000 </r>
       <r>   15.9572    0.0000 </r>
       <r>   18.1135    0.0000 </r>
      </set>
      <set comment="kpoint 51">
       <r>   -5.4332    1.0000 </r>
       <r>    3.2111    1.0000 </r>
       <r>    4.3444    1.0000 </r>
       <r>    4.3444    1.0000 </r>
       <r>    7.2947    0.0000 </r>
       <r>    9.7231    0.0000 </r>
       <r>   10.7280    0.0000 </r>
       <r>   10.7280    0.0000 </r>
       <r>   12.9331    0.0000 </r>
       <r>   14.3280    0.0000 </r>
       <r>   16.2392    0.0000 </r>
       <r>   25.0329    0.0000 </r>
      </set>
      <set comment="kpoint 52">
       <r>   -5.3311    1.0000 </r>
       <r>    2.9571    1.0000 </r>
       <r>    4.2241    1.0000 </r>
       <r>    4.2241    1.0000 </r>
       <r>    7.1948    0.0000 </r>
       <r>    9.5113    0.0000 </r>
       <r>   10.9705    0.0000 </r>
       <r>   10.9705    0.0000 </r>
       <r>   13.1924    0.0000 </r>
       <r>   14.4425    0.0000 </r>
       <r>   16.5286    0.0000 </r>
       <r>   24.6406    0.0000 </r>
      </set>
      <set comment="kpoint 53">
       <r>   -5.2223    1.0000 </r>
       <r>    2.7019    1.0000 </r>
       <r>    4.1081    1.0000 </r>
       <r>    4.1081    1.0000 </r>
       <r>    7.0987    0.0000 </r>
       <r>    9.2931    0.0000 </r>
       <r>   11.2164    0.0000 </r>
       <r>   11.2164    0.0000 </r>
       <r>   13.4689    0.0000 </r>
       <r>   14.5647    0.0000 </r>
       <r>   16.8239    0.0000 </r>
       <r>   18.6020    0.0000 </r>
      </set>
      <set comment="kpoint 54">
       <r>   -5.1068    1.0000 </r>
       <r>    2.4458    1.0000 </r>
       <r>    3.9967    1.0000 </r>
       <r>    3.9967    1.0000 </r>
       <r>    7.0068    0.0000 </r>
       <r>    9.0741    0.0000 </r>
       <r>   11.4654    0.0000 </r>
       <r>   11.4654    0.0000 </r>
       <r>   13.7573    0.0000 </r>
       <r>   14.6947    0.0000 </r>
       <r>   17.1231    0.0000 </r>
       <r>   18.7672    0.0000 </r>
      </set>
      <set comment="kpoint 55">
       <r>   -4.9846    1.0000 </r>
       <r>    2.1891    1.0000 </r>
       <r>    3.8904    1.0000 </r>
       <r>    3.8904    1.0000 </r>
       <r>    6.9200    0.0000 </r>
       <r>    8.8578    0.0000 </r>
       <r>   11.7172    0.0000 </r>
       <r>   11.7172    0.0000 </r>
       <r>   14.0538    0.0000 </r>
       <r>   14.8326    0.0000 </r>
       <r>   17.4242    0.0000 </r>
       <r>   18.9314    0.0000 </r>
      </set>
      <set comment="kpoint 56">
       <r>   -4.8559    1.0000 </r>
       <r>    1.9323    1.0000 </r>
       <r>    3.7893    1.0000 </r>
       <r>    3.7893    1.0000 </r>
       <r>    6.8388    0.0000 </r>
       <r>    8.6468    0.0000 </r>
       <r>   11.9715    0.0000 </r>
       <r>   11.9715    0.0000 </r>
       <r>   14.3558    0.0000 </r>
       <r>   14.9784    0.0000 </r>
       <r>   17.7246    0.0000 </r>
       <r>   19.1119    0.0000 </r>
      </set>
      <set comment="kpoint 57">
       <r>   -4.7207    1.0000 </r>
       <r>    1.6755    1.0000 </r>
       <r>    3.6935    1.0000 </r>
       <r>    3.6935    1.0000 </r>
       <r>    6.7634    0.0000 </r>
       <r>    8.4425    0.0000 </r>
       <r>   12.2282    0.0000 </r>
       <r>   12.2282    0.0000 </r>
       <r>   14.6613    0.0000 </r>
       <r>   15.1319    0.0000 </r>
       <r>   18.0215    0.0000 </r>
       <r>   19.2184    0.0000 </r>
      </set>
      <set comment="kpoint 58">
       <r>   -4.5790    1.0000 </r>
       <r>    1.4191    1.0000 </r>
       <r>    3.6034    1.0000 </r>
       <r>    3.6034    1.0000 </r>
       <r>    6.6942    0.0000 </r>
       <r>    8.2462    0.0000 </r>
       <r>   12.4869    0.0000 </r>
       <r>   12.4869    0.0000 </r>
       <r>   14.9687    0.0000 </r>
       <r>   15.2933    0.0000 </r>
       <r>   18.3112    0.0000 </r>
       <r>   19.3161    0.0000 </r>
      </set>
      <set comment="kpoint 59">
       <r>   -4.4310    1.0000 </r>
       <r>    1.1632    1.0000 </r>
       <r>    3.5190    1.0000 </r>
       <r>    3.5190    1.0000 </r>
       <r>    6.6317    0.0000 </r>
       <r>    8.0589    0.0000 </r>
       <r>   12.7477    0.0000 </r>
       <r>   12.7477    0.0000 </r>
       <r>   15.2767    0.0000 </r>
       <r>   15.4624    0.0000 </r>
       <r>   18.5895    0.0000 </r>
       <r>   19.3596    0.0000 </r>
      </set>
      <set comment="kpoint 60">
       <r>   -4.2767    1.0000 </r>
       <r>    0.9083    1.0000 </r>
       <r>    3.4404    1.0000 </r>
       <r>    3.4404    1.0000 </r>
       <r>    6.5762    0.0000 </r>
       <r>    7.8808    0.0000 </r>
       <r>   13.0104    0.0000 </r>
       <r>   13.0104    0.0000 </r>
       <r>   15.5842    0.0000 </r>
       <r>   15.6392    0.0000 </r>
       <r>   18.8505    0.0000 </r>
       <r>   19.3402    0.0000 </r>
      </set>
      <set comment="kpoint 61">
       <r>   -4.1163    1.0000 </r>
       <r>    0.6545    1.0000 </r>
       <r>    3.3678    1.0000 </r>
       <r>    3.3678    1.0000 </r>
       <r>    6.5280    0.0000 </r>
       <r>    7.7126    0.0000 </r>
       <r>   13.2749    0.0000 </r>
       <r>   13.2749    0.0000 </r>
       <r>   15.8238    0.0000 </r>
       <r>   15.8902    0.0000 </r>
       <r>   19.1038    0.0000 </r>
       <r>   22.1880    0.0000 </r>
      </set>
      <set comment="kpoint 62">
       <r>   -3.9499    1.0000 </r>
       <r>    0.4021    1.0000 </r>
       <r>    3.3012    1.0000 </r>
       <r>    3.3012    1.0000 </r>
       <r>    6.4872    0.0000 </r>
       <r>    7.5545    0.0000 </r>
       <r>   13.5410    0.0000 </r>
       <r>   13.5410    0.0000 </r>
       <r>   16.0162    0.0000 </r>
       <r>   16.1938    0.0000 </r>
       <r>   19.1035    0.0000 </r>
       <r>   19.2879    0.0000 </r>
      </set>
      <set comment="kpoint 63">
       <r>   -3.7775    1.0000 </r>
       <r>    0.1515    1.0000 </r>
       <r>    3.2408    1.0000 </r>
       <r>    3.2408    1.0000 </r>
       <r>    6.4542    0.0000 </r>
       <r>    7.4066    0.0000 </r>
       <r>   13.8085    0.0000 </r>
       <r>   13.8085    0.0000 </r>
       <r>   16.2162    0.0000 </r>
       <r>   16.4942    0.0000 </r>
       <r>   18.9104    0.0000 </r>
       <r>   22.3237    0.0000 </r>
      </set>
      <set comment="kpoint 64">
       <r>   -3.5994    1.0000 </r>
       <r>   -0.0972    1.0000 </r>
       <r>    3.1866    1.0000 </r>
       <r>    3.1866    1.0000 </r>
       <r>    6.4292    0.0000 </r>
       <r>    7.2692    0.0000 </r>
       <r>   14.0775    0.0000 </r>
       <r>   14.0775    0.0000 </r>
       <r>   16.4239    0.0000 </r>
       <r>   16.7906    0.0000 </r>
       <r>   18.6775    0.0000 </r>
       <r>   19.5568    0.0000 </r>
      </set>
      <set comment="kpoint 65">
       <r>   -3.4156    1.0000 </r>
       <r>   -0.3436    1.0000 </r>
       <r>    3.1386    1.0000 </r>
       <r>    3.1386    1.0000 </r>
       <r>    6.4124    0.0000 </r>
       <r>    7.1423    0.0000 </r>
       <r>   14.3473    0.0000 </r>
       <r>   14.3473    0.0000 </r>
       <r>   16.6386    0.0000 </r>
       <r>   17.0822    0.0000 </r>
       <r>   18.4266    0.0000 </r>
       <r>   22.7496    0.0000 </r>
      </set>
      <set comment="kpoint 66">
       <r>   -3.2262    1.0000 </r>
       <r>   -0.5875    1.0000 </r>
       <r>    3.0969    1.0000 </r>
       <r>    3.0969    1.0000 </r>
       <r>    6.4041    0.0000 </r>
       <r>    7.0258    0.0000 </r>
       <r>   14.6178    0.0000 </r>
       <r>   14.6178    0.0000 </r>
       <r>   16.8616    0.0000 </r>
       <r>   17.3682    0.0000 </r>
       <r>   18.1623    0.0000 </r>
       <r>   19.5278    0.0000 </r>
      </set>
      <set comment="kpoint 67">
       <r>   -3.0314    1.0000 </r>
       <r>   -0.8286    1.0000 </r>
       <r>    3.0616    1.0000 </r>
       <r>    3.0616    1.0000 </r>
       <r>    6.4044    0.0000 </r>
       <r>    6.9196    0.0000 </r>
       <r>   14.8876    0.0000 </r>
       <r>   14.8876    0.0000 </r>
       <r>   17.0925    0.0000 </r>
       <r>   17.6477    0.0000 </r>
       <r>   17.8926    0.0000 </r>
       <r>   23.9038    0.0000 </r>
      </set>
      <set comment="kpoint 68">
       <r>   -2.8315    1.0000 </r>
       <r>   -1.0666    1.0000 </r>
       <r>    3.0327    1.0000 </r>
       <r>    3.0327    1.0000 </r>
       <r>    6.4134    0.0000 </r>
       <r>    6.8237    0.0000 </r>
       <r>   15.1550    0.0000 </r>
       <r>   15.1550    0.0000 </r>
       <r>   17.3351    0.0000 </r>
       <r>   17.6188    0.0000 </r>
       <r>   17.9110    0.0000 </r>
       <r>   24.4540    0.0000 </r>
      </set>
      <set comment="kpoint 69">
       <r>   -2.6265    1.0000 </r>
       <r>   -1.3013    1.0000 </r>
       <r>    3.0101    1.0000 </r>
       <r>    3.0101    1.0000 </r>
       <r>    6.4313    0.0000 </r>
       <r>    6.7380    0.0000 </r>
       <r>   15.4159    0.0000 </r>
       <r>   15.4159    0.0000 </r>
       <r>   17.5400    0.0000 </r>
       <r>   18.1356    0.0000 </r>
       <r>   24.8253    0.0000 </r>
       <r>   26.9808    0.0000 </r>
      </set>
      <set comment="kpoint 70">
       <r>   -2.4167    1.0000 </r>
       <r>   -1.5325    1.0000 </r>
       <r>    2.9940    1.0000 </r>
       <r>    2.9940    1.0000 </r>
       <r>    6.4586    0.0000 </r>
       <r>    6.6625    0.0000 </r>
       <r>   15.6607    0.0000 </r>
       <r>   15.6607    0.0000 </r>
       <r>   17.7632    0.0000 </r>
       <r>   18.4628    0.0000 </r>
       <r>   24.4438    0.0000 </r>
       <r>   25.4950    0.0000 </r>
      </set>
      <set comment="kpoint 71">
       <r>   -2.2021    1.0000 </r>
       <r>   -1.7598    1.0000 </r>
       <r>    2.9843    1.0000 </r>
       <r>    2.9843    1.0000 </r>
       <r>    6.4951    0.0000 </r>
       <r>    6.5969    0.0000 </r>
       <r>   15.8625    0.0000 </r>
       <r>   15.8626    0.0000 </r>
       <r>   18.0331    0.0000 </r>
       <r>   18.6319    0.0000 </r>
       <r>   19.0230    0.0000 </r>
       <r>   25.5319    0.0000 </r>
      </set>
      <set comment="kpoint 72">
       <r>   -1.9831    1.0000 </r>
       <r>   -1.9831    1.0000 </r>
       <r>    2.9811    1.0000 </r>
       <r>    2.9811    1.0000 </r>
       <r>    6.5412    0.0000 </r>
       <r>    6.5412    0.0000 </r>
       <r>   15.9508    0.0000 </r>
       <r>   15.9514    0.0000 </r>
       <r>   16.8079    0.0000 </r>
       <r>   18.7791    0.0000 </r>
       <r>   25.6960    0.0000 </r>
       <r>   26.8734    0.0000 </r>
      </set>
      <set comment="kpoint 73">
       <r>   -1.9831    1.0000 </r>
       <r>   -1.9831    1.0000 </r>
       <r>    2.9811    1.0000 </r>
       <r>    2.9811    1.0000 </r>
       <r>    6.5412    0.0000 </r>
       <r>    6.5412    0.0000 </r>
       <r>   15.9508    0.0000 </r>
       <r>   15.9508    0.0000 </r>
       <r>   16.8078    0.0000 </r>
       <r>   16.8078    0.0000 </r>
       <r>   18.8477    0.0000 </r>
       <r>   25.7347    0.0000 </r>
      </set>
      <set comment="kpoint 74">
       <r>   -1.9828    1.0000 </r>
       <r>   -1.9828    1.0000 </r>
       <r>    2.9784    1.0000 </r>
       <r>    2.9784    1.0000 </r>
       <r>    6.5462    0.0000 </r>
       <r>    6.5462    0.0000 </r>
       <r>   15.9428    0.0000 </r>
       <r>   15.9438    0.0000 </r>
       <r>   16.7950    0.0000 </r>
       <r>   18.3637    0.0000 </r>
       <r>   18.8867    0.0000 </r>
       <r>   25.5372    0.0000 </r>
      </set>
      <set comment="kpoint 75">
       <r>   -1.9819    1.0000 </r>
       <r>   -1.9819    1.0000 </r>
       <r>    2.9702    1.0000 </r>
       <r>    2.9702    1.0000 </r>
       <r>    6.5611    0.0000 </r>
       <r>    6.5611    0.0000 </r>
       <r>   15.9182    0.0000 </r>
       <r>   15.9205    0.0000 </r>
       <r>   16.7599    0.0000 </r>
       <r>   18.4202    0.0000 </r>
       <r>   18.9244    0.0000 </r>
       <r>   25.7829    0.0000 </r>
      </set>
      <set comment="kpoint 76">
       <r>   -1.9804    1.0000 </r>
       <r>   -1.9804    1.0000 </r>
       <r>    2.9567    1.0000 </r>
       <r>    2.9567    1.0000 </r>
       <r>    6.5860    0.0000 </r>
       <r>    6.5860    0.0000 </r>
       <r>   15.8757    0.0000 </r>
       <r>   15.8772    0.0000 </r>
       <r>   18.4193    0.0000 </r>
       <r>   18.9792    0.0000 </r>
       <r>   25.0569    0.0000 </r>
       <r>   26.9374    0.0000 </r>
      </set>
      <set comment="kpoint 77">
       <r>   -1.9783    1.0000 </r>
       <r>   -1.9783    1.0000 </r>
       <r>    2.9382    1.0000 </r>
       <r>    2.9382    1.0000 </r>
       <r>    6.6202    0.0000 </r>
       <r>    6.6202    0.0000 </r>
       <r>   15.8119    0.0000 </r>
       <r>   15.8123    0.0000 </r>
       <r>   16.6550    0.0000 </r>
       <r>   18.4920    0.0000 </r>
       <r>   19.0541    0.0000 </r>
       <r>   25.5451    0.0000 </r>
      </set>
      <set comment="kpoint 78">
       <r>   -1.9757    1.0000 </r>
       <r>   -1.9757    1.0000 </r>
       <r>    2.9151    1.0000 </r>
       <r>    2.9151    1.0000 </r>
       <r>    6.6637    0.0000 </r>
       <r>    6.6637    0.0000 </r>
       <r>   15.7269    0.0000 </r>
       <r>   15.7295    0.0000 </r>
       <r>   18.4932    0.0000 </r>
       <r>   18.7138    0.0000 </r>
       <r>   19.1940    0.0000 </r>
       <r>   26.0023    0.0000 </r>
      </set>
      <set comment="kpoint 79">
       <r>   -1.9725    1.0000 </r>
       <r>   -1.9725    1.0000 </r>
       <r>    2.8876    1.0000 </r>
       <r>    2.8876    1.0000 </r>
       <r>    6.7159    0.0000 </r>
       <r>    6.7159    0.0000 </r>
       <r>   15.6201    0.0000 </r>
       <r>   15.6203    0.0000 </r>
       <r>   16.5570    0.0000 </r>
       <r>   19.1130    0.0000 </r>
       <r>   24.6180    0.0000 </r>
       <r>   25.8917    0.0000 </r>
      </set>
      <set comment="kpoint 80">
       <r>   -1.9687    1.0000 </r>
       <r>   -1.9687    1.0000 </r>
       <r>    2.8564    1.0000 </r>
       <r>    2.8564    1.0000 </r>
       <r>    6.7764    0.0000 </r>
       <r>    6.7764    0.0000 </r>
       <r>   15.4945    0.0000 </r>
       <r>   15.4946    0.0000 </r>
       <r>   16.5204    0.0000 </r>
       <r>   18.6389    0.0000 </r>
       <r>   19.4105    0.0000 </r>
       <r>   26.2257    0.0000 </r>
      </set>
      <set comment="kpoint 81">
       <r>   -1.9645    1.0000 </r>
       <r>   -1.9645    1.0000 </r>
       <r>    2.8218    1.0000 </r>
       <r>    2.8218    1.0000 </r>
       <r>    6.8449    0.0000 </r>
       <r>    6.8449    0.0000 </r>
       <r>   15.3531    0.0000 </r>
       <r>   15.3532    0.0000 </r>
       <r>   16.4920    0.0000 </r>
       <r>   18.6343    0.0000 </r>
       <r>   24.9729    0.0000 </r>
       <r>   27.0754    0.0000 </r>
      </set>
      <set comment="kpoint 82">
       <r>   -1.9597    1.0000 </r>
       <r>   -1.9597    1.0000 </r>
       <r>    2.7844    1.0000 </r>
       <r>    2.7844    1.0000 </r>
       <r>    6.9207    0.0000 </r>
       <r>    6.9207    0.0000 </r>
       <r>   15.1994    0.0000 </r>
       <r>   15.1994    0.0000 </r>
       <r>   16.4705    0.0000 </r>
       <r>   18.7122    0.0000 </r>
       <r>   19.8058    0.0000 </r>
       <r>   25.5432    0.0000 </r>
      </set>
      <set comment="kpoint 83">
       <r>   -1.9545    1.0000 </r>
       <r>   -1.9545    1.0000 </r>
       <r>    2.7447    1.0000 </r>
       <r>    2.7447    1.0000 </r>
       <r>    7.0035    0.0000 </r>
       <r>    7.0035    0.0000 </r>
       <r>   15.0363    0.0000 </r>
       <r>   15.0363    0.0000 </r>
       <r>   16.4543    0.0000 </r>
       <r>   16.4543    0.0000 </r>
       <r>   18.6154    0.0000 </r>
       <r>   25.5529    0.0000 </r>
      </set>
      <set comment="kpoint 84">
       <r>   -1.9489    1.0000 </r>
       <r>   -1.9489    1.0000 </r>
       <r>    2.7031    1.0000 </r>
       <r>    2.7031    1.0000 </r>
       <r>    7.0927    0.0000 </r>
       <r>    7.0927    0.0000 </r>
       <r>   14.8661    0.0000 </r>
       <r>   14.8661    0.0000 </r>
       <r>   16.4420    0.0000 </r>
       <r>   18.5968    0.0000 </r>
       <r>   20.1747    0.0000 </r>
       <r>   25.4076    0.0000 </r>
      </set>
      <set comment="kpoint 85">
       <r>   -1.9429    1.0000 </r>
       <r>   -1.9429    1.0000 </r>
       <r>    2.6600    1.0000 </r>
       <r>    2.6600    1.0000 </r>
       <r>    7.1879    0.0000 </r>
       <r>    7.1879    0.0000 </r>
       <r>   14.6908    0.0000 </r>
       <r>   16.3960    0.0000 </r>
       <r>   18.5186    0.0000 </r>
       <r>   18.6461    0.0000 </r>
       <r>   20.4823    0.0000 </r>
       <r>   24.9521    0.0000 </r>
      </set>
      <set comment="kpoint 86">
       <r>   -1.9365    1.0000 </r>
       <r>   -1.9365    1.0000 </r>
       <r>    2.6160    1.0000 </r>
       <r>    2.6160    1.0000 </r>
       <r>    7.2888    0.0000 </r>
       <r>    7.2888    0.0000 </r>
       <r>   14.5117    0.0000 </r>
       <r>   16.4192    0.0000 </r>
       <r>   18.6451    0.0000 </r>
       <r>   18.7524    0.0000 </r>
       <r>   20.5837    0.0000 </r>
       <r>   24.3498    0.0000 </r>
      </set>
      <set comment="kpoint 87">
       <r>   -1.9299    1.0000 </r>
       <r>   -1.9299    1.0000 </r>
       <r>    2.5715    1.0000 </r>
       <r>    2.5715    1.0000 </r>
       <r>    7.3949    0.0000 </r>
       <r>    7.3949    0.0000 </r>
       <r>   14.3299    0.0000 </r>
       <r>   16.4179    0.0000 </r>
       <r>   18.6448    0.0000 </r>
       <r>   18.9053    0.0000 </r>
       <r>   21.1299    0.0000 </r>
       <r>   24.6242    0.0000 </r>
      </set>
      <set comment="kpoint 88">
       <r>   -1.9230    1.0000 </r>
       <r>   -1.9230    1.0000 </r>
       <r>    2.5268    1.0000 </r>
       <r>    2.5268    1.0000 </r>
       <r>    7.5059    0.0000 </r>
       <r>    7.5059    0.0000 </r>
       <r>   14.1460    0.0000 </r>
       <r>   14.1460    0.0000 </r>
       <r>   16.4173    0.0000 </r>
       <r>   18.6880    0.0000 </r>
       <r>   25.1873    0.0000 </r>
       <r>   27.6039    0.0000 </r>
      </set>
      <set comment="kpoint 89">
       <r>   -1.9159    1.0000 </r>
       <r>   -1.9159    1.0000 </r>
       <r>    2.4822    1.0000 </r>
       <r>    2.4822    1.0000 </r>
       <r>    7.6214    0.0000 </r>
       <r>    7.6214    0.0000 </r>
       <r>   13.9608    0.0000 </r>
       <r>   16.4125    0.0000 </r>
       <r>   18.6720    0.0000 </r>
       <r>   18.7578    0.0000 </r>
       <r>   21.2808    0.0000 </r>
       <r>   23.2467    0.0000 </r>
      </set>
      <set comment="kpoint 90">
       <r>   -1.9087    1.0000 </r>
       <r>   -1.9087    1.0000 </r>
       <r>    2.4381    1.0000 </r>
       <r>    2.4381    1.0000 </r>
       <r>    7.7411    0.0000 </r>
       <r>    7.7411    0.0000 </r>
       <r>   13.7748    0.0000 </r>
       <r>   16.4153    0.0000 </r>
       <r>   18.6891    0.0000 </r>
       <r>   20.5862    0.0000 </r>
       <r>   23.3745    0.0000 </r>
       <r>   29.0104    0.0000 </r>
      </set>
      <set comment="kpoint 91">
       <r>   -1.9013    1.0000 </r>
       <r>   -1.9013    1.0000 </r>
       <r>    2.3949    1.0000 </r>
       <r>    2.3949    1.0000 </r>
       <r>    7.8649    0.0000 </r>
       <r>    7.8649    0.0000 </r>
       <r>   13.5883    0.0000 </r>
       <r>   13.5883    0.0000 </r>
       <r>   16.4114    0.0000 </r>
       <r>   16.4114    0.0000 </r>
       <r>   18.7250    0.0000 </r>
       <r>   28.9059    0.0000 </r>
      </set>
      <set comment="kpoint 92">
       <r>   -1.8940    1.0000 </r>
       <r>   -1.8940    1.0000 </r>
       <r>    2.3527    1.0000 </r>
       <r>    2.3527    1.0000 </r>
       <r>    7.9922    0.0000 </r>
       <r>    7.9922    0.0000 </r>
       <r>   13.4018    0.0000 </r>
       <r>   13.4018    0.0000 </r>
       <r>   16.4106    0.0000 </r>
       <r>   16.4106    0.0000 </r>
       <r>   18.7386    0.0000 </r>
       <r>   23.8853    0.0000 </r>
      </set>
      <set comment="kpoint 93">
       <r>   -1.8866    1.0000 </r>
       <r>   -1.8866    1.0000 </r>
       <r>    2.3118    1.0000 </r>
       <r>    2.3118    1.0000 </r>
       <r>    8.1231    0.0000 </r>
       <r>    8.1231    0.0000 </r>
       <r>   13.2154    0.0000 </r>
       <r>   13.2154    0.0000 </r>
       <r>   16.4102    0.0000 </r>
       <r>   16.4102    0.0000 </r>
       <r>   18.7522    0.0000 </r>
       <r>   22.0070    0.0000 </r>
      </set>
      <set comment="kpoint 94">
       <r>   -1.8794    1.0000 </r>
       <r>   -1.8794    1.0000 </r>
       <r>    2.2725    1.0000 </r>
       <r>    2.2725    1.0000 </r>
       <r>    8.2571    0.0000 </r>
       <r>    8.2571    0.0000 </r>
       <r>   13.0295    0.0000 </r>
       <r>   13.0295    0.0000 </r>
       <r>   16.4102    0.0000 </r>
       <r>   16.4102    0.0000 </r>
       <r>   23.2943    0.0000 </r>
       <r>   28.3939    0.0000 </r>
      </set>
      <set comment="kpoint 95">
       <r>   -1.8723    1.0000 </r>
       <r>   -1.8723    1.0000 </r>
       <r>    2.2351    1.0000 </r>
       <r>    2.2351    1.0000 </r>
       <r>    8.3941    0.0000 </r>
       <r>    8.3941    0.0000 </r>
       <r>   12.8443    0.0000 </r>
       <r>   12.8443    0.0000 </r>
       <r>   16.4104    0.0000 </r>
       <r>   16.4104    0.0000 </r>
       <r>   23.4940    0.0000 </r>
       <r>   29.1751    0.0000 </r>
      </set>
      <set comment="kpoint 96">
       <r>   -1.8654    1.0000 </r>
       <r>   -1.8654    1.0000 </r>
       <r>    2.1995    1.0000 </r>
       <r>    2.1995    1.0000 </r>
       <r>    8.5339    0.0000 </r>
       <r>    8.5339    0.0000 </r>
       <r>   12.6600    0.0000 </r>
       <r>   12.6600    0.0000 </r>
       <r>   16.4108    0.0000 </r>
       <r>   16.4108    0.0000 </r>
       <r>   18.7915    0.0000 </r>
       <r>   23.1784    0.0000 </r>
      </set>
      <set comment="kpoint 97">
       <r>   -1.8587    1.0000 </r>
       <r>   -1.8587    1.0000 </r>
       <r>    2.1662    1.0000 </r>
       <r>    2.1662    1.0000 </r>
       <r>    8.6760    0.0000 </r>
       <r>    8.6760    0.0000 </r>
       <r>   12.4767    0.0000 </r>
       <r>   12.4767    0.0000 </r>
       <r>   16.4111    0.0000 </r>
       <r>   16.4111    0.0000 </r>
       <r>   22.5327    0.0000 </r>
       <r>   28.9656    0.0000 </r>
      </set>
      <set comment="kpoint 98">
       <r>   -1.8525    1.0000 </r>
       <r>   -1.8525    1.0000 </r>
       <r>    2.1352    1.0000 </r>
       <r>    2.1352    1.0000 </r>
       <r>    8.8205    0.0000 </r>
       <r>    8.8205    0.0000 </r>
       <r>   12.2950    0.0000 </r>
       <r>   16.4116    0.0000 </r>
       <r>   18.7682    0.0000 </r>
       <r>   18.8429    0.0000 </r>
       <r>   22.8967    0.0000 </r>
       <r>   23.2722    0.0000 </r>
      </set>
      <set comment="kpoint 99">
       <r>   -1.8466    1.0000 </r>
       <r>   -1.8466    1.0000 </r>
       <r>    2.1067    1.0000 </r>
       <r>    2.1067    1.0000 </r>
       <r>    8.9668    0.0000 </r>
       <r>    8.9668    0.0000 </r>
       <r>   12.1149    0.0000 </r>
       <r>   12.1149    0.0000 </r>
       <r>   16.4122    0.0000 </r>
       <r>   16.4122    0.0000 </r>
       <r>   18.8265    0.0000 </r>
       <r>   23.3264    0.0000 </r>
      </set>
      <set comment="kpoint 100">
       <r>   -1.8411    1.0000 </r>
       <r>   -1.8411    1.0000 </r>
       <r>    2.0808    1.0000 </r>
       <r>    2.0808    1.0000 </r>
       <r>    9.1147    0.0000 </r>
       <r>    9.1147    0.0000 </r>
       <r>   11.9369    0.0000 </r>
       <r>   11.9369    0.0000 </r>
       <r>   16.4128    0.0000 </r>
       <r>   16.4128    0.0000 </r>
       <r>   24.0102    0.0000 </r>
       <r>   24.7029    0.0000 </r>
      </set>
      <set comment="kpoint 101">
       <r>   -1.8362    1.0000 </r>
       <r>   -1.8362    1.0000 </r>
       <r>    2.0577    1.0000 </r>
       <r>    2.0577    1.0000 </r>
       <r>    9.2636    0.0000 </r>
       <r>    9.2636    0.0000 </r>
       <r>   11.7615    0.0000 </r>
       <r>   11.7615    0.0000 </r>
       <r>   16.4134    0.0000 </r>
       <r>   16.4134    0.0000 </r>
       <r>   24.3728    0.0000 </r>
       <r>   26.5976    0.0000 </r>
      </set>
      <set comment="kpoint 102">
       <r>   -1.8318    1.0000 </r>
       <r>   -1.8318    1.0000 </r>
       <r>    2.0374    1.0000 </r>
       <r>    2.0374    1.0000 </r>
       <r>    9.4128    0.0000 </r>
       <r>    9.4128    0.0000 </r>
       <r>   11.5893    0.0000 </r>
       <r>   11.5893    0.0000 </r>
       <r>   16.4140    0.0000 </r>
       <r>   16.4140    0.0000 </r>
       <r>   23.0957    0.0000 </r>
       <r>   25.2529    0.0000 </r>
      </set>
      <set comment="kpoint 103">
       <r>   -1.8280    1.0000 </r>
       <r>   -1.8280    1.0000 </r>
       <r>    2.0201    1.0000 </r>
       <r>    2.0201    1.0000 </r>
       <r>    9.5612    0.0000 </r>
       <r>    9.5612    0.0000 </r>
       <r>   11.4216    0.0000 </r>
       <r>   11.4216    0.0000 </r>
       <r>   16.4145    0.0000 </r>
       <r>   16.4145    0.0000 </r>
       <r>   24.9689    0.0000 </r>
       <r>   29.0728    0.0000 </r>
      </set>
      <set comment="kpoint 104">
       <r>   -1.8248    1.0000 </r>
       <r>   -1.8248    1.0000 </r>
       <r>    2.0058    1.0000 </r>
       <r>    2.0058    1.0000 </r>
       <r>    9.7066    0.0000 </r>
       <r>    9.7066    0.0000 </r>
       <r>   11.2602    0.0000 </r>
       <r>   11.2602    0.0000 </r>
       <r>   16.4149    0.0000 </r>
       <r>   16.4149    0.0000 </r>
       <r>   24.6281    0.0000 </r>
       <r>   25.2315    0.0000 </r>
      </set>
      <set comment="kpoint 105">
       <r>   -1.8223    1.0000 </r>
       <r>   -1.8223    1.0000 </r>
       <r>    1.9946    1.0000 </r>
       <r>    1.9946    1.0000 </r>
       <r>    9.8453    0.0000 </r>
       <r>    9.8453    0.0000 </r>
       <r>   11.1093    0.0000 </r>
       <r>   11.1093    0.0000 </r>
       <r>   16.4153    0.0000 </r>
       <r>   16.4153    0.0000 </r>
       <r>   18.8720    0.0000 </r>
       <r>   25.0629    0.0000 </r>
      </set>
      <set comment="kpoint 106">
       <r>   -1.8205    1.0000 </r>
       <r>   -1.8205    1.0000 </r>
       <r>    1.9866    1.0000 </r>
       <r>    1.9866    1.0000 </r>
       <r>    9.9695    0.0000 </r>
       <r>    9.9695    0.0000 </r>
       <r>   10.9763    0.0000 </r>
       <r>   10.9763    0.0000 </r>
       <r>   16.4155    0.0000 </r>
       <r>   16.4155    0.0000 </r>
       <r>   18.8754    0.0000 </r>
       <r>   24.4057    0.0000 </r>
      </set>
      <set comment="kpoint 107">
       <r>   -1.8194    1.0000 </r>
       <r>   -1.8194    1.0000 </r>
       <r>    1.9818    1.0000 </r>
       <r>    1.9818    1.0000 </r>
       <r>   10.0631    0.0000 </r>
       <r>   10.0631    0.0000 </r>
       <r>   10.8773    0.0000 </r>
       <r>   10.8773    0.0000 </r>
       <r>   16.4157    0.0000 </r>
       <r>   16.4157    0.0000 </r>
       <r>   24.4628    0.0000 </r>
       <r>   25.5058    0.0000 </r>
      </set>
      <set comment="kpoint 108">
       <r>   -1.8190    1.0000 </r>
       <r>   -1.8190    1.0000 </r>
       <r>    1.9802    1.0000 </r>
       <r>    1.9802    1.0000 </r>
       <r>   10.0999    0.0000 </r>
       <r>   10.0999    0.0000 </r>
       <r>   10.8387    0.0000 </r>
       <r>   10.8387    0.0000 </r>
       <r>   16.4158    0.0000 </r>
       <r>   16.4158    0.0000 </r>
       <r>   18.8782    0.0000 </r>
       <r>   24.7332    0.0000 </r>
      </set>
      <set comment="kpoint 109">
       <r>   -1.8190    1.0000 </r>
       <r>   -1.8190    1.0000 </r>
       <r>    1.9802    1.0000 </r>
       <r>    1.9802    1.0000 </r>
       <r>   10.0999    0.0000 </r>
       <r>   10.0999    0.0000 </r>
       <r>   10.8387    0.0000 </r>
       <r>   10.8387    0.0000 </r>
       <r>   16.4158    0.0000 </r>
       <r>   16.4158    0.0000 </r>
       <r>   22.5093    0.0000 </r>
       <r>   24.7101    0.0000 </r>
      </set>
      <set comment="kpoint 110">
       <r>   -1.8514    1.0000 </r>
       <r>   -1.7870    1.0000 </r>
       <r>    1.9558    1.0000 </r>
       <r>    2.0062    1.0000 </r>
       <r>   10.0570    0.0000 </r>
       <r>   10.1214    0.0000 </r>
       <r>   10.8306    0.0000 </r>
       <r>   10.8702    0.0000 </r>
       <r>   16.3545    0.0000 </r>
       <r>   16.4736    0.0000 </r>
       <r>   18.8449    0.0000 </r>
       <r>   24.5093    0.0000 </r>
      </set>
      <set comment="kpoint 111">
       <r>   -1.8829    1.0000 </r>
       <r>   -1.7564    1.0000 </r>
       <r>    1.9319    1.0000 </r>
       <r>    2.0348    1.0000 </r>
       <r>    9.9820    0.0000 </r>
       <r>   10.1369    0.0000 </r>
       <r>   10.8567    0.0000 </r>
       <r>   10.9090    0.0000 </r>
       <r>   16.2911    0.0000 </r>
       <r>   16.5262    0.0000 </r>
       <r>   18.9256    0.0000 </r>
       <r>   24.7724    0.0000 </r>
      </set>
      <set comment="kpoint 112">
       <r>   -1.9134    1.0000 </r>
       <r>   -1.7274    1.0000 </r>
       <r>    1.9087    1.0000 </r>
       <r>    2.0660    1.0000 </r>
       <r>    9.8850    0.0000 </r>
       <r>   10.1469    0.0000 </r>
       <r>   10.9071    0.0000 </r>
       <r>   10.9547    0.0000 </r>
       <r>   16.2258    0.0000 </r>
       <r>   16.5725    0.0000 </r>
       <r>   24.4421    0.0000 </r>
       <r>   25.3971    0.0000 </r>
      </set>
      <set comment="kpoint 113">
       <r>   -1.9430    1.0000 </r>
       <r>   -1.7000    1.0000 </r>
       <r>    1.8861    1.0000 </r>
       <r>    2.0996    1.0000 </r>
       <r>    9.7746    0.0000 </r>
       <r>   10.1522    0.0000 </r>
       <r>   10.9732    0.0000 </r>
       <r>   11.0064    0.0000 </r>
       <r>   16.1588    0.0000 </r>
       <r>   16.6114    0.0000 </r>
       <r>   22.3567    0.0000 </r>
       <r>   24.7984    0.0000 </r>
      </set>
      <set comment="kpoint 114">
       <r>   -1.9717    1.0000 </r>
       <r>   -1.6741    1.0000 </r>
       <r>    1.8642    1.0000 </r>
       <r>    2.1357    1.0000 </r>
       <r>    9.6565    0.0000 </r>
       <r>   10.1536    0.0000 </r>
       <r>   11.0493    0.0000 </r>
       <r>   11.0635    0.0000 </r>
       <r>   16.0908    0.0000 </r>
       <r>   22.1863    0.0000 </r>
       <r>   24.1226    0.0000 </r>
       <r>   35.4021    0.0000 </r>
      </set>
      <set comment="kpoint 115">
       <r>   -1.9995    1.0000 </r>
       <r>   -1.6496    1.0000 </r>
       <r>    1.8429    1.0000 </r>
       <r>    2.1741    1.0000 </r>
       <r>    9.5343    0.0000 </r>
       <r>   10.1518    0.0000 </r>
       <r>   11.1250    0.0000 </r>
       <r>   11.1320    0.0000 </r>
       <r>   16.0199    0.0000 </r>
       <r>   16.6617    0.0000 </r>
       <r>   24.1978    0.0000 </r>
       <r>   24.9707    0.0000 </r>
      </set>
      <set comment="kpoint 116">
       <r>   -2.0264    1.0000 </r>
       <r>   -1.6267    1.0000 </r>
       <r>    1.8222    1.0000 </r>
       <r>    2.2148    1.0000 </r>
       <r>    9.4099    0.0000 </r>
       <r>   10.1476    0.0000 </r>
       <r>   11.1903    0.0000 </r>
       <r>   11.2194    0.0000 </r>
       <r>   15.9483    0.0000 </r>
       <r>   16.6709    0.0000 </r>
       <r>   22.6805    0.0000 </r>
       <r>   24.4175    0.0000 </r>
      </set>
      <set comment="kpoint 117">
       <r>   -2.0523    1.0000 </r>
       <r>   -1.6052    1.0000 </r>
       <r>    1.8022    1.0000 </r>
       <r>    2.2577    1.0000 </r>
       <r>    9.2847    0.0000 </r>
       <r>   10.1414    0.0000 </r>
       <r>   11.2589    0.0000 </r>
       <r>   11.3102    0.0000 </r>
       <r>   15.8755    0.0000 </r>
       <r>   16.6683    0.0000 </r>
       <r>   24.4198    0.0000 </r>
       <r>   33.6511    0.0000 </r>
      </set>
      <set comment="kpoint 118">
       <r>   -2.0772    1.0000 </r>
       <r>   -1.5851    1.0000 </r>
       <r>    1.7828    1.0000 </r>
       <r>    2.3026    1.0000 </r>
       <r>    9.1595    0.0000 </r>
       <r>   10.1339    0.0000 </r>
       <r>   11.3301    0.0000 </r>
       <r>   11.4036    0.0000 </r>
       <r>   15.8014    0.0000 </r>
       <r>   16.6534    0.0000 </r>
       <r>   24.3024    0.0000 </r>
       <r>   24.5270    0.0000 </r>
      </set>
      <set comment="kpoint 119">
       <r>   -2.1013    1.0000 </r>
       <r>   -1.5664    1.0000 </r>
       <r>    1.7642    1.0000 </r>
       <r>    2.3493    1.0000 </r>
       <r>    9.0348    0.0000 </r>
       <r>   10.1254    0.0000 </r>
       <r>   11.4704    0.0000 </r>
       <r>   15.7269    0.0000 </r>
       <r>   16.6615    0.0000 </r>
       <r>   19.3880    0.0000 </r>
       <r>   22.2774    0.0000 </r>
       <r>   24.7556    0.0000 </r>
      </set>
      <set comment="kpoint 120">
       <r>   -2.1244    1.0000 </r>
       <r>   -1.5490    1.0000 </r>
       <r>    1.7462    1.0000 </r>
       <r>    2.3979    1.0000 </r>
       <r>    8.9112    0.0000 </r>
       <r>   10.1161    0.0000 </r>
       <r>   11.4790    0.0000 </r>
       <r>   11.5965    0.0000 </r>
       <r>   15.6500    0.0000 </r>
       <r>   16.5876    0.0000 </r>
       <r>   23.9477    0.0000 </r>
       <r>   28.9684    0.0000 </r>
      </set>
      <set comment="kpoint 121">
       <r>   -2.1466    1.0000 </r>
       <r>   -1.5329    1.0000 </r>
       <r>    1.7289    1.0000 </r>
       <r>    2.4480    1.0000 </r>
       <r>    8.7890    0.0000 </r>
       <r>   10.1063    0.0000 </r>
       <r>   11.5561    0.0000 </r>
       <r>   11.6954    0.0000 </r>
       <r>   15.5728    0.0000 </r>
       <r>   16.5379    0.0000 </r>
       <r>   23.5359    0.0000 </r>
       <r>   24.5748    0.0000 </r>
      </set>
      <set comment="kpoint 122">
       <r>   -2.1678    1.0000 </r>
       <r>   -1.5179    1.0000 </r>
       <r>    1.7123    1.0000 </r>
       <r>    2.4996    1.0000 </r>
       <r>    8.6685    0.0000 </r>
       <r>   10.0963    0.0000 </r>
       <r>   11.6346    0.0000 </r>
       <r>   11.7956    0.0000 </r>
       <r>   15.4947    0.0000 </r>
       <r>   16.4785    0.0000 </r>
       <r>   18.6930    0.0000 </r>
       <r>   23.4446    0.0000 </r>
      </set>
      <set comment="kpoint 123">
       <r>   -2.1882    1.0000 </r>
       <r>   -1.5042    1.0000 </r>
       <r>    1.6963    1.0000 </r>
       <r>    2.5523    1.0000 </r>
       <r>    8.5499    0.0000 </r>
       <r>   10.0862    0.0000 </r>
       <r>   11.7144    0.0000 </r>
       <r>   11.8970    0.0000 </r>
       <r>   15.4157    0.0000 </r>
       <r>   16.4104    0.0000 </r>
       <r>   18.7447    0.0000 </r>
       <r>   23.3330    0.0000 </r>
      </set>
      <set comment="kpoint 124">
       <r>   -2.2075    1.0000 </r>
       <r>   -1.4915    1.0000 </r>
       <r>    1.6811    1.0000 </r>
       <r>    2.6061    1.0000 </r>
       <r>    8.4335    0.0000 </r>
       <r>   10.0760    0.0000 </r>
       <r>   11.7953    0.0000 </r>
       <r>   11.9995    0.0000 </r>
       <r>   15.3359    0.0000 </r>
       <r>   16.3348    0.0000 </r>
       <r>   18.8051    0.0000 </r>
       <r>   19.9742    0.0000 </r>
      </set>
      <set comment="kpoint 125">
       <r>   -2.2260    1.0000 </r>
       <r>   -1.4799    1.0000 </r>
       <r>    1.6666    1.0000 </r>
       <r>    2.6607    1.0000 </r>
       <r>    8.3195    0.0000 </r>
       <r>   10.0660    0.0000 </r>
       <r>   11.8771    0.0000 </r>
       <r>   12.1029    0.0000 </r>
       <r>   15.2553    0.0000 </r>
       <r>   16.2529    0.0000 </r>
       <r>   19.8659    0.0000 </r>
       <r>   25.3049    0.0000 </r>
      </set>
      <set comment="kpoint 126">
       <r>   -2.2435    1.0000 </r>
       <r>   -1.4692    1.0000 </r>
       <r>    1.6528    1.0000 </r>
       <r>    2.7159    1.0000 </r>
       <r>    8.2083    0.0000 </r>
       <r>   10.0562    0.0000 </r>
       <r>   11.9598    0.0000 </r>
       <r>   12.2074    0.0000 </r>
       <r>   15.1741    0.0000 </r>
       <r>   16.1655    0.0000 </r>
       <r>   23.2770    0.0000 </r>
       <r>   24.7495    0.0000 </r>
      </set>
      <set comment="kpoint 127">
       <r>   -2.2600    1.0000 </r>
       <r>   -1.4595    1.0000 </r>
       <r>    1.6398    1.0000 </r>
       <r>    2.7714    1.0000 </r>
       <r>    8.0999    0.0000 </r>
       <r>   10.0467    0.0000 </r>
       <r>   12.0822    0.0000 </r>
       <r>   15.0899    0.0000 </r>
       <r>   16.0756    0.0000 </r>
       <r>   19.5191    0.0000 </r>
       <r>   22.2180    0.0000 </r>
       <r>   28.1252    0.0000 </r>
      </set>
      <set comment="kpoint 128">
       <r>   -2.2756    1.0000 </r>
       <r>   -1.4507    1.0000 </r>
       <r>    1.6274    1.0000 </r>
       <r>    2.8268    1.0000 </r>
       <r>    7.9948    0.0000 </r>
       <r>   10.0375    0.0000 </r>
       <r>   12.1272    0.0000 </r>
       <r>   12.4188    0.0000 </r>
       <r>   15.0098    0.0000 </r>
       <r>   15.9775    0.0000 </r>
       <r>   20.0504    0.0000 </r>
       <r>   22.5057    0.0000 </r>
      </set>
      <set comment="kpoint 129">
       <r>   -2.2903    1.0000 </r>
       <r>   -1.4426    1.0000 </r>
       <r>    1.6158    1.0000 </r>
       <r>    2.8821    1.0000 </r>
       <r>    7.8931    0.0000 </r>
       <r>   10.0287    0.0000 </r>
       <r>   12.2116    0.0000 </r>
       <r>   12.5256    0.0000 </r>
       <r>   14.9268    0.0000 </r>
       <r>   15.8781    0.0000 </r>
       <r>   19.1942    0.0000 </r>
       <r>   20.7185    0.0000 </r>
      </set>
      <set comment="kpoint 130">
       <r>   -2.3040    1.0000 </r>
       <r>   -1.4354    1.0000 </r>
       <r>    1.6049    1.0000 </r>
       <r>    2.9366    1.0000 </r>
       <r>    7.7952    0.0000 </r>
       <r>   10.0203    0.0000 </r>
       <r>   12.2965    0.0000 </r>
       <r>   12.6332    0.0000 </r>
       <r>   14.8435    0.0000 </r>
       <r>   15.7761    0.0000 </r>
       <r>   19.2810    0.0000 </r>
       <r>   20.4628    0.0000 </r>
      </set>
      <set comment="kpoint 131">
       <r>   -2.3168    1.0000 </r>
       <r>   -1.4289    1.0000 </r>
       <r>    1.5948    1.0000 </r>
       <r>    2.9903    1.0000 </r>
       <r>    7.7014    0.0000 </r>
       <r>   10.0124    0.0000 </r>
       <r>   12.3816    0.0000 </r>
       <r>   12.7414    0.0000 </r>
       <r>   14.7599    0.0000 </r>
       <r>   15.6719    0.0000 </r>
       <r>   19.3725    0.0000 </r>
       <r>   20.5946    0.0000 </r>
      </set>
      <set comment="kpoint 132">
       <r>   -2.3286    1.0000 </r>
       <r>   -1.4230    1.0000 </r>
       <r>    1.5854    1.0000 </r>
       <r>    3.0426    1.0000 </r>
       <r>    7.6121    0.0000 </r>
       <r>   10.0050    0.0000 </r>
       <r>   12.4670    0.0000 </r>
       <r>   12.8503    0.0000 </r>
       <r>   14.6761    0.0000 </r>
       <r>   15.5658    0.0000 </r>
       <r>   20.1251    0.0000 </r>
       <r>   21.4156    0.0000 </r>
      </set>
      <set comment="kpoint 133">
       <r>   -2.3395    1.0000 </r>
       <r>   -1.4178    1.0000 </r>
       <r>    1.5767    1.0000 </r>
       <r>    3.0931    1.0000 </r>
       <r>    7.5275    0.0000 </r>
       <r>    9.9981    0.0000 </r>
       <r>   12.5523    0.0000 </r>
       <r>   12.9597    0.0000 </r>
       <r>   14.5921    0.0000 </r>
       <r>   15.4580    0.0000 </r>
       <r>   19.5709    0.0000 </r>
       <r>   22.1340    0.0000 </r>
      </set>
      <set comment="kpoint 134">
       <r>   -2.3495    1.0000 </r>
       <r>   -1.4132    1.0000 </r>
       <r>    1.5688    1.0000 </r>
       <r>    3.1415    1.0000 </r>
       <r>    7.4483    0.0000 </r>
       <r>    9.9917    0.0000 </r>
       <r>   12.6374    0.0000 </r>
       <r>   13.0696    0.0000 </r>
       <r>   14.5082    0.0000 </r>
       <r>   15.3490    0.0000 </r>
       <r>   19.6777    0.0000 </r>
       <r>   21.8479    0.0000 </r>
      </set>
      <set comment="kpoint 135">
       <r>   -2.3585    1.0000 </r>
       <r>   -1.4091    1.0000 </r>
       <r>    1.5616    1.0000 </r>
       <r>    3.1873    1.0000 </r>
       <r>    7.3746    0.0000 </r>
       <r>    9.9859    0.0000 </r>
       <r>   12.7955    0.0000 </r>
       <r>   14.4024    0.0000 </r>
       <r>   15.2337    0.0000 </r>
       <r>   21.5097    0.0000 </r>
       <r>   21.9993    0.0000 </r>
       <r>   25.9241    0.0000 </r>
      </set>
      <set comment="kpoint 136">
       <r>   -2.3665    1.0000 </r>
       <r>   -1.4055    1.0000 </r>
       <r>    1.5552    1.0000 </r>
       <r>    3.2300    1.0000 </r>
       <r>    7.3070    0.0000 </r>
       <r>    9.9807    0.0000 </r>
       <r>   12.8706    0.0000 </r>
       <r>   14.3362    0.0000 </r>
       <r>   15.1264    0.0000 </r>
       <r>   20.1385    0.0000 </r>
       <r>   21.2263    0.0000 </r>
       <r>   21.9586    0.0000 </r>
      </set>
      <set comment="kpoint 137">
       <r>   -2.3736    1.0000 </r>
       <r>   -1.4025    1.0000 </r>
       <r>    1.5495    1.0000 </r>
       <r>    3.2691    1.0000 </r>
       <r>    7.2459    0.0000 </r>
       <r>    9.9761    0.0000 </r>
       <r>   12.8957    0.0000 </r>
       <r>   14.2542    0.0000 </r>
       <r>   15.0033    0.0000 </r>
       <r>   20.2008    0.0000 </r>
       <r>   21.2446    0.0000 </r>
       <r>   21.8267    0.0000 </r>
      </set>
      <set comment="kpoint 138">
       <r>   -2.3798    1.0000 </r>
       <r>   -1.3999    1.0000 </r>
       <r>    1.5446    1.0000 </r>
       <r>    3.3043    1.0000 </r>
       <r>    7.1918    0.0000 </r>
       <r>    9.9720    0.0000 </r>
       <r>   12.9709    0.0000 </r>
       <r>   13.5123    0.0000 </r>
       <r>   14.1788    0.0000 </r>
       <r>   14.9057    0.0000 </r>
       <r>   21.1978    0.0000 </r>
       <r>   27.2802    0.0000 </r>
      </set>
      <set comment="kpoint 139">
       <r>   -2.3850    1.0000 </r>
       <r>   -1.3977    1.0000 </r>
       <r>    1.5405    1.0000 </r>
       <r>    3.3349    1.0000 </r>
       <r>    7.1452    0.0000 </r>
       <r>    9.9686    0.0000 </r>
       <r>   13.0498    0.0000 </r>
       <r>   13.6228    0.0000 </r>
       <r>   14.1006    0.0000 </r>
       <r>   14.7945    0.0000 </r>
       <r>   20.4628    0.0000 </r>
       <r>   21.2256    0.0000 </r>
      </set>
      <set comment="kpoint 140">
       <r>   -2.3893    1.0000 </r>
       <r>   -1.3960    1.0000 </r>
       <r>    1.5370    1.0000 </r>
       <r>    3.3607    1.0000 </r>
       <r>    7.1064    0.0000 </r>
       <r>    9.9658    0.0000 </r>
       <r>   13.1439    0.0000 </r>
       <r>   13.8443    0.0000 </r>
       <r>   14.6514    0.0000 </r>
       <r>   20.8355    0.0000 </r>
       <r>   21.4972    0.0000 </r>
       <r>   26.2137    0.0000 </r>
      </set>
      <set comment="kpoint 141">
       <r>   -2.3926    1.0000 </r>
       <r>   -1.3946    1.0000 </r>
       <r>    1.5344    1.0000 </r>
       <r>    3.3812    1.0000 </r>
       <r>    7.0758    0.0000 </r>
       <r>    9.9636    0.0000 </r>
       <r>   13.1929    0.0000 </r>
       <r>   13.8404    0.0000 </r>
       <r>   13.9586    0.0000 </r>
       <r>   14.5758    0.0000 </r>
       <r>   20.4340    0.0000 </r>
       <r>   25.8614    0.0000 </r>
      </set>
      <set comment="kpoint 142">
       <r>   -2.3950    1.0000 </r>
       <r>   -1.3937    1.0000 </r>
       <r>    1.5325    1.0000 </r>
       <r>    3.3961    1.0000 </r>
       <r>    7.0537    0.0000 </r>
       <r>    9.9620    0.0000 </r>
       <r>   13.2563    0.0000 </r>
       <r>   13.9091    0.0000 </r>
       <r>   14.4594    0.0000 </r>
       <r>   20.7089    0.0000 </r>
       <r>   21.4595    0.0000 </r>
       <r>   27.7124    0.0000 </r>
      </set>
      <set comment="kpoint 143">
       <r>   -2.3964    1.0000 </r>
       <r>   -1.3931    1.0000 </r>
       <r>    1.5314    1.0000 </r>
       <r>    3.4051    1.0000 </r>
       <r>    7.0403    0.0000 </r>
       <r>    9.9610    0.0000 </r>
       <r>   13.2905    0.0000 </r>
       <r>   13.8632    0.0000 </r>
       <r>   14.2954    0.0000 </r>
       <r>   20.8649    0.0000 </r>
       <r>   21.6141    0.0000 </r>
       <r>   26.0289    0.0000 </r>
      </set>
      <set comment="kpoint 144">
       <r>   -2.3969    1.0000 </r>
       <r>   -1.3929    1.0000 </r>
       <r>    1.5310    1.0000 </r>
       <r>    3.4081    1.0000 </r>
       <r>    7.0358    0.0000 </r>
       <r>    9.9607    0.0000 </r>
       <r>   13.3049    0.0000 </r>
       <r>   13.8471    0.0000 </r>
       <r>   14.0751    0.0000 </r>
       <r>   14.3403    0.0000 </r>
       <r>   20.6195    0.0000 </r>
       <r>   20.8612    0.0000 </r>
      </set>
      <set comment="kpoint 145">
       <r>   -2.3969    1.0000 </r>
       <r>   -1.3929    1.0000 </r>
       <r>    1.5310    1.0000 </r>
       <r>    3.4081    1.0000 </r>
       <r>    7.0358    0.0000 </r>
       <r>    9.9607    0.0000 </r>
       <r>   13.3049    0.0000 </r>
       <r>   13.8471    0.0000 </r>
       <r>   14.0751    0.0000 </r>
       <r>   14.3403    0.0000 </r>
       <r>   20.6025    0.0000 </r>
       <r>   21.3640    0.0000 </r>
      </set>
      <set comment="kpoint 146">
       <r>   -2.4993    1.0000 </r>
       <r>   -1.2878    1.0000 </r>
       <r>    1.4680    1.0000 </r>
       <r>    3.4817    1.0000 </r>
       <r>    7.1212    0.0000 </r>
       <r>   10.3949    0.0000 </r>
       <r>   13.0828    0.0000 </r>
       <r>   13.8626    0.0000 </r>
       <r>   14.0825    0.0000 </r>
       <r>   20.9931    0.0000 </r>
       <r>   21.4363    0.0000 </r>
       <r>   28.1490    0.0000 </r>
      </set>
      <set comment="kpoint 147">
       <r>   -2.6147    1.0000 </r>
       <r>   -1.1742    1.0000 </r>
       <r>    1.4292    1.0000 </r>
       <r>    3.5602    1.0000 </r>
       <r>    7.2124    0.0000 </r>
       <r>   10.8330    0.0000 </r>
       <r>   12.7840    0.0000 </r>
       <r>   13.3289    0.0000 </r>
       <r>   13.7849    0.0000 </r>
       <r>   20.6712    0.0000 </r>
       <r>   21.2966    0.0000 </r>
       <r>   22.4592    0.0000 </r>
      </set>
      <set comment="kpoint 148">
       <r>   -2.7418    1.0000 </r>
       <r>   -1.0521    1.0000 </r>
       <r>    1.4142    1.0000 </r>
       <r>    3.6436    1.0000 </r>
       <r>    7.3091    0.0000 </r>
       <r>   11.2669    0.0000 </r>
       <r>   12.5315    0.0000 </r>
       <r>   13.0896    0.0000 </r>
       <r>   13.4507    0.0000 </r>
       <r>   13.6796    0.0000 </r>
       <r>   20.4686    0.0000 </r>
       <r>   21.2593    0.0000 </r>
      </set>
      <set comment="kpoint 149">
       <r>   -2.8792    1.0000 </r>
       <r>   -0.9216    1.0000 </r>
       <r>    1.4221    1.0000 </r>
       <r>    3.7313    1.0000 </r>
       <r>    7.4109    0.0000 </r>
       <r>   11.6740    0.0000 </r>
       <r>   12.2852    0.0000 </r>
       <r>   12.8956    0.0000 </r>
       <r>   13.2513    0.0000 </r>
       <r>   13.4762    0.0000 </r>
       <r>   20.2644    0.0000 </r>
       <r>   21.0313    0.0000 </r>
      </set>
      <set comment="kpoint 150">
       <r>   -3.0249    1.0000 </r>
       <r>   -0.7827    1.0000 </r>
       <r>    1.4513    1.0000 </r>
       <r>    3.8231    1.0000 </r>
       <r>    7.5171    0.0000 </r>
       <r>   11.9732    0.0000 </r>
       <r>   12.0462    0.0000 </r>
       <r>   12.9037    0.0000 </r>
       <r>   13.2239    0.0000 </r>
       <r>   19.9587    0.0000 </r>
       <r>   20.6443    0.0000 </r>
       <r>   22.3542    0.0000 </r>
      </set>
      <set comment="kpoint 151">
       <r>   -3.1773    1.0000 </r>
       <r>   -0.6354    1.0000 </r>
       <r>    1.5004    1.0000 </r>
       <r>    3.9186    1.0000 </r>
       <r>    7.6274    0.0000 </r>
       <r>   11.8119    0.0000 </r>
       <r>   12.0157    0.0000 </r>
       <r>   12.8707    0.0000 </r>
       <r>   13.0177    0.0000 </r>
       <r>   13.0982    0.0000 </r>
       <r>   20.2693    0.0000 </r>
       <r>   22.1033    0.0000 </r>
      </set>
      <set comment="kpoint 152">
       <r>   -3.3344    1.0000 </r>
       <r>   -0.4799    1.0000 </r>
       <r>    1.5677    1.0000 </r>
       <r>    4.0173    1.0000 </r>
       <r>    7.7408    0.0000 </r>
       <r>   11.5854    0.0000 </r>
       <r>   11.8787    0.0000 </r>
       <r>   12.6927    0.0000 </r>
       <r>   12.9329    0.0000 </r>
       <r>   19.5138    0.0000 </r>
       <r>   20.1392    0.0000 </r>
       <r>   22.5809    0.0000 </r>
      </set>
      <set comment="kpoint 153">
       <r>   -3.4946    1.0000 </r>
       <r>   -0.3161    1.0000 </r>
       <r>    1.6518    1.0000 </r>
       <r>    4.1188    1.0000 </r>
       <r>    7.8566    0.0000 </r>
       <r>   11.3660    0.0000 </r>
       <r>   11.6909    0.0000 </r>
       <r>   12.5207    0.0000 </r>
       <r>   12.7628    0.0000 </r>
       <r>   19.5722    0.0000 </r>
       <r>   22.7486    0.0000 </r>
       <r>   24.7151    0.0000 </r>
      </set>
      <set comment="kpoint 154">
       <r>   -3.6562    1.0000 </r>
       <r>   -0.1441    1.0000 </r>
       <r>    1.7510    1.0000 </r>
       <r>    4.2225    1.0000 </r>
       <r>    7.9738    0.0000 </r>
       <r>   11.1538    0.0000 </r>
       <r>   11.4912    0.0000 </r>
       <r>   12.3596    0.0000 </r>
       <r>   12.6130    0.0000 </r>
       <r>   19.1159    0.0000 </r>
       <r>   19.9296    0.0000 </r>
       <r>   32.6157    0.0000 </r>
      </set>
      <set comment="kpoint 155">
       <r>   -3.8179    1.0000 </r>
       <r>    0.0360    1.0000 </r>
       <r>    1.8642    1.0000 </r>
       <r>    4.3278    1.0000 </r>
       <r>    8.0912    0.0000 </r>
       <r>   10.9489    0.0000 </r>
       <r>   11.2908    0.0000 </r>
       <r>   12.2090    0.0000 </r>
       <r>   12.4758    0.0000 </r>
       <r>   18.9923    0.0000 </r>
       <r>   19.7609    0.0000 </r>
       <r>   23.3513    0.0000 </r>
      </set>
      <set comment="kpoint 156">
       <r>   -3.9784    1.0000 </r>
       <r>    0.2241    1.0000 </r>
       <r>    1.9899    1.0000 </r>
       <r>    4.4340    1.0000 </r>
       <r>    8.2073    0.0000 </r>
       <r>   10.7514    0.0000 </r>
       <r>   11.0936    0.0000 </r>
       <r>   12.0701    0.0000 </r>
       <r>   12.3521    0.0000 </r>
       <r>   15.1955    0.0000 </r>
       <r>   18.6623    0.0000 </r>
       <r>   22.9709    0.0000 </r>
      </set>
      <set comment="kpoint 157">
       <r>   -4.1369    1.0000 </r>
       <r>    0.4201    1.0000 </r>
       <r>    2.1272    1.0000 </r>
       <r>    4.5405    1.0000 </r>
       <r>    8.3206    0.0000 </r>
       <r>   10.5615    0.0000 </r>
       <r>   10.9016    0.0000 </r>
       <r>   11.9443    0.0000 </r>
       <r>   12.2422    0.0000 </r>
       <r>   15.6064    0.0000 </r>
       <r>   18.5392    0.0000 </r>
       <r>   19.2386    0.0000 </r>
      </set>
      <set comment="kpoint 158">
       <r>   -4.2923    1.0000 </r>
       <r>    0.6240    1.0000 </r>
       <r>    2.2751    1.0000 </r>
       <r>    4.6466    1.0000 </r>
       <r>    8.4290    0.0000 </r>
       <r>   10.3792    0.0000 </r>
       <r>   10.7156    0.0000 </r>
       <r>   11.8327    0.0000 </r>
       <r>   12.1474    0.0000 </r>
       <r>   15.9684    0.0000 </r>
       <r>   18.1539    0.0000 </r>
       <r>   22.2437    0.0000 </r>
      </set>
      <set comment="kpoint 159">
       <r>   -4.4439    1.0000 </r>
       <r>    0.8356    1.0000 </r>
       <r>    2.4325    1.0000 </r>
       <r>    4.7515    1.0000 </r>
       <r>    8.5304    0.0000 </r>
       <r>   10.2047    0.0000 </r>
       <r>   10.5361    0.0000 </r>
       <r>   11.7366    0.0000 </r>
       <r>   12.0680    0.0000 </r>
       <r>   16.2578    0.0000 </r>
       <r>   17.7503    0.0000 </r>
       <r>   21.6792    0.0000 </r>
      </set>
      <set comment="kpoint 160">
       <r>   -4.5911    1.0000 </r>
       <r>    1.0548    1.0000 </r>
       <r>    2.5986    1.0000 </r>
       <r>    4.8544    1.0000 </r>
       <r>    8.6228    0.0000 </r>
       <r>   10.0380    0.0000 </r>
       <r>   10.3634    0.0000 </r>
       <r>   11.6573    0.0000 </r>
       <r>   12.0049    0.0000 </r>
       <r>   16.4534    0.0000 </r>
       <r>   19.1329    0.0000 </r>
       <r>   23.8838    0.0000 </r>
      </set>
      <set comment="kpoint 161">
       <r>   -4.7333    1.0000 </r>
       <r>    1.2815    1.0000 </r>
       <r>    2.7726    1.0000 </r>
       <r>    4.9545    1.0000 </r>
       <r>    8.7040    0.0000 </r>
       <r>    9.8791    0.0000 </r>
       <r>   10.1977    0.0000 </r>
       <r>   11.6001    0.0000 </r>
       <r>   16.5738    0.0000 </r>
       <r>   17.4634    0.0000 </r>
       <r>   24.6661    0.0000 </r>
       <r>   33.2886    0.0000 </r>
      </set>
      <set comment="kpoint 162">
       <r>   -4.8701    1.0000 </r>
       <r>    1.5155    1.0000 </r>
       <r>    2.9536    1.0000 </r>
       <r>    5.0510    1.0000 </r>
       <r>    8.7720    0.0000 </r>
       <r>    9.7281    0.0000 </r>
       <r>   10.0389    0.0000 </r>
       <r>   11.5507    0.0000 </r>
       <r>   11.9300    0.0000 </r>
       <r>   16.3167    0.0000 </r>
       <r>   16.5566    0.0000 </r>
       <r>   20.5647    0.0000 </r>
      </set>
      <set comment="kpoint 163">
       <r>   -5.0010    1.0000 </r>
       <r>    1.7566    1.0000 </r>
       <r>    3.1408    1.0000 </r>
       <r>    5.1432    1.0000 </r>
       <r>    8.8255    0.0000 </r>
       <r>    9.5850    0.0000 </r>
       <r>    9.8870    0.0000 </r>
       <r>   11.5237    0.0000 </r>
       <r>   16.4049    0.0000 </r>
       <r>   16.9008    0.0000 </r>
       <r>   21.2825    0.0000 </r>
       <r>   26.0086    0.0000 </r>
      </set>
      <set comment="kpoint 164">
       <r>   -5.1257    1.0000 </r>
       <r>    2.0045    1.0000 </r>
       <r>    3.3333    1.0000 </r>
       <r>    5.2304    1.0000 </r>
       <r>    8.8641    0.0000 </r>
       <r>    9.4500    0.0000 </r>
       <r>    9.7422    0.0000 </r>
       <r>   11.5062    0.0000 </r>
       <r>   11.9270    0.0000 </r>
       <r>   15.4170    0.0000 </r>
       <r>   16.3865    0.0000 </r>
       <r>   27.4999    0.0000 </r>
      </set>
      <set comment="kpoint 165">
       <r>   -5.2440    1.0000 </r>
       <r>    2.2591    1.0000 </r>
       <r>    3.5301    1.0000 </r>
       <r>    5.3121    1.0000 </r>
       <r>    8.8878    0.0000 </r>
       <r>    9.3230    0.0000 </r>
       <r>    9.6042    0.0000 </r>
       <r>   11.5001    0.0000 </r>
       <r>   15.0151    0.0000 </r>
       <r>   16.2554    0.0000 </r>
       <r>   18.6363    0.0000 </r>
       <r>   21.9308    0.0000 </r>
      </set>
      <set comment="kpoint 166">
       <r>   -5.3555    1.0000 </r>
       <r>    2.5198    1.0000 </r>
       <r>    3.7303    1.0000 </r>
       <r>    5.3878    1.0000 </r>
       <r>    8.8980    0.0000 </r>
       <r>    9.2041    0.0000 </r>
       <r>    9.4729    0.0000 </r>
       <r>   11.4877    0.0000 </r>
       <r>   11.9983    0.0000 </r>
       <r>   15.8329    0.0000 </r>
       <r>   17.3100    0.0000 </r>
       <r>   26.6561    0.0000 </r>
      </set>
      <set comment="kpoint 167">
       <r>   -5.4601    1.0000 </r>
       <r>    2.7864    1.0000 </r>
       <r>    3.9328    1.0000 </r>
       <r>    5.4571    1.0000 </r>
       <r>    8.8963    0.0000 </r>
       <r>    9.0931    0.0000 </r>
       <r>    9.3484    0.0000 </r>
       <r>   11.4647    0.0000 </r>
       <r>   12.0620    0.0000 </r>
       <r>   14.2555    0.0000 </r>
       <r>   15.8764    0.0000 </r>
       <r>   23.9083    0.0000 </r>
      </set>
      <set comment="kpoint 168">
       <r>   -5.5575    1.0000 </r>
       <r>    3.0583    1.0000 </r>
       <r>    4.1362    1.0000 </r>
       <r>    5.5198    1.0000 </r>
       <r>    8.8847    0.0000 </r>
       <r>    8.9903    0.0000 </r>
       <r>    9.2302    0.0000 </r>
       <r>   11.4135    0.0000 </r>
       <r>   12.1432    0.0000 </r>
       <r>   13.9542    0.0000 </r>
       <r>   15.6694    0.0000 </r>
       <r>   23.9218    0.0000 </r>
      </set>
      <set comment="kpoint 169">
       <r>   -5.6477    1.0000 </r>
       <r>    3.3347    1.0000 </r>
       <r>    4.3392    1.0000 </r>
       <r>    5.5760    1.0000 </r>
       <r>    8.8654    0.0000 </r>
       <r>    8.8957    0.0000 </r>
       <r>    9.1185    0.0000 </r>
       <r>   11.3187    0.0000 </r>
       <r>   12.2416    0.0000 </r>
       <r>   13.7164    0.0000 </r>
       <r>   15.4521    0.0000 </r>
       <r>   16.9926    0.0000 </r>
      </set>
      <set comment="kpoint 170">
       <r>   -5.7304    1.0000 </r>
       <r>    3.6149    1.0000 </r>
       <r>    4.5401    1.0000 </r>
       <r>    5.6256    1.0000 </r>
       <r>    8.8093    0.0000 </r>
       <r>    8.8400    0.0000 </r>
       <r>    9.0131    0.0000 </r>
       <r>   11.1700    0.0000 </r>
       <r>   12.3560    0.0000 </r>
       <r>   13.5494    0.0000 </r>
       <r>   15.2295    0.0000 </r>
       <r>   23.9473    0.0000 </r>
      </set>
      <set comment="kpoint 171">
       <r>   -5.8055    1.0000 </r>
       <r>    3.8976    1.0000 </r>
       <r>    4.7369    1.0000 </r>
       <r>    5.6689    1.0000 </r>
       <r>    8.7310    0.0000 </r>
       <r>    8.8103    0.0000 </r>
       <r>    8.9139    0.0000 </r>
       <r>   10.9680    0.0000 </r>
       <r>   12.4841    0.0000 </r>
       <r>   14.9861    0.0000 </r>
       <r>   16.9967    0.0000 </r>
       <r>   23.1544    0.0000 </r>
      </set>
      <set comment="kpoint 172">
       <r>   -5.8730    1.0000 </r>
       <r>    4.1811    1.0000 </r>
       <r>    4.9274    1.0000 </r>
       <r>    5.7062    1.0000 </r>
       <r>    8.6610    0.0000 </r>
       <r>    8.7770    0.0000 </r>
       <r>    8.8210    0.0000 </r>
       <r>   10.7242    0.0000 </r>
       <r>   12.6240    0.0000 </r>
       <r>   14.7891    0.0000 </r>
       <r>   16.9166    0.0000 </r>
       <r>   17.5751    0.0000 </r>
      </set>
      <set comment="kpoint 173">
       <r>   -5.9327    1.0000 </r>
       <r>    4.4632    1.0000 </r>
       <r>    5.1090    1.0000 </r>
       <r>    5.7379    1.0000 </r>
       <r>    8.5991    0.0000 </r>
       <r>    8.7345    0.0000 </r>
       <r>    8.7405    0.0000 </r>
       <r>   10.4552    0.0000 </r>
       <r>   12.7730    0.0000 </r>
       <r>   14.5815    0.0000 </r>
       <r>   17.2852    0.0000 </r>
       <r>   28.2778    0.0000 </r>
      </set>
      <set comment="kpoint 174">
       <r>   -5.9846    1.0000 </r>
       <r>    4.7407    1.0000 </r>
       <r>    5.2786    1.0000 </r>
       <r>    5.7642    1.0000 </r>
       <r>    8.5455    0.0000 </r>
       <r>    8.6550    0.0000 </r>
       <r>    8.7002    0.0000 </r>
       <r>   12.9257    0.0000 </r>
       <r>   13.4205    0.0000 </r>
       <r>   14.3901    0.0000 </r>
       <r>   17.2335    0.0000 </r>
       <r>   18.0606    0.0000 </r>
      </set>
      <set comment="kpoint 175">
       <r>   -6.0286    1.0000 </r>
       <r>    5.0086    1.0000 </r>
       <r>    5.4328    1.0000 </r>
       <r>    5.7857    1.0000 </r>
       <r>    8.5001    0.0000 </r>
       <r>    8.5833    0.0000 </r>
       <r>    8.6547    0.0000 </r>
       <r>    9.9108    0.0000 </r>
       <r>   13.0793    0.0000 </r>
       <r>   13.4478    0.0000 </r>
       <r>   14.2183    0.0000 </r>
       <r>   17.0312    0.0000 </r>
      </set>
      <set comment="kpoint 176">
       <r>   -6.0647    1.0000 </r>
       <r>    5.2601    1.0000 </r>
       <r>    5.5676    1.0000 </r>
       <r>    5.8027    1.0000 </r>
       <r>    8.4630    0.0000 </r>
       <r>    8.5208    0.0000 </r>
       <r>    8.6015    0.0000 </r>
       <r>    9.6683    0.0000 </r>
       <r>   13.4198    0.0000 </r>
       <r>   14.0698    0.0000 </r>
       <r>   17.1712    0.0000 </r>
       <r>   28.4145    0.0000 </r>
      </set>
      <set comment="kpoint 177">
       <r>   -6.0928    1.0000 </r>
       <r>    5.4845    1.0000 </r>
       <r>    5.6788    1.0000 </r>
       <r>    5.8155    1.0000 </r>
       <r>    8.4341    0.0000 </r>
       <r>    8.4689    0.0000 </r>
       <r>    8.5395    0.0000 </r>
       <r>    9.4678    0.0000 </r>
       <r>   13.3566    0.0000 </r>
       <r>   13.9520    0.0000 </r>
       <r>   17.1766    0.0000 </r>
       <r>   29.1976    0.0000 </r>
      </set>
      <set comment="kpoint 178">
       <r>   -6.1129    1.0000 </r>
       <r>    5.6668    1.0000 </r>
       <r>    5.7622    1.0000 </r>
       <r>    5.8245    1.0000 </r>
       <r>    8.4134    0.0000 </r>
       <r>    8.4297    0.0000 </r>
       <r>    8.4732    0.0000 </r>
       <r>    9.3225    0.0000 </r>
       <r>   13.4606    0.0000 </r>
       <r>   13.5331    0.0000 </r>
       <r>   13.8646    0.0000 </r>
       <r>   17.1188    0.0000 </r>
      </set>
      <set comment="kpoint 179">
       <r>   -6.1249    1.0000 </r>
       <r>    5.7884    1.0000 </r>
       <r>    5.8139    1.0000 </r>
       <r>    5.8298    1.0000 </r>
       <r>    8.4010    0.0000 </r>
       <r>    8.4053    0.0000 </r>
       <r>    8.4185    0.0000 </r>
       <r>    9.2374    0.0000 </r>
       <r>   13.5291    0.0000 </r>
       <r>   13.5479    0.0000 </r>
       <r>   13.8112    0.0000 </r>
       <r>   17.1078    0.0000 </r>
      </set>
      <set comment="kpoint 180">
       <r>   -6.1289    1.0000 </r>
       <r>    5.8315    1.0000 </r>
       <r>    5.8315    1.0000 </r>
       <r>    5.8315    1.0000 </r>
       <r>    8.3969    0.0000 </r>
       <r>    8.3969    0.0000 </r>
       <r>    8.3969    0.0000 </r>
       <r>    9.2097    0.0000 </r>
       <r>   13.5530    0.0000 </r>
       <r>   13.7930    0.0000 </r>
       <r>   17.0859    0.0000 </r>
       <r>   17.0865    0.0000 </r>
      </set>
     </set>
    </set>
   </array>
  </eigenvalues>
  <separator name="orbital magnetization" >
   <v name="MAGDIPOLOUT">      0.00000000      0.00000000      0.00000000</v>
  </separator>
  <dos>
   <i name="efermi">      6.12791177 </i>
   <total>
    <array>
     <dimension dim="1">gridpoints</dimension>
     <dimension dim="2">spin</dimension>
     <field>energy</field>
     <field>total</field>
     <field>integrated</field>
     <set>
      <set comment="spin 1">
       <r>    -8.2055     0.0000     0.0000 </r>
       <r>    -8.0532     0.0000     0.0000 </r>
       <r>    -7.9009     0.0000     0.0000 </r>
       <r>    -7.7487     0.0000     0.0000 </r>
       <r>    -7.5964     0.0000     0.0000 </r>
       <r>    -7.4441     0.0000     0.0000 </r>
       <r>    -7.2918     0.0000     0.0000 </r>
       <r>    -7.1395     0.0000     0.0000 </r>
       <r>    -6.9873     0.0000     0.0000 </r>
       <r>    -6.8350     0.0000     0.0000 </r>
       <r>    -6.6827     0.0000     0.0000 </r>
       <r>    -6.5304     0.0000     0.0000 </r>
       <r>    -6.3781     0.0000     0.0000 </r>
       <r>    -6.2259     0.0014     0.0002 </r>
       <r>    -6.0736     0.9356     0.1427 </r>
       <r>    -5.9213     0.8919     0.2785 </r>
       <r>    -5.7690     0.5538     0.3628 </r>
       <r>    -5.6167     0.4460     0.4308 </r>
       <r>    -5.4644     0.3816     0.4889 </r>
       <r>    -5.3122     0.3502     0.5422 </r>
       <r>    -5.1599     0.3093     0.5893 </r>
       <r>    -5.0076     0.2923     0.6338 </r>
       <r>    -4.8553     0.2925     0.6783 </r>
       <r>    -4.7030     0.2694     0.7194 </r>
       <r>    -4.5508     0.2658     0.7598 </r>
       <r>    -4.3985     0.2485     0.7977 </r>
       <r>    -4.2462     0.2514     0.8360 </r>
       <r>    -4.0939     0.2514     0.8742 </r>
       <r>    -3.9416     0.2658     0.9147 </r>
       <r>    -3.7894     0.3687     0.9709 </r>
       <r>    -3.6371     0.1803     0.9983 </r>
       <r>    -3.4848     0.1302     1.0181 </r>
       <r>    -3.3325     0.1372     1.0390 </r>
       <r>    -3.1802     0.1355     1.0597 </r>
       <r>    -3.0280     0.1193     1.0778 </r>
       <r>    -2.8757     0.1196     1.0961 </r>
       <r>    -2.7234     0.1501     1.1189 </r>
       <r>    -2.5711     0.1570     1.1428 </r>
       <r>    -2.4188     0.2664     1.1834 </r>
       <r>    -2.2666     1.2003     1.3662 </r>
       <r>    -2.1143     0.6519     1.4654 </r>
       <r>    -1.9620     1.7452     1.7312 </r>
       <r>    -1.8097     4.0117     2.3421 </r>
       <r>    -1.6574     0.9814     2.4916 </r>
       <r>    -1.5052     0.6791     2.5950 </r>
       <r>    -1.3529     1.5530     2.8315 </r>
       <r>    -1.2006     0.2505     2.8696 </r>
       <r>    -1.0483     0.3452     2.9222 </r>
       <r>    -0.8960     0.2307     2.9573 </r>
       <r>    -0.7437     0.2420     2.9942 </r>
       <r>    -0.5915     0.1839     3.0222 </r>
       <r>    -0.4392     0.1732     3.0485 </r>
       <r>    -0.2869     0.1880     3.0771 </r>
       <r>    -0.1346     0.1336     3.0975 </r>
       <r>     0.0177     0.1837     3.1255 </r>
       <r>     0.1699     0.1661     3.1508 </r>
       <r>     0.3222     0.1196     3.1690 </r>
       <r>     0.4745     0.1979     3.1991 </r>
       <r>     0.6268     0.1285     3.2187 </r>
       <r>     0.7791     0.1185     3.2367 </r>
       <r>     0.9313     0.1777     3.2638 </r>
       <r>     1.0836     0.1433     3.2856 </r>
       <r>     1.2359     0.1080     3.3021 </r>
       <r>     1.3882     0.1880     3.3307 </r>
       <r>     1.5405     1.0050     3.4837 </r>
       <r>     1.6927     1.4054     3.6977 </r>
       <r>     1.8450     0.8772     3.8313 </r>
       <r>     1.9973     1.2244     4.0178 </r>
       <r>     2.1496     1.6746     4.2728 </r>
       <r>     2.3019     1.1401     4.4464 </r>
       <r>     2.4541     0.9132     4.5855 </r>
       <r>     2.6064     0.9398     4.7286 </r>
       <r>     2.7587     0.8739     4.8616 </r>
       <r>     2.9110     1.0869     5.0271 </r>
       <r>     3.0633     1.9690     5.3270 </r>
       <r>     3.2155     0.9729     5.4751 </r>
       <r>     3.3678     0.9320     5.6171 </r>
       <r>     3.5201     0.8617     5.7483 </r>
       <r>     3.6724     0.5827     5.8370 </r>
       <r>     3.8247     0.5080     5.9144 </r>
       <r>     3.9769     0.5756     6.0020 </r>
       <r>     4.1292     0.4041     6.0636 </r>
       <r>     4.2815     0.5350     6.1450 </r>
       <r>     4.4338     0.4305     6.2106 </r>
       <r>     4.5861     0.5316     6.2915 </r>
       <r>     4.7384     1.7415     6.5567 </r>
       <r>     4.8906     1.1420     6.7307 </r>
       <r>     5.0429     1.0318     6.8878 </r>
       <r>     5.1952     0.9403     7.0310 </r>
       <r>     5.3475     0.9500     7.1756 </r>
       <r>     5.4998     1.0040     7.3285 </r>
       <r>     5.6520     1.1523     7.5040 </r>
       <r>     5.8043     1.9942     7.8077 </r>
       <r>     5.9566     1.2629     8.0000 </r>
       <r>     6.1089     0.0002     8.0000 </r>
       <r>     6.2612     0.0000     8.0000 </r>
       <r>     6.4134     0.2267     8.0345 </r>
       <r>     6.5657     1.0623     8.1963 </r>
       <r>     6.7180     0.9793     8.3454 </r>
       <r>     6.8703     0.6177     8.4395 </r>
       <r>     7.0226     0.6079     8.5320 </r>
       <r>     7.1748     0.9552     8.6775 </r>
       <r>     7.3271     0.7602     8.7933 </r>
       <r>     7.4794     1.2132     8.9780 </r>
       <r>     7.6317     0.9644     9.1249 </r>
       <r>     7.7840     0.8275     9.2509 </r>
       <r>     7.9362     0.7670     9.3677 </r>
       <r>     8.0885     0.7449     9.4811 </r>
       <r>     8.2408     0.7672     9.5980 </r>
       <r>     8.3931     1.4645     9.8210 </r>
       <r>     8.5454     2.8782    10.2593 </r>
       <r>     8.6976     1.5463    10.4947 </r>
       <r>     8.8499     1.5431    10.7297 </r>
       <r>     9.0022     1.3392    10.9337 </r>
       <r>     9.1545     1.1417    11.1075 </r>
       <r>     9.3068     2.9708    11.5599 </r>
       <r>     9.4590     2.0891    11.8780 </r>
       <r>     9.6113     0.7830    11.9973 </r>
       <r>     9.7636     0.7383    12.1097 </r>
       <r>     9.9159     0.8041    12.2322 </r>
       <r>    10.0682     2.3182    12.5852 </r>
       <r>    10.2205     1.8705    12.8700 </r>
       <r>    10.3727     0.4785    12.9429 </r>
       <r>    10.5250     0.3892    13.0021 </r>
       <r>    10.6773     0.2313    13.0374 </r>
       <r>    10.8296     0.5747    13.1249 </r>
       <r>    10.9819     1.1836    13.3051 </r>
       <r>    11.1341     0.7432    13.4183 </r>
       <r>    11.2864     0.8255    13.5440 </r>
       <r>    11.4387     0.7420    13.6570 </r>
       <r>    11.5910     1.0377    13.8150 </r>
       <r>    11.7433     0.8859    13.9499 </r>
       <r>    11.8955     0.6628    14.0508 </r>
       <r>    12.0478     1.0666    14.2133 </r>
       <r>    12.2001     0.9086    14.3516 </r>
       <r>    12.3524     0.8799    14.4856 </r>
       <r>    12.5047     0.9520    14.6306 </r>
       <r>    12.6569     0.8254    14.7563 </r>
       <r>    12.8092     0.9054    14.8942 </r>
       <r>    12.9615     1.3216    15.0954 </r>
       <r>    13.1138     1.3376    15.2991 </r>
       <r>    13.2661     1.2101    15.4834 </r>
       <r>    13.4183     1.1662    15.6610 </r>
       <r>    13.5706     1.8673    15.9453 </r>
       <r>    13.7229     1.3389    16.1492 </r>
       <r>    13.8752     1.6853    16.4058 </r>
       <r>    14.0275     1.0875    16.5715 </r>
       <r>    14.1797     1.0662    16.7338 </r>
       <r>    14.3320     0.8398    16.8617 </r>
       <r>    14.4843     0.9032    16.9992 </r>
       <r>    14.6366     0.8162    17.1235 </r>
       <r>    14.7889     0.9195    17.2636 </r>
       <r>    14.9412     1.1406    17.4373 </r>
       <r>    15.0934     1.0250    17.5933 </r>
       <r>    15.2457     0.8855    17.7282 </r>
       <r>    15.3980     0.7842    17.8476 </r>
       <r>    15.5503     0.8746    17.9808 </r>
       <r>    15.7026     1.1241    18.1520 </r>
       <r>    15.8548     0.9180    18.2918 </r>
       <r>    16.0071     1.3841    18.5025 </r>
       <r>    16.1594     0.5063    18.5796 </r>
       <r>    16.3117     0.7359    18.6917 </r>
       <r>    16.4640     3.9215    19.2889 </r>
       <r>    16.6162     1.4627    19.5116 </r>
       <r>    16.7685     0.7060    19.6191 </r>
       <r>    16.9208     0.7629    19.7353 </r>
       <r>    17.0731     0.6226    19.8301 </r>
       <r>    17.2254     1.1202    20.0007 </r>
       <r>    17.3776     0.6114    20.0938 </r>
       <r>    17.5299     0.4494    20.1622 </r>
       <r>    17.6822     0.3321    20.2128 </r>
       <r>    17.8345     0.3086    20.2598 </r>
       <r>    17.9868     0.3026    20.3059 </r>
       <r>    18.1390     0.5239    20.3857 </r>
       <r>    18.2913     0.3244    20.4350 </r>
       <r>    18.4436     0.3282    20.4850 </r>
       <r>    18.5959     0.5767    20.5729 </r>
       <r>    18.7482     1.5313    20.8060 </r>
       <r>    18.9004     1.2143    20.9910 </r>
       <r>    19.0527     0.6217    21.0856 </r>
       <r>    19.2050     0.6839    21.1898 </r>
       <r>    19.3573     0.5481    21.2732 </r>
       <r>    19.5096     0.4137    21.3362 </r>
       <r>    19.6618     0.3688    21.3924 </r>
       <r>    19.8141     0.1665    21.4178 </r>
       <r>    19.9664     0.2649    21.4581 </r>
       <r>    20.1187     0.3877    21.5172 </r>
       <r>    20.2710     0.4742    21.5894 </r>
       <r>    20.4233     0.1277    21.6088 </r>
       <r>    20.5755     0.4573    21.6784 </r>
       <r>    20.7278     0.5915    21.7685 </r>
       <r>    20.8801     0.2262    21.8030 </r>
       <r>    21.0324     0.1599    21.8273 </r>
       <r>    21.1847     0.2295    21.8623 </r>
       <r>    21.3369     0.5377    21.9441 </r>
       <r>    21.4892     0.3234    21.9934 </r>
       <r>    21.6415     0.2051    22.0246 </r>
       <r>    21.7938     0.1482    22.0472 </r>
       <r>    21.9461     0.2819    22.0901 </r>
       <r>    22.0983     0.2550    22.1290 </r>
       <r>    22.2506     0.4279    22.1941 </r>
       <r>    22.4029     0.3208    22.2430 </r>
       <r>    22.5552     0.2863    22.2866 </r>
       <r>    22.7075     0.1753    22.3132 </r>
       <r>    22.8597     0.2682    22.3541 </r>
       <r>    23.0120     0.2011    22.3847 </r>
       <r>    23.1643     0.1691    22.4105 </r>
       <r>    23.3166     0.4367    22.4770 </r>
       <r>    23.4689     0.3715    22.5335 </r>
       <r>    23.6211     0.1441    22.5555 </r>
       <r>    23.7734     0.0009    22.5556 </r>
       <r>    23.9257     0.4520    22.6244 </r>
       <r>    24.0780     0.4266    22.6894 </r>
       <r>    24.2303     0.1636    22.7143 </r>
       <r>    24.3825     0.2785    22.7567 </r>
       <r>    24.5348     0.6117    22.8499 </r>
       <r>    24.6871     0.6462    22.9483 </r>
       <r>    24.8394     0.6671    23.0499 </r>
       <r>    24.9917     0.2716    23.0912 </r>
       <r>    25.1439     0.2837    23.1344 </r>
       <r>    25.2962     0.2308    23.1696 </r>
       <r>    25.4485     0.2837    23.2128 </r>
       <r>    25.6008     0.5999    23.3041 </r>
       <r>    25.7531     0.2479    23.3419 </r>
       <r>    25.9054     0.2975    23.3872 </r>
       <r>    26.0576     0.2775    23.4295 </r>
       <r>    26.2099     0.1444    23.4514 </r>
       <r>    26.3622     0.1000    23.4667 </r>
       <r>    26.5145     0.0007    23.4668 </r>
       <r>    26.6668     0.1191    23.4849 </r>
       <r>    26.8190     0.1034    23.5007 </r>
       <r>    26.9713     0.2152    23.5334 </r>
       <r>    27.1236     0.1391    23.5546 </r>
       <r>    27.2759     0.0392    23.5606 </r>
       <r>    27.4282     0.0654    23.5705 </r>
       <r>    27.5804     0.1382    23.5916 </r>
       <r>    27.7327     0.1677    23.6171 </r>
       <r>    27.8850     0.0335    23.6222 </r>
       <r>    28.0373     0.0006    23.6223 </r>
       <r>    28.1896     0.1967    23.6523 </r>
       <r>    28.3418     0.0986    23.6673 </r>
       <r>    28.4941     0.1419    23.6889 </r>
       <r>    28.6464     0.0717    23.6998 </r>
       <r>    28.7987     0.0056    23.7007 </r>
       <r>    28.9510     0.1888    23.7294 </r>
       <r>    29.1032     0.4763    23.8020 </r>
       <r>    29.2555     0.2710    23.8432 </r>
       <r>    29.4078     0.1249    23.8623 </r>
       <r>    29.5601     0.1749    23.8889 </r>
       <r>    29.7124     0.0020    23.8892 </r>
       <r>    29.8646     0.0704    23.8999 </r>
       <r>    30.0169     0.0006    23.9000 </r>
       <r>    30.1692     0.0000    23.9000 </r>
       <r>    30.3215     0.0000    23.9000 </r>
       <r>    30.4738     0.0000    23.9000 </r>
       <r>    30.6261     0.0000    23.9000 </r>
       <r>    30.7783     0.0947    23.9144 </r>
       <r>    30.9306     0.0512    23.9222 </r>
       <r>    31.0829     0.0000    23.9222 </r>
       <r>    31.2352     0.0000    23.9222 </r>
       <r>    31.3875     0.0000    23.9222 </r>
       <r>    31.5397     0.0000    23.9222 </r>
       <r>    31.6920     0.0000    23.9222 </r>
       <r>    31.8443     0.0000    23.9222 </r>
       <r>    31.9966     0.0496    23.9298 </r>
       <r>    32.1489     0.0234    23.9333 </r>
       <r>    32.3011     0.0014    23.9335 </r>
       <r>    32.4534     0.0706    23.9443 </r>
       <r>    32.6057     0.0293    23.9488 </r>
       <r>    32.7580     0.0446    23.9556 </r>
       <r>    32.9103     0.0000    23.9556 </r>
       <r>    33.0625     0.0000    23.9556 </r>
       <r>    33.2148     0.0013    23.9558 </r>
       <r>    33.3671     0.0707    23.9665 </r>
       <r>    33.5194     0.0010    23.9667 </r>
       <r>    33.6717     0.0525    23.9747 </r>
       <r>    33.8239     0.0204    23.9778 </r>
       <r>    33.9762     0.0000    23.9778 </r>
       <r>    34.1285     0.0268    23.9819 </r>
       <r>    34.2808     0.0462    23.9889 </r>
       <r>    34.4331     0.0000    23.9889 </r>
       <r>    34.5853     0.0000    23.9889 </r>
       <r>    34.7376     0.0000    23.9889 </r>
       <r>    34.8899     0.0000    23.9889 </r>
       <r>    35.0422     0.0000    23.9889 </r>
       <r>    35.1945     0.0000    23.9889 </r>
       <r>    35.3467     0.0043    23.9895 </r>
       <r>    35.4990     0.0685    24.0000 </r>
       <r>    35.6513     0.0002    24.0000 </r>
       <r>    35.8036     0.0000    24.0000 </r>
       <r>    35.9559     0.0000    24.0000 </r>
       <r>    36.1082     0.0000    24.0000 </r>
       <r>    36.2604     0.0000    24.0000 </r>
       <r>    36.4127     0.0000    24.0000 </r>
       <r>    36.5650     0.0000    24.0000 </r>
       <r>    36.7173     0.0000    24.0000 </r>
       <r>    36.8696     0.0000    24.0000 </r>
       <r>    37.0218     0.0000    24.0000 </r>
       <r>    37.1741     0.0000    24.0000 </r>
       <r>    37.3264     0.0000    24.0000 </r>
       <r>    37.4787     0.0000    24.0000 </r>
      </set>
     </set>
    </array>
   </total>
   <partial>
    <array>
     <dimension dim="1">gridpoints</dimension>
     <dimension dim="2">spin</dimension>
     <dimension dim="3">ion</dimension>
     <field>energy</field>
     <field>    s</field>
     <field>   py</field>
     <field>   pz</field>
     <field>   px</field>
     <field>  dxy</field>
     <field>  dyz</field>
     <field>  dz2</field>
     <field>  dxz</field>
     <field>x2-y2</field>
     <set>
      <set comment="ion 1">
       <set comment="spin 1">
        <r>    -8.2055     0.0000     0.0000     0.0000     0.0000     0.0000     0.0000     0.0000     0.0000     0.0000 </r>
        <r>    -8.0532     0.0000     0.0000     0.0000     0.0000     0.0000     0.0000     0.0000     0.0000     0.0000 </r>
        <r>    -7.9009     0.0000     0.0000     0.0000     0.0000     0.0000     0.0000     0.0000     0.0000     0.0000 </r>
        <r>    -7.7487     0.0000     0.0000     0.0000     0.0000     0.0000     0.0000     0.0000     0.0000     0.0000 </r>
        <r>    -7.5964     0.0000     0.0000     0.0000     0.0000     0.0000     0.0000     0.0000     0.0000     0.0000 </r>
        <r>    -7.4441     0.0000     0.0000     0.0000     0.0000     0.0000     0.0000     0.0000     0.0000     0.0000 </r>
        <r>    -7.2918     0.0000     0.0000     0.0000     0.0000     0.0000     0.0000     0.0000     0.0000     0.0000 </r>
        <r>    -7.1395     0.0000     0.0000     0.0000     0.0000     0.0000     0.0000     0.0000     0.0000     0.0000 </r>
        <r>    -6.9873     0.0000     0.0000     0.0000     0.0000     0.0000     0.0000     0.0000     0.0000     0.0000 </r>
        <r>    -6.8350     0.0000     0.0000     0.0000     0.0000     0.0000     0.0000     0.0000     0.0000     0.0000 </r>
        <r>    -6.6827     0.0000     0.0000     0.0000     0.0000     0.0000     0.0000     0.0000     0.0000     0.0000 </r>
        <r>    -6.5304     0.0000     0.0000     0.0000     0.0000     0.0000     0.0000     0.0000     0.0000     0.0000 </r>
        <r>    -6.3781     0.0000     0.0000     0.0000     0.0000     0.0000     0.0000     0.0000     0.0000     0.0000 </r>
        <r>    -6.2259     0.0003     0.0000     0.0000     0.0000     0.0000     0.0000     0.0000     0.0000     0.0000 </r>
        <r>    -6.0736     0.1996     0.0001     0.0000     0.0001     0.0000     0.0000     0.0000     0.0000     0.0000 </r>
        <r>    -5.9213     0.1899     0.0007     0.0001     0.0003     0.0000     0.0000     0.0000     0.0000     0.0000 </r>
        <r>    -5.7690     0.1174     0.0010     0.0002     0.0005     0.0000     0.0000     0.0000     0.0000     0.0000 </r>
        <r>    -5.6167     0.0943     0.0012     0.0003     0.0006     0.0000     0.0000     0.0000     0.0000     0.0000 </r>
        <r>    -5.4644     0.0804     0.0014     0.0003     0.0007     0.0000     0.0000     0.0000     0.0000     0.0000 </r>
        <r>    -5.3122     0.0736     0.0017     0.0003     0.0007     0.0000     0.0000     0.0000     0.0000     0.0000 </r>
        <r>    -5.1599     0.0649     0.0017     0.0004     0.0008     0.0000     0.0000     0.0000     0.0000     0.0000 </r>
        <r>    -5.0076     0.0612     0.0019     0.0004     0.0009     0.0000     0.0000     0.0000     0.0000     0.0000 </r>
        <r>    -4.8553     0.0612     0.0021     0.0005     0.0009     0.0000     0.0000     0.0000     0.0000     0.0000 </r>
        <r>    -4.7030     0.0563     0.0022     0.0005     0.0009     0.0000     0.0000     0.0000     0.0000     0.0000 </r>
        <r>    -4.5508     0.0556     0.0023     0.0006     0.0010     0.0000     0.0000     0.0000     0.0000     0.0000 </r>
        <r>    -4.3985     0.0520     0.0024     0.0006     0.0010     0.0000     0.0000     0.0000     0.0000     0.0000 </r>
        <r>    -4.2462     0.0527     0.0025     0.0006     0.0011     0.0000     0.0000     0.0000     0.0000     0.0000 </r>
        <r>    -4.0939     0.0530     0.0026     0.0007     0.0012     0.0000     0.0000     0.0000     0.0000     0.0000 </r>
        <r>    -3.9416     0.0566     0.0027     0.0008     0.0013     0.0000     0.0000     0.0000     0.0000     0.0000 </r>
        <r>    -3.7894     0.0803     0.0032     0.0014     0.0018     0.0000     0.0000     0.0000     0.0000     0.0000 </r>
        <r>    -3.6371     0.0383     0.0023     0.0005     0.0009     0.0000     0.0000     0.0000     0.0000     0.0000 </r>
        <r>    -3.4848     0.0268     0.0024     0.0003     0.0006     0.0000     0.0000     0.0000     0.0000     0.0000 </r>
        <r>    -3.3325     0.0282     0.0027     0.0004     0.0006     0.0000     0.0000     0.0000     0.0000     0.0000 </r>
        <r>    -3.1802     0.0279     0.0027     0.0005     0.0006     0.0000     0.0000     0.0000     0.0000     0.0000 </r>
        <r>    -3.0280     0.0248     0.0022     0.0006     0.0006     0.0000     0.0000     0.0000     0.0000     0.0000 </r>
        <r>    -2.8757     0.0249     0.0021     0.0008     0.0006     0.0000     0.0000     0.0000     0.0000     0.0000 </r>
        <r>    -2.7234     0.0311     0.0030     0.0011     0.0006     0.0000     0.0000     0.0000     0.0000     0.0000 </r>
        <r>    -2.5711     0.0325     0.0032     0.0014     0.0006     0.0000     0.0000     0.0000     0.0000     0.0000 </r>
        <r>    -2.4188     0.0562     0.0029     0.0050     0.0011     0.0000     0.0000     0.0000     0.0000     0.0000 </r>
        <r>    -2.2666     0.2546     0.0106     0.0266     0.0033     0.0000     0.0000     0.0000     0.0000     0.0000 </r>
        <r>    -2.1143     0.1360     0.0105     0.0131     0.0005     0.0000     0.0000     0.0000     0.0000     0.0000 </r>
        <r>    -1.9620     0.3450     0.0655     0.0105     0.0001     0.0000     0.0000     0.0000     0.0000     0.0000 </r>
        <r>    -1.8097     0.8027     0.1385     0.0360     0.0001     0.0000     0.0000     0.0000     0.0000     0.0000 </r>
        <r>    -1.6574     0.1990     0.0244     0.0182     0.0000     0.0000     0.0000     0.0000     0.0000     0.0000 </r>
        <r>    -1.5052     0.1337     0.0124     0.0198     0.0005     0.0000     0.0000     0.0000     0.0000     0.0000 </r>
        <r>    -1.3529     0.2908     0.0148     0.0630     0.0052     0.0000     0.0000     0.0000     0.0000     0.0000 </r>
        <r>    -1.2006     0.0460     0.0049     0.0079     0.0011     0.0000     0.0000     0.0000     0.0000     0.0000 </r>
        <r>    -1.0483     0.0463     0.0099     0.0104     0.0070     0.0000     0.0000     0.0000     0.0000     0.0000 </r>
        <r>    -0.8960     0.0321     0.0059     0.0075     0.0046     0.0000     0.0000     0.0000     0.0000     0.0000 </r>
        <r>    -0.7437     0.0365     0.0079     0.0063     0.0038     0.0000     0.0000     0.0000     0.0000     0.0000 </r>
        <r>    -0.5915     0.0269     0.0054     0.0055     0.0033     0.0000     0.0000     0.0000     0.0000     0.0000 </r>
        <r>    -0.4392     0.0259     0.0054     0.0050     0.0030     0.0000     0.0000     0.0000     0.0000     0.0000 </r>
        <r>    -0.2869     0.0293     0.0072     0.0045     0.0027     0.0000     0.0000     0.0000     0.0000     0.0000 </r>
        <r>    -0.1346     0.0187     0.0039     0.0044     0.0030     0.0000     0.0000     0.0000     0.0000     0.0000 </r>
        <r>     0.0177     0.0270     0.0075     0.0044     0.0033     0.0000     0.0000     0.0000     0.0000     0.0000 </r>
        <r>     0.1699     0.0243     0.0067     0.0042     0.0031     0.0000     0.0000     0.0000     0.0000     0.0000 </r>
        <r>     0.3222     0.0178     0.0040     0.0037     0.0024     0.0000     0.0000     0.0000     0.0000     0.0000 </r>
        <r>     0.4745     0.0292     0.0088     0.0047     0.0036     0.0000     0.0000     0.0000     0.0000     0.0000 </r>
        <r>     0.6268     0.0166     0.0048     0.0040     0.0034     0.0000     0.0000     0.0000     0.0000     0.0000 </r>
        <r>     0.7791     0.0181     0.0062     0.0023     0.0018     0.0000     0.0000     0.0000     0.0000     0.0000 </r>
        <r>     0.9313     0.0251     0.0081     0.0046     0.0038     0.0000     0.0000     0.0000     0.0000     0.0000 </r>
        <r>     1.0836     0.0183     0.0056     0.0046     0.0041     0.0000     0.0000     0.0000     0.0000     0.0000 </r>
        <r>     1.2359     0.0167     0.0071     0.0014     0.0012     0.0000     0.0000     0.0000     0.0000     0.0000 </r>
        <r>     1.3882     0.0183     0.0078     0.0072     0.0065     0.0000     0.0000     0.0000     0.0000     0.0000 </r>
        <r>     1.5405     0.0234     0.0521     0.0462     0.0481     0.0000     0.0000     0.0000     0.0000     0.0000 </r>
        <r>     1.6927     0.0148     0.0738     0.0623     0.0777     0.0000     0.0000     0.0000     0.0000     0.0000 </r>
        <r>     1.8450     0.0207     0.0414     0.0400     0.0489     0.0000     0.0000     0.0000     0.0000     0.0000 </r>
        <r>     1.9973     0.0176     0.0570     0.0573     0.0752     0.0000     0.0000     0.0000     0.0000     0.0000 </r>
        <r>     2.1496     0.0150     0.0653     0.0892     0.1116     0.0000     0.0000     0.0000     0.0000     0.0000 </r>
        <r>     2.3019     0.0240     0.0438     0.0621     0.0733     0.0000     0.0000     0.0000     0.0000     0.0000 </r>
        <r>     2.4541     0.0135     0.0327     0.0538     0.0629     0.0000     0.0000     0.0000     0.0000     0.0000 </r>
        <r>     2.6064     0.0211     0.0321     0.0561     0.0657     0.0000     0.0000     0.0000     0.0000     0.0000 </r>
        <r>     2.7587     0.0153     0.0297     0.0551     0.0649     0.0000     0.0000     0.0000     0.0000     0.0000 </r>
        <r>     2.9110     0.0160     0.0274     0.0775     0.0890     0.0000     0.0000     0.0000     0.0000     0.0000 </r>
        <r>     3.0633     0.0165     0.0305     0.1649     0.1777     0.0000     0.0000     0.0000     0.0000     0.0000 </r>
        <r>     3.2155     0.0150     0.0327     0.0650     0.0811     0.0000     0.0000     0.0000     0.0000     0.0000 </r>
        <r>     3.3678     0.0146     0.0472     0.0467     0.0791     0.0000     0.0000     0.0000     0.0000     0.0000 </r>
        <r>     3.5201     0.0133     0.0531     0.0355     0.0739     0.0000     0.0000     0.0000     0.0000     0.0000 </r>
        <r>     3.6724     0.0130     0.0238     0.0354     0.0473     0.0000     0.0000     0.0000     0.0000     0.0000 </r>
        <r>     3.8247     0.0098     0.0235     0.0319     0.0389     0.0000     0.0000     0.0000     0.0000     0.0000 </r>
        <r>     3.9769     0.0170     0.0281     0.0335     0.0419     0.0000     0.0000     0.0000     0.0000     0.0000 </r>
        <r>     4.1292     0.0043     0.0170     0.0264     0.0347     0.0000     0.0000     0.0000     0.0000     0.0000 </r>
        <r>     4.2815     0.0170     0.0297     0.0289     0.0382     0.0000     0.0000     0.0000     0.0000     0.0000 </r>
        <r>     4.4338     0.0067     0.0207     0.0284     0.0333     0.0000     0.0000     0.0000     0.0000     0.0000 </r>
        <r>     4.5861     0.0104     0.0284     0.0334     0.0401     0.0000     0.0000     0.0000     0.0000     0.0000 </r>
        <r>     4.7384     0.0117     0.1193     0.1192     0.1268     0.0000     0.0000     0.0000     0.0000     0.0000 </r>
        <r>     4.8906     0.0057     0.0746     0.0779     0.0865     0.0000     0.0000     0.0000     0.0000     0.0000 </r>
        <r>     5.0429     0.0091     0.0667     0.0688     0.0763     0.0000     0.0000     0.0000     0.0000     0.0000 </r>
        <r>     5.1952     0.0073     0.0632     0.0632     0.0675     0.0000     0.0000     0.0000     0.0000     0.0000 </r>
        <r>     5.3475     0.0068     0.0652     0.0612     0.0704     0.0000     0.0000     0.0000     0.0000     0.0000 </r>
        <r>     5.4998     0.0052     0.0676     0.0666     0.0761     0.0000     0.0000     0.0000     0.0000     0.0000 </r>
        <r>     5.6520     0.0041     0.0802     0.0760     0.0879     0.0000     0.0000     0.0000     0.0000     0.0000 </r>
        <r>     5.8043     0.0026     0.1448     0.1290     0.1545     0.0000     0.0000     0.0000     0.0000     0.0000 </r>
        <r>     5.9566     0.0003     0.0934     0.0820     0.0973     0.0000     0.0000     0.0000     0.0000     0.0000 </r>
        <r>     6.1089     0.0000     0.0000     0.0000     0.0000     0.0000     0.0000     0.0000     0.0000     0.0000 </r>
        <r>     6.2612     0.0000     0.0000     0.0000     0.0000     0.0000     0.0000     0.0000     0.0000     0.0000 </r>
        <r>     6.4134     0.0120     0.0099     0.0000     0.0000     0.0000     0.0000     0.0000     0.0000     0.0000 </r>
        <r>     6.5657     0.0553     0.0436     0.0001     0.0001     0.0000     0.0000     0.0000     0.0000     0.0000 </r>
        <r>     6.7180     0.0494     0.0384     0.0010     0.0014     0.0000     0.0000     0.0000     0.0000     0.0000 </r>
        <r>     6.8703     0.0298     0.0254     0.0016     0.0022     0.0000     0.0000     0.0000     0.0000     0.0000 </r>
        <r>     7.0226     0.0287     0.0218     0.0055     0.0029     0.0000     0.0000     0.0000     0.0000     0.0000 </r>
        <r>     7.1748     0.0463     0.0198     0.0215     0.0048     0.0000     0.0000     0.0000     0.0000     0.0000 </r>
        <r>     7.3271     0.0383     0.0198     0.0145     0.0060     0.0000     0.0000     0.0000     0.0000     0.0000 </r>
        <r>     7.4794     0.1354     0.0223     0.0161     0.0103     0.0000     0.0000     0.0000     0.0000     0.0000 </r>
        <r>     7.6317     0.0863     0.0231     0.0151     0.0104     0.0000     0.0000     0.0000     0.0000     0.0000 </r>
        <r>     7.7840     0.0653     0.0224     0.0143     0.0105     0.0000     0.0000     0.0000     0.0000     0.0000 </r>
        <r>     7.9362     0.0550     0.0243     0.0139     0.0109     0.0000     0.0000     0.0000     0.0000     0.0000 </r>
        <r>     8.0885     0.0493     0.0258     0.0148     0.0118     0.0000     0.0000     0.0000     0.0000     0.0000 </r>
        <r>     8.2408     0.0456     0.0312     0.0163     0.0136     0.0000     0.0000     0.0000     0.0000     0.0000 </r>
        <r>     8.3931     0.0433     0.0768     0.0461     0.0486     0.0000     0.0000     0.0000     0.0000     0.0000 </r>
        <r>     8.5454     0.0392     0.1218     0.1281     0.1390     0.0000     0.0000     0.0000     0.0000     0.0000 </r>
        <r>     8.6976     0.0331     0.0477     0.0800     0.0657     0.0000     0.0000     0.0000     0.0000     0.0000 </r>
        <r>     8.8499     0.0601     0.0373     0.0934     0.0536     0.0000     0.0000     0.0000     0.0000     0.0000 </r>
        <r>     9.0022     0.0524     0.0336     0.0772     0.0478     0.0000     0.0000     0.0000     0.0000     0.0000 </r>
        <r>     9.1545     0.0187     0.0393     0.0438     0.0518     0.0000     0.0000     0.0000     0.0000     0.0000 </r>
        <r>     9.3068     0.2008     0.0843     0.0913     0.0996     0.0000     0.0000     0.0000     0.0000     0.0000 </r>
        <r>     9.4590     0.1025     0.0667     0.0755     0.0840     0.0000     0.0000     0.0000     0.0000     0.0000 </r>
        <r>     9.6113     0.0732     0.0174     0.0225     0.0309     0.0000     0.0000     0.0000     0.0000     0.0000 </r>
        <r>     9.7636     0.0725     0.0181     0.0182     0.0287     0.0000     0.0000     0.0000     0.0000     0.0000 </r>
        <r>     9.9159     0.0531     0.0184     0.0236     0.0389     0.0000     0.0000     0.0000     0.0000     0.0000 </r>
        <r>    10.0682     0.0767     0.0577     0.0390     0.1147     0.0000     0.0000     0.0000     0.0000     0.0000 </r>
        <r>    10.2205     0.0652     0.0327     0.0191     0.1149     0.0000     0.0000     0.0000     0.0000     0.0000 </r>
        <r>    10.3727     0.0416     0.0185     0.0184     0.0174     0.0000     0.0000     0.0000     0.0000     0.0000 </r>
        <r>    10.5250     0.0241     0.0100     0.0188     0.0202     0.0000     0.0000     0.0000     0.0000     0.0000 </r>
        <r>    10.6773     0.0175     0.0075     0.0111     0.0103     0.0000     0.0000     0.0000     0.0000     0.0000 </r>
        <r>    10.8296     0.0285     0.0199     0.0295     0.0218     0.0000     0.0000     0.0000     0.0000     0.0000 </r>
        <r>    10.9819     0.0688     0.0501     0.0578     0.0230     0.0000     0.0000     0.0000     0.0000     0.0000 </r>
        <r>    11.1341     0.0409     0.0283     0.0357     0.0189     0.0000     0.0000     0.0000     0.0000     0.0000 </r>
        <r>    11.2864     0.0362     0.0287     0.0357     0.0327     0.0000     0.0000     0.0000     0.0000     0.0000 </r>
        <r>    11.4387     0.0422     0.0302     0.0248     0.0294     0.0000     0.0000     0.0000     0.0000     0.0000 </r>
        <r>    11.5910     0.0487     0.0402     0.0333     0.0434     0.0000     0.0000     0.0000     0.0000     0.0000 </r>
        <r>    11.7433     0.0380     0.0289     0.0338     0.0373     0.0000     0.0000     0.0000     0.0000     0.0000 </r>
        <r>    11.8955     0.0217     0.0235     0.0224     0.0270     0.0000     0.0000     0.0000     0.0000     0.0000 </r>
        <r>    12.0478     0.0188     0.0220     0.0313     0.0349     0.0000     0.0000     0.0000     0.0000     0.0000 </r>
        <r>    12.2001     0.0271     0.0259     0.0240     0.0284     0.0000     0.0000     0.0000     0.0000     0.0000 </r>
        <r>    12.3524     0.0249     0.0214     0.0210     0.0300     0.0000     0.0000     0.0000     0.0000     0.0000 </r>
        <r>    12.5047     0.0352     0.0233     0.0246     0.0323     0.0000     0.0000     0.0000     0.0000     0.0000 </r>
        <r>    12.6569     0.0259     0.0240     0.0189     0.0305     0.0000     0.0000     0.0000     0.0000     0.0000 </r>
        <r>    12.8092     0.0248     0.0231     0.0249     0.0334     0.0000     0.0000     0.0000     0.0000     0.0000 </r>
        <r>    12.9615     0.0320     0.0324     0.0390     0.0381     0.0000     0.0000     0.0000     0.0000     0.0000 </r>
        <r>    13.1138     0.0213     0.0265     0.0386     0.0431     0.0000     0.0000     0.0000     0.0000     0.0000 </r>
        <r>    13.2661     0.0239     0.0342     0.0195     0.0345     0.0000     0.0000     0.0000     0.0000     0.0000 </r>
        <r>    13.4183     0.0146     0.0279     0.0245     0.0372     0.0000     0.0000     0.0000     0.0000     0.0000 </r>
        <r>    13.5706     0.0228     0.0211     0.0226     0.0295     0.0000     0.0000     0.0000     0.0000     0.0000 </r>
        <r>    13.7229     0.0137     0.0234     0.0243     0.0300     0.0000     0.0000     0.0000     0.0000     0.0000 </r>
        <r>    13.8752     0.0864     0.0236     0.0467     0.0355     0.0000     0.0000     0.0000     0.0000     0.0000 </r>
        <r>    14.0275     0.0502     0.0118     0.0293     0.0165     0.0000     0.0000     0.0000     0.0000     0.0000 </r>
        <r>    14.1797     0.0440     0.0245     0.0303     0.0338     0.0000     0.0000     0.0000     0.0000     0.0000 </r>
        <r>    14.3320     0.0318     0.0160     0.0208     0.0172     0.0000     0.0000     0.0000     0.0000     0.0000 </r>
        <r>    14.4843     0.0295     0.0194     0.0227     0.0207     0.0000     0.0000     0.0000     0.0000     0.0000 </r>
        <r>    14.6366     0.0259     0.0175     0.0242     0.0201     0.0000     0.0000     0.0000     0.0000     0.0000 </r>
        <r>    14.7889     0.0422     0.0225     0.0189     0.0179     0.0000     0.0000     0.0000     0.0000     0.0000 </r>
        <r>    14.9412     0.0375     0.0236     0.0332     0.0347     0.0000     0.0000     0.0000     0.0000     0.0000 </r>
        <r>    15.0934     0.0427     0.0308     0.0263     0.0278     0.0000     0.0000     0.0000     0.0000     0.0000 </r>
        <r>    15.2457     0.0229     0.0261     0.0360     0.0381     0.0000     0.0000     0.0000     0.0000     0.0000 </r>
        <r>    15.3980     0.0181     0.0263     0.0265     0.0286     0.0000     0.0000     0.0000     0.0000     0.0000 </r>
        <r>    15.5503     0.0235     0.0254     0.0353     0.0388     0.0000     0.0000     0.0000     0.0000     0.0000 </r>
        <r>    15.7026     0.0289     0.0376     0.0492     0.0499     0.0000     0.0000     0.0000     0.0000     0.0000 </r>
        <r>    15.8548     0.0079     0.0210     0.0503     0.0529     0.0000     0.0000     0.0000     0.0000     0.0000 </r>
        <r>    16.0071     0.0177     0.0351     0.1024     0.1054     0.0000     0.0000     0.0000     0.0000     0.0000 </r>
        <r>    16.1594     0.0083     0.0216     0.0143     0.0161     0.0000     0.0000     0.0000     0.0000     0.0000 </r>
        <r>    16.3117     0.0170     0.0407     0.0147     0.0172     0.0000     0.0000     0.0000     0.0000     0.0000 </r>
        <r>    16.4640     0.0139     0.1248     0.2099     0.1275     0.0000     0.0000     0.0000     0.0000     0.0000 </r>
        <r>    16.6162     0.0177     0.0650     0.0477     0.0346     0.0000     0.0000     0.0000     0.0000     0.0000 </r>
        <r>    16.7685     0.0067     0.0353     0.0084     0.0140     0.0000     0.0000     0.0000     0.0000     0.0000 </r>
        <r>    16.9208     0.0213     0.0220     0.0066     0.0094     0.0000     0.0000     0.0000     0.0000     0.0000 </r>
        <r>    17.0731     0.0129     0.0183     0.0069     0.0058     0.0000     0.0000     0.0000     0.0000     0.0000 </r>
        <r>    17.2254     0.0136     0.0296     0.0242     0.0124     0.0000     0.0000     0.0000     0.0000     0.0000 </r>
        <r>    17.3776     0.0123     0.0127     0.0081     0.0089     0.0000     0.0000     0.0000     0.0000     0.0000 </r>
        <r>    17.5299     0.0098     0.0144     0.0041     0.0083     0.0000     0.0000     0.0000     0.0000     0.0000 </r>
        <r>    17.6822     0.0088     0.0134     0.0067     0.0048     0.0000     0.0000     0.0000     0.0000     0.0000 </r>
        <r>    17.8345     0.0088     0.0133     0.0044     0.0040     0.0000     0.0000     0.0000     0.0000     0.0000 </r>
        <r>    17.9868     0.0088     0.0160     0.0073     0.0023     0.0000     0.0000     0.0000     0.0000     0.0000 </r>
        <r>    18.1390     0.0082     0.0194     0.0054     0.0052     0.0000     0.0000     0.0000     0.0000     0.0000 </r>
        <r>    18.2913     0.0090     0.0133     0.0044     0.0053     0.0000     0.0000     0.0000     0.0000     0.0000 </r>
        <r>    18.4436     0.0029     0.0164     0.0012     0.0030     0.0000     0.0000     0.0000     0.0000     0.0000 </r>
        <r>    18.5959     0.0129     0.0462     0.0036     0.0045     0.0000     0.0000     0.0000     0.0000     0.0000 </r>
        <r>    18.7482     0.0433     0.0842     0.0257     0.0092     0.0000     0.0000     0.0000     0.0000     0.0000 </r>
        <r>    18.9004     0.0399     0.0805     0.0309     0.0041     0.0000     0.0000     0.0000     0.0000     0.0000 </r>
        <r>    19.0527     0.0251     0.0382     0.0063     0.0057     0.0000     0.0000     0.0000     0.0000     0.0000 </r>
        <r>    19.2050     0.0163     0.0261     0.0115     0.0135     0.0000     0.0000     0.0000     0.0000     0.0000 </r>
        <r>    19.3573     0.0064     0.0195     0.0205     0.0066     0.0000     0.0000     0.0000     0.0000     0.0000 </r>
        <r>    19.5096     0.0107     0.0131     0.0132     0.0080     0.0000     0.0000     0.0000     0.0000     0.0000 </r>
        <r>    19.6618     0.0033     0.0251     0.0161     0.0035     0.0000     0.0000     0.0000     0.0000     0.0000 </r>
        <r>    19.8141     0.0036     0.0067     0.0074     0.0044     0.0000     0.0000     0.0000     0.0000     0.0000 </r>
        <r>    19.9664     0.0032     0.0092     0.0121     0.0033     0.0000     0.0000     0.0000     0.0000     0.0000 </r>
        <r>    20.1187     0.0032     0.0123     0.0192     0.0052     0.0000     0.0000     0.0000     0.0000     0.0000 </r>
        <r>    20.2710     0.0053     0.0129     0.0224     0.0060     0.0000     0.0000     0.0000     0.0000     0.0000 </r>
        <r>    20.4233     0.0011     0.0027     0.0066     0.0017     0.0000     0.0000     0.0000     0.0000     0.0000 </r>
        <r>    20.5755     0.0048     0.0226     0.0195     0.0091     0.0000     0.0000     0.0000     0.0000     0.0000 </r>
        <r>    20.7278     0.0047     0.0252     0.0321     0.0114     0.0000     0.0000     0.0000     0.0000     0.0000 </r>
        <r>    20.8801     0.0014     0.0051     0.0209     0.0053     0.0000     0.0000     0.0000     0.0000     0.0000 </r>
        <r>    21.0324     0.0009     0.0046     0.0089     0.0048     0.0000     0.0000     0.0000     0.0000     0.0000 </r>
        <r>    21.1847     0.0009     0.0127     0.0043     0.0052     0.0000     0.0000     0.0000     0.0000     0.0000 </r>
        <r>    21.3369     0.0051     0.0155     0.0174     0.0089     0.0000     0.0000     0.0000     0.0000     0.0000 </r>
        <r>    21.4892     0.0032     0.0061     0.0115     0.0038     0.0000     0.0000     0.0000     0.0000     0.0000 </r>
        <r>    21.6415     0.0013     0.0062     0.0067     0.0037     0.0000     0.0000     0.0000     0.0000     0.0000 </r>
        <r>    21.7938     0.0009     0.0025     0.0010     0.0049     0.0000     0.0000     0.0000     0.0000     0.0000 </r>
        <r>    21.9461     0.0046     0.0041     0.0042     0.0023     0.0000     0.0000     0.0000     0.0000     0.0000 </r>
        <r>    22.0983     0.0041     0.0051     0.0043     0.0057     0.0000     0.0000     0.0000     0.0000     0.0000 </r>
        <r>    22.2506     0.0065     0.0044     0.0140     0.0111     0.0000     0.0000     0.0000     0.0000     0.0000 </r>
        <r>    22.4029     0.0032     0.0033     0.0124     0.0075     0.0000     0.0000     0.0000     0.0000     0.0000 </r>
        <r>    22.5552     0.0048     0.0038     0.0065     0.0058     0.0000     0.0000     0.0000     0.0000     0.0000 </r>
        <r>    22.7075     0.0021     0.0034     0.0041     0.0035     0.0000     0.0000     0.0000     0.0000     0.0000 </r>
        <r>    22.8597     0.0056     0.0034     0.0048     0.0039     0.0000     0.0000     0.0000     0.0000     0.0000 </r>
        <r>    23.0120     0.0015     0.0048     0.0047     0.0019     0.0000     0.0000     0.0000     0.0000     0.0000 </r>
        <r>    23.1643     0.0025     0.0018     0.0020     0.0011     0.0000     0.0000     0.0000     0.0000     0.0000 </r>
        <r>    23.3166     0.0047     0.0070     0.0101     0.0046     0.0000     0.0000     0.0000     0.0000     0.0000 </r>
        <r>    23.4689     0.0041     0.0067     0.0107     0.0082     0.0000     0.0000     0.0000     0.0000     0.0000 </r>
        <r>    23.6211     0.0014     0.0007     0.0015     0.0029     0.0000     0.0000     0.0000     0.0000     0.0000 </r>
        <r>    23.7734     0.0000     0.0000     0.0000     0.0000     0.0000     0.0000     0.0000     0.0000     0.0000 </r>
        <r>    23.9257     0.0044     0.0067     0.0110     0.0117     0.0000     0.0000     0.0000     0.0000     0.0000 </r>
        <r>    24.0780     0.0083     0.0044     0.0048     0.0079     0.0000     0.0000     0.0000     0.0000     0.0000 </r>
        <r>    24.2303     0.0038     0.0003     0.0065     0.0015     0.0000     0.0000     0.0000     0.0000     0.0000 </r>
        <r>    24.3825     0.0074     0.0019     0.0040     0.0023     0.0000     0.0000     0.0000     0.0000     0.0000 </r>
        <r>    24.5348     0.0121     0.0087     0.0108     0.0070     0.0000     0.0000     0.0000     0.0000     0.0000 </r>
        <r>    24.6871     0.0073     0.0066     0.0179     0.0059     0.0000     0.0000     0.0000     0.0000     0.0000 </r>
        <r>    24.8394     0.0133     0.0057     0.0096     0.0103     0.0000     0.0000     0.0000     0.0000     0.0000 </r>
        <r>    24.9917     0.0046     0.0032     0.0020     0.0049     0.0000     0.0000     0.0000     0.0000     0.0000 </r>
        <r>    25.1439     0.0042     0.0053     0.0045     0.0017     0.0000     0.0000     0.0000     0.0000     0.0000 </r>
        <r>    25.2962     0.0075     0.0003     0.0041     0.0015     0.0000     0.0000     0.0000     0.0000     0.0000 </r>
        <r>    25.4485     0.0072     0.0008     0.0026     0.0061     0.0000     0.0000     0.0000     0.0000     0.0000 </r>
        <r>    25.6008     0.0096     0.0029     0.0065     0.0084     0.0000     0.0000     0.0000     0.0000     0.0000 </r>
        <r>    25.7531     0.0037     0.0031     0.0028     0.0041     0.0000     0.0000     0.0000     0.0000     0.0000 </r>
        <r>    25.9054     0.0053     0.0028     0.0029     0.0064     0.0000     0.0000     0.0000     0.0000     0.0000 </r>
        <r>    26.0576     0.0065     0.0016     0.0037     0.0035     0.0000     0.0000     0.0000     0.0000     0.0000 </r>
        <r>    26.2099     0.0008     0.0026     0.0036     0.0016     0.0000     0.0000     0.0000     0.0000     0.0000 </r>
        <r>    26.3622     0.0002     0.0027     0.0028     0.0014     0.0000     0.0000     0.0000     0.0000     0.0000 </r>
        <r>    26.5145     0.0000     0.0000     0.0000     0.0000     0.0000     0.0000     0.0000     0.0000     0.0000 </r>
        <r>    26.6668     0.0019     0.0011     0.0049     0.0008     0.0000     0.0000     0.0000     0.0000     0.0000 </r>
        <r>    26.8190     0.0021     0.0007     0.0018     0.0003     0.0000     0.0000     0.0000     0.0000     0.0000 </r>
        <r>    26.9713     0.0122     0.0004     0.0025     0.0025     0.0000     0.0000     0.0000     0.0000     0.0000 </r>
        <r>    27.1236     0.0069     0.0007     0.0011     0.0008     0.0000     0.0000     0.0000     0.0000     0.0000 </r>
        <r>    27.2759     0.0013     0.0001     0.0001     0.0006     0.0000     0.0000     0.0000     0.0000     0.0000 </r>
        <r>    27.4282     0.0015     0.0001     0.0004     0.0009     0.0000     0.0000     0.0000     0.0000     0.0000 </r>
        <r>    27.5804     0.0019     0.0007     0.0009     0.0025     0.0000     0.0000     0.0000     0.0000     0.0000 </r>
        <r>    27.7327     0.0013     0.0015     0.0023     0.0034     0.0000     0.0000     0.0000     0.0000     0.0000 </r>
        <r>    27.8850     0.0004     0.0003     0.0007     0.0006     0.0000     0.0000     0.0000     0.0000     0.0000 </r>
        <r>    28.0373     0.0000     0.0000     0.0000     0.0000     0.0000     0.0000     0.0000     0.0000     0.0000 </r>
        <r>    28.1896     0.0013     0.0023     0.0026     0.0036     0.0000     0.0000     0.0000     0.0000     0.0000 </r>
        <r>    28.3418     0.0004     0.0009     0.0013     0.0037     0.0000     0.0000     0.0000     0.0000     0.0000 </r>
        <r>    28.4941     0.0008     0.0009     0.0034     0.0022     0.0000     0.0000     0.0000     0.0000     0.0000 </r>
        <r>    28.6464     0.0001     0.0001     0.0016     0.0008     0.0000     0.0000     0.0000     0.0000     0.0000 </r>
        <r>    28.7987     0.0000     0.0000     0.0000     0.0002     0.0000     0.0000     0.0000     0.0000     0.0000 </r>
        <r>    28.9510     0.0009     0.0011     0.0008     0.0050     0.0000     0.0000     0.0000     0.0000     0.0000 </r>
        <r>    29.1032     0.0026     0.0039     0.0040     0.0118     0.0000     0.0000     0.0000     0.0000     0.0000 </r>
        <r>    29.2555     0.0013     0.0023     0.0014     0.0049     0.0000     0.0000     0.0000     0.0000     0.0000 </r>
        <r>    29.4078     0.0007     0.0012     0.0022     0.0012     0.0000     0.0000     0.0000     0.0000     0.0000 </r>
        <r>    29.5601     0.0010     0.0025     0.0027     0.0015     0.0000     0.0000     0.0000     0.0000     0.0000 </r>
        <r>    29.7124     0.0000     0.0000     0.0000     0.0000     0.0000     0.0000     0.0000     0.0000     0.0000 </r>
        <r>    29.8646     0.0000     0.0009     0.0016     0.0013     0.0000     0.0000     0.0000     0.0000     0.0000 </r>
        <r>    30.0169     0.0000     0.0000     0.0000     0.0000     0.0000     0.0000     0.0000     0.0000     0.0000 </r>
        <r>    30.1692     0.0000     0.0000     0.0000     0.0000     0.0000     0.0000     0.0000     0.0000     0.0000 </r>
        <r>    30.3215     0.0000     0.0000     0.0000     0.0000     0.0000     0.0000     0.0000     0.0000     0.0000 </r>
        <r>    30.4738     0.0000     0.0000     0.0000     0.0000     0.0000     0.0000     0.0000     0.0000     0.0000 </r>
        <r>    30.6261     0.0000     0.0000     0.0000     0.0000     0.0000     0.0000     0.0000     0.0000     0.0000 </r>
        <r>    30.7783     0.0003     0.0001     0.0009     0.0013     0.0000     0.0000     0.0000     0.0000     0.0000 </r>
        <r>    30.9306     0.0002     0.0000     0.0004     0.0009     0.0000     0.0000     0.0000     0.0000     0.0000 </r>
        <r>    31.0829     0.0000     0.0000     0.0000     0.0000     0.0000     0.0000     0.0000     0.0000     0.0000 </r>
        <r>    31.2352     0.0000     0.0000     0.0000     0.0000     0.0000     0.0000     0.0000     0.0000     0.0000 </r>
        <r>    31.3875     0.0000     0.0000     0.0000     0.0000     0.0000     0.0000     0.0000     0.0000     0.0000 </r>
        <r>    31.5397     0.0000     0.0000     0.0000     0.0000     0.0000     0.0000     0.0000     0.0000     0.0000 </r>
        <r>    31.6920     0.0000     0.0000     0.0000     0.0000     0.0000     0.0000     0.0000     0.0000     0.0000 </r>
        <r>    31.8443     0.0000     0.0000     0.0000     0.0000     0.0000     0.0000     0.0000     0.0000     0.0000 </r>
        <r>    31.9966     0.0001     0.0010     0.0021     0.0013     0.0000     0.0000     0.0000     0.0000     0.0000 </r>
        <r>    32.1489     0.0000     0.0005     0.0010     0.0006     0.0000     0.0000     0.0000     0.0000     0.0000 </r>
        <r>    32.3011     0.0000     0.0000     0.0001     0.0000     0.0000     0.0000     0.0000     0.0000     0.0000 </r>
        <r>    32.4534     0.0004     0.0024     0.0043     0.0012     0.0000     0.0000     0.0000     0.0000     0.0000 </r>
        <r>    32.6057     0.0004     0.0003     0.0001     0.0004     0.0000     0.0000     0.0000     0.0000     0.0000 </r>
        <r>    32.7580     0.0007     0.0004     0.0000     0.0007     0.0000     0.0000     0.0000     0.0000     0.0000 </r>
        <r>    32.9103     0.0000     0.0000     0.0000     0.0000     0.0000     0.0000     0.0000     0.0000     0.0000 </r>
        <r>    33.0625     0.0000     0.0000     0.0000     0.0000     0.0000     0.0000     0.0000     0.0000     0.0000 </r>
        <r>    33.2148     0.0001     0.0000     0.0000     0.0000     0.0000     0.0000     0.0000     0.0000     0.0000 </r>
        <r>    33.3671     0.0029     0.0007     0.0015     0.0007     0.0000     0.0000     0.0000     0.0000     0.0000 </r>
        <r>    33.5194     0.0000     0.0000     0.0000     0.0000     0.0000     0.0000     0.0000     0.0000     0.0000 </r>
        <r>    33.6717     0.0003     0.0003     0.0004     0.0007     0.0000     0.0000     0.0000     0.0000     0.0000 </r>
        <r>    33.8239     0.0001     0.0001     0.0002     0.0003     0.0000     0.0000     0.0000     0.0000     0.0000 </r>
        <r>    33.9762     0.0000     0.0000     0.0000     0.0000     0.0000     0.0000     0.0000     0.0000     0.0000 </r>
        <r>    34.1285     0.0003     0.0001     0.0001     0.0004     0.0000     0.0000     0.0000     0.0000     0.0000 </r>
        <r>    34.2808     0.0005     0.0002     0.0001     0.0006     0.0000     0.0000     0.0000     0.0000     0.0000 </r>
        <r>    34.4331     0.0000     0.0000     0.0000     0.0000     0.0000     0.0000     0.0000     0.0000     0.0000 </r>
        <r>    34.5853     0.0000     0.0000     0.0000     0.0000     0.0000     0.0000     0.0000     0.0000     0.0000 </r>
        <r>    34.7376     0.0000     0.0000     0.0000     0.0000     0.0000     0.0000     0.0000     0.0000     0.0000 </r>
        <r>    34.8899     0.0000     0.0000     0.0000     0.0000     0.0000     0.0000     0.0000     0.0000     0.0000 </r>
        <r>    35.0422     0.0000     0.0000     0.0000     0.0000     0.0000     0.0000     0.0000     0.0000     0.0000 </r>
        <r>    35.1945     0.0000     0.0000     0.0000     0.0000     0.0000     0.0000     0.0000     0.0000     0.0000 </r>
        <r>    35.3467     0.0003     0.0000     0.0000     0.0000     0.0000     0.0000     0.0000     0.0000     0.0000 </r>
        <r>    35.4990     0.0053     0.0001     0.0001     0.0003     0.0000     0.0000     0.0000     0.0000     0.0000 </r>
        <r>    35.6513     0.0000     0.0000     0.0000     0.0000     0.0000     0.0000     0.0000     0.0000     0.0000 </r>
        <r>    35.8036     0.0000     0.0000     0.0000     0.0000     0.0000     0.0000     0.0000     0.0000     0.0000 </r>
        <r>    35.9559     0.0000     0.0000     0.0000     0.0000     0.0000     0.0000     0.0000     0.0000     0.0000 </r>
        <r>    36.1082     0.0000     0.0000     0.0000     0.0000     0.0000     0.0000     0.0000     0.0000     0.0000 </r>
        <r>    36.2604     0.0000     0.0000     0.0000     0.0000     0.0000     0.0000     0.0000     0.0000     0.0000 </r>
        <r>    36.4127     0.0000     0.0000     0.0000     0.0000     0.0000     0.0000     0.0000     0.0000     0.0000 </r>
        <r>    36.5650     0.0000     0.0000     0.0000     0.0000     0.0000     0.0000     0.0000     0.0000     0.0000 </r>
        <r>    36.7173     0.0000     0.0000     0.0000     0.0000     0.0000     0.0000     0.0000     0.0000     0.0000 </r>
        <r>    36.8696     0.0000     0.0000     0.0000     0.0000     0.0000     0.0000     0.0000     0.0000     0.0000 </r>
        <r>    37.0218     0.0000     0.0000     0.0000     0.0000     0.0000     0.0000     0.0000     0.0000     0.0000 </r>
        <r>    37.1741     0.0000     0.0000     0.0000     0.0000     0.0000     0.0000     0.0000     0.0000     0.0000 </r>
        <r>    37.3264     0.0000     0.0000     0.0000     0.0000     0.0000     0.0000     0.0000     0.0000     0.0000 </r>
        <r>    37.4787     0.0000     0.0000     0.0000     0.0000     0.0000     0.0000     0.0000     0.0000     0.0000 </r>
       </set>
      </set>
      <set comment="ion 2">
       <set comment="spin 1">
        <r>    -8.2055     0.0000     0.0000     0.0000     0.0000     0.0000     0.0000     0.0000     0.0000     0.0000 </r>
        <r>    -8.0532     0.0000     0.0000     0.0000     0.0000     0.0000     0.0000     0.0000     0.0000     0.0000 </r>
        <r>    -7.9009     0.0000     0.0000     0.0000     0.0000     0.0000     0.0000     0.0000     0.0000     0.0000 </r>
        <r>    -7.7487     0.0000     0.0000     0.0000     0.0000     0.0000     0.0000     0.0000     0.0000     0.0000 </r>
        <r>    -7.5964     0.0000     0.0000     0.0000     0.0000     0.0000     0.0000     0.0000     0.0000     0.0000 </r>
        <r>    -7.4441     0.0000     0.0000     0.0000     0.0000     0.0000     0.0000     0.0000     0.0000     0.0000 </r>
        <r>    -7.2918     0.0000     0.0000     0.0000     0.0000     0.0000     0.0000     0.0000     0.0000     0.0000 </r>
        <r>    -7.1395     0.0000     0.0000     0.0000     0.0000     0.0000     0.0000     0.0000     0.0000     0.0000 </r>
        <r>    -6.9873     0.0000     0.0000     0.0000     0.0000     0.0000     0.0000     0.0000     0.0000     0.0000 </r>
        <r>    -6.8350     0.0000     0.0000     0.0000     0.0000     0.0000     0.0000     0.0000     0.0000     0.0000 </r>
        <r>    -6.6827     0.0000     0.0000     0.0000     0.0000     0.0000     0.0000     0.0000     0.0000     0.0000 </r>
        <r>    -6.5304     0.0000     0.0000     0.0000     0.0000     0.0000     0.0000     0.0000     0.0000     0.0000 </r>
        <r>    -6.3781     0.0000     0.0000     0.0000     0.0000     0.0000     0.0000     0.0000     0.0000     0.0000 </r>
        <r>    -6.2259     0.0003     0.0000     0.0000     0.0000     0.0000     0.0000     0.0000     0.0000     0.0000 </r>
        <r>    -6.0736     0.1996     0.0001     0.0000     0.0001     0.0000     0.0000     0.0000     0.0000     0.0000 </r>
        <r>    -5.9213     0.1899     0.0007     0.0001     0.0003     0.0000     0.0000     0.0000     0.0000     0.0000 </r>
        <r>    -5.7690     0.1174     0.0010     0.0002     0.0005     0.0000     0.0000     0.0000     0.0000     0.0000 </r>
        <r>    -5.6167     0.0943     0.0012     0.0003     0.0006     0.0000     0.0000     0.0000     0.0000     0.0000 </r>
        <r>    -5.4644     0.0804     0.0014     0.0003     0.0007     0.0000     0.0000     0.0000     0.0000     0.0000 </r>
        <r>    -5.3122     0.0736     0.0017     0.0003     0.0007     0.0000     0.0000     0.0000     0.0000     0.0000 </r>
        <r>    -5.1599     0.0649     0.0017     0.0004     0.0008     0.0000     0.0000     0.0000     0.0000     0.0000 </r>
        <r>    -5.0076     0.0612     0.0019     0.0004     0.0009     0.0000     0.0000     0.0000     0.0000     0.0000 </r>
        <r>    -4.8553     0.0612     0.0021     0.0005     0.0009     0.0000     0.0000     0.0000     0.0000     0.0000 </r>
        <r>    -4.7030     0.0563     0.0022     0.0005     0.0009     0.0000     0.0000     0.0000     0.0000     0.0000 </r>
        <r>    -4.5508     0.0556     0.0023     0.0006     0.0010     0.0000     0.0000     0.0000     0.0000     0.0000 </r>
        <r>    -4.3985     0.0520     0.0024     0.0006     0.0010     0.0000     0.0000     0.0000     0.0000     0.0000 </r>
        <r>    -4.2462     0.0527     0.0025     0.0006     0.0011     0.0000     0.0000     0.0000     0.0000     0.0000 </r>
        <r>    -4.0939     0.0530     0.0026     0.0007     0.0012     0.0000     0.0000     0.0000     0.0000     0.0000 </r>
        <r>    -3.9416     0.0566     0.0027     0.0008     0.0013     0.0000     0.0000     0.0000     0.0000     0.0000 </r>
        <r>    -3.7894     0.0803     0.0032     0.0014     0.0018     0.0000     0.0000     0.0000     0.0000     0.0000 </r>
        <r>    -3.6371     0.0383     0.0023     0.0005     0.0009     0.0000     0.0000     0.0000     0.0000     0.0000 </r>
        <r>    -3.4848     0.0268     0.0024     0.0003     0.0006     0.0000     0.0000     0.0000     0.0000     0.0000 </r>
        <r>    -3.3325     0.0282     0.0027     0.0004     0.0006     0.0000     0.0000     0.0000     0.0000     0.0000 </r>
        <r>    -3.1802     0.0279     0.0027     0.0005     0.0006     0.0000     0.0000     0.0000     0.0000     0.0000 </r>
        <r>    -3.0280     0.0248     0.0022     0.0006     0.0006     0.0000     0.0000     0.0000     0.0000     0.0000 </r>
        <r>    -2.8757     0.0249     0.0021     0.0008     0.0006     0.0000     0.0000     0.0000     0.0000     0.0000 </r>
        <r>    -2.7234     0.0311     0.0030     0.0011     0.0006     0.0000     0.0000     0.0000     0.0000     0.0000 </r>
        <r>    -2.5711     0.0325     0.0032     0.0014     0.0006     0.0000     0.0000     0.0000     0.0000     0.0000 </r>
        <r>    -2.4188     0.0562     0.0029     0.0050     0.0011     0.0000     0.0000     0.0000     0.0000     0.0000 </r>
        <r>    -2.2666     0.2546     0.0106     0.0266     0.0033     0.0000     0.0000     0.0000     0.0000     0.0000 </r>
        <r>    -2.1143     0.1360     0.0105     0.0131     0.0005     0.0000     0.0000     0.0000     0.0000     0.0000 </r>
        <r>    -1.9620     0.3450     0.0655     0.0105     0.0001     0.0000     0.0000     0.0000     0.0000     0.0000 </r>
        <r>    -1.8097     0.8027     0.1385     0.0360     0.0001     0.0000     0.0000     0.0000     0.0000     0.0000 </r>
        <r>    -1.6574     0.1990     0.0244     0.0182     0.0000     0.0000     0.0000     0.0000     0.0000     0.0000 </r>
        <r>    -1.5052     0.1337     0.0124     0.0198     0.0005     0.0000     0.0000     0.0000     0.0000     0.0000 </r>
        <r>    -1.3529     0.2908     0.0148     0.0630     0.0052     0.0000     0.0000     0.0000     0.0000     0.0000 </r>
        <r>    -1.2006     0.0460     0.0049     0.0079     0.0011     0.0000     0.0000     0.0000     0.0000     0.0000 </r>
        <r>    -1.0483     0.0463     0.0099     0.0104     0.0070     0.0000     0.0000     0.0000     0.0000     0.0000 </r>
        <r>    -0.8960     0.0321     0.0059     0.0075     0.0046     0.0000     0.0000     0.0000     0.0000     0.0000 </r>
        <r>    -0.7437     0.0365     0.0079     0.0063     0.0038     0.0000     0.0000     0.0000     0.0000     0.0000 </r>
        <r>    -0.5915     0.0269     0.0054     0.0055     0.0033     0.0000     0.0000     0.0000     0.0000     0.0000 </r>
        <r>    -0.4392     0.0259     0.0054     0.0050     0.0030     0.0000     0.0000     0.0000     0.0000     0.0000 </r>
        <r>    -0.2869     0.0293     0.0072     0.0045     0.0027     0.0000     0.0000     0.0000     0.0000     0.0000 </r>
        <r>    -0.1346     0.0187     0.0039     0.0044     0.0030     0.0000     0.0000     0.0000     0.0000     0.0000 </r>
        <r>     0.0177     0.0270     0.0075     0.0044     0.0033     0.0000     0.0000     0.0000     0.0000     0.0000 </r>
        <r>     0.1699     0.0243     0.0067     0.0042     0.0031     0.0000     0.0000     0.0000     0.0000     0.0000 </r>
        <r>     0.3222     0.0178     0.0040     0.0037     0.0024     0.0000     0.0000     0.0000     0.0000     0.0000 </r>
        <r>     0.4745     0.0292     0.0088     0.0047     0.0036     0.0000     0.0000     0.0000     0.0000     0.0000 </r>
        <r>     0.6268     0.0166     0.0048     0.0040     0.0034     0.0000     0.0000     0.0000     0.0000     0.0000 </r>
        <r>     0.7791     0.0181     0.0062     0.0023     0.0018     0.0000     0.0000     0.0000     0.0000     0.0000 </r>
        <r>     0.9313     0.0251     0.0081     0.0046     0.0038     0.0000     0.0000     0.0000     0.0000     0.0000 </r>
        <r>     1.0836     0.0183     0.0056     0.0046     0.0041     0.0000     0.0000     0.0000     0.0000     0.0000 </r>
        <r>     1.2359     0.0167     0.0071     0.0014     0.0012     0.0000     0.0000     0.0000     0.0000     0.0000 </r>
        <r>     1.3882     0.0183     0.0078     0.0072     0.0065     0.0000     0.0000     0.0000     0.0000     0.0000 </r>
        <r>     1.5405     0.0234     0.0521     0.0462     0.0481     0.0000     0.0000     0.0000     0.0000     0.0000 </r>
        <r>     1.6927     0.0148     0.0738     0.0623     0.0777     0.0000     0.0000     0.0000     0.0000     0.0000 </r>
        <r>     1.8450     0.0207     0.0414     0.0400     0.0489     0.0000     0.0000     0.0000     0.0000     0.0000 </r>
        <r>     1.9973     0.0176     0.0570     0.0573     0.0752     0.0000     0.0000     0.0000     0.0000     0.0000 </r>
        <r>     2.1496     0.0150     0.0653     0.0892     0.1116     0.0000     0.0000     0.0000     0.0000     0.0000 </r>
        <r>     2.3019     0.0240     0.0438     0.0621     0.0733     0.0000     0.0000     0.0000     0.0000     0.0000 </r>
        <r>     2.4541     0.0135     0.0327     0.0538     0.0629     0.0000     0.0000     0.0000     0.0000     0.0000 </r>
        <r>     2.6064     0.0211     0.0321     0.0561     0.0657     0.0000     0.0000     0.0000     0.0000     0.0000 </r>
        <r>     2.7587     0.0153     0.0297     0.0551     0.0649     0.0000     0.0000     0.0000     0.0000     0.0000 </r>
        <r>     2.9110     0.0160     0.0274     0.0775     0.0890     0.0000     0.0000     0.0000     0.0000     0.0000 </r>
        <r>     3.0633     0.0165     0.0305     0.1649     0.1777     0.0000     0.0000     0.0000     0.0000     0.0000 </r>
        <r>     3.2155     0.0150     0.0327     0.0650     0.0811     0.0000     0.0000     0.0000     0.0000     0.0000 </r>
        <r>     3.3678     0.0146     0.0472     0.0467     0.0791     0.0000     0.0000     0.0000     0.0000     0.0000 </r>
        <r>     3.5201     0.0133     0.0531     0.0355     0.0739     0.0000     0.0000     0.0000     0.0000     0.0000 </r>
        <r>     3.6724     0.0130     0.0238     0.0354     0.0473     0.0000     0.0000     0.0000     0.0000     0.0000 </r>
        <r>     3.8247     0.0098     0.0235     0.0319     0.0389     0.0000     0.0000     0.0000     0.0000     0.0000 </r>
        <r>     3.9769     0.0170     0.0281     0.0335     0.0419     0.0000     0.0000     0.0000     0.0000     0.0000 </r>
        <r>     4.1292     0.0043     0.0170     0.0264     0.0348     0.0000     0.0000     0.0000     0.0000     0.0000 </r>
        <r>     4.2815     0.0170     0.0297     0.0289     0.0382     0.0000     0.0000     0.0000     0.0000     0.0000 </r>
        <r>     4.4338     0.0067     0.0207     0.0284     0.0333     0.0000     0.0000     0.0000     0.0000     0.0000 </r>
        <r>     4.5861     0.0104     0.0284     0.0334     0.0401     0.0000     0.0000     0.0000     0.0000     0.0000 </r>
        <r>     4.7384     0.0117     0.1193     0.1192     0.1268     0.0000     0.0000     0.0000     0.0000     0.0000 </r>
        <r>     4.8906     0.0057     0.0746     0.0779     0.0865     0.0000     0.0000     0.0000     0.0000     0.0000 </r>
        <r>     5.0429     0.0091     0.0667     0.0688     0.0763     0.0000     0.0000     0.0000     0.0000     0.0000 </r>
        <r>     5.1952     0.0073     0.0632     0.0632     0.0675     0.0000     0.0000     0.0000     0.0000     0.0000 </r>
        <r>     5.3475     0.0068     0.0652     0.0612     0.0704     0.0000     0.0000     0.0000     0.0000     0.0000 </r>
        <r>     5.4998     0.0052     0.0676     0.0666     0.0761     0.0000     0.0000     0.0000     0.0000     0.0000 </r>
        <r>     5.6520     0.0041     0.0802     0.0760     0.0879     0.0000     0.0000     0.0000     0.0000     0.0000 </r>
        <r>     5.8043     0.0026     0.1448     0.1290     0.1545     0.0000     0.0000     0.0000     0.0000     0.0000 </r>
        <r>     5.9566     0.0003     0.0934     0.0820     0.0973     0.0000     0.0000     0.0000     0.0000     0.0000 </r>
        <r>     6.1089     0.0000     0.0000     0.0000     0.0000     0.0000     0.0000     0.0000     0.0000     0.0000 </r>
        <r>     6.2612     0.0000     0.0000     0.0000     0.0000     0.0000     0.0000     0.0000     0.0000     0.0000 </r>
        <r>     6.4134     0.0120     0.0099     0.0000     0.0000     0.0000     0.0000     0.0000     0.0000     0.0000 </r>
        <r>     6.5657     0.0553     0.0436     0.0001     0.0001     0.0000     0.0000     0.0000     0.0000     0.0000 </r>
        <r>     6.7180     0.0494     0.0384     0.0010     0.0014     0.0000     0.0000     0.0000     0.0000     0.0000 </r>
        <r>     6.8703     0.0298     0.0254     0.0016     0.0022     0.0000     0.0000     0.0000     0.0000     0.0000 </r>
        <r>     7.0226     0.0287     0.0218     0.0055     0.0029     0.0000     0.0000     0.0000     0.0000     0.0000 </r>
        <r>     7.1748     0.0463     0.0198     0.0215     0.0048     0.0000     0.0000     0.0000     0.0000     0.0000 </r>
        <r>     7.3271     0.0382     0.0198     0.0145     0.0060     0.0000     0.0000     0.0000     0.0000     0.0000 </r>
        <r>     7.4794     0.1354     0.0223     0.0161     0.0103     0.0000     0.0000     0.0000     0.0000     0.0000 </r>
        <r>     7.6317     0.0863     0.0231     0.0151     0.0104     0.0000     0.0000     0.0000     0.0000     0.0000 </r>
        <r>     7.7840     0.0653     0.0224     0.0143     0.0105     0.0000     0.0000     0.0000     0.0000     0.0000 </r>
        <r>     7.9362     0.0550     0.0243     0.0139     0.0109     0.0000     0.0000     0.0000     0.0000     0.0000 </r>
        <r>     8.0885     0.0493     0.0258     0.0148     0.0118     0.0000     0.0000     0.0000     0.0000     0.0000 </r>
        <r>     8.2408     0.0456     0.0312     0.0163     0.0136     0.0000     0.0000     0.0000     0.0000     0.0000 </r>
        <r>     8.3931     0.0433     0.0768     0.0461     0.0486     0.0000     0.0000     0.0000     0.0000     0.0000 </r>
        <r>     8.5454     0.0392     0.1218     0.1281     0.1390     0.0000     0.0000     0.0000     0.0000     0.0000 </r>
        <r>     8.6976     0.0331     0.0477     0.0800     0.0657     0.0000     0.0000     0.0000     0.0000     0.0000 </r>
        <r>     8.8499     0.0601     0.0373     0.0934     0.0536     0.0000     0.0000     0.0000     0.0000     0.0000 </r>
        <r>     9.0022     0.0524     0.0336     0.0772     0.0478     0.0000     0.0000     0.0000     0.0000     0.0000 </r>
        <r>     9.1545     0.0187     0.0393     0.0438     0.0518     0.0000     0.0000     0.0000     0.0000     0.0000 </r>
        <r>     9.3068     0.2008     0.0843     0.0913     0.0996     0.0000     0.0000     0.0000     0.0000     0.0000 </r>
        <r>     9.4590     0.1025     0.0667     0.0755     0.0840     0.0000     0.0000     0.0000     0.0000     0.0000 </r>
        <r>     9.6113     0.0732     0.0174     0.0225     0.0309     0.0000     0.0000     0.0000     0.0000     0.0000 </r>
        <r>     9.7636     0.0725     0.0181     0.0182     0.0287     0.0000     0.0000     0.0000     0.0000     0.0000 </r>
        <r>     9.9159     0.0531     0.0184     0.0236     0.0389     0.0000     0.0000     0.0000     0.0000     0.0000 </r>
        <r>    10.0682     0.0767     0.0577     0.0390     0.1147     0.0000     0.0000     0.0000     0.0000     0.0000 </r>
        <r>    10.2205     0.0652     0.0327     0.0191     0.1150     0.0000     0.0000     0.0000     0.0000     0.0000 </r>
        <r>    10.3727     0.0416     0.0185     0.0184     0.0174     0.0000     0.0000     0.0000     0.0000     0.0000 </r>
        <r>    10.5250     0.0241     0.0100     0.0188     0.0202     0.0000     0.0000     0.0000     0.0000     0.0000 </r>
        <r>    10.6773     0.0175     0.0075     0.0111     0.0103     0.0000     0.0000     0.0000     0.0000     0.0000 </r>
        <r>    10.8296     0.0285     0.0199     0.0295     0.0218     0.0000     0.0000     0.0000     0.0000     0.0000 </r>
        <r>    10.9819     0.0688     0.0501     0.0578     0.0230     0.0000     0.0000     0.0000     0.0000     0.0000 </r>
        <r>    11.1341     0.0409     0.0283     0.0357     0.0189     0.0000     0.0000     0.0000     0.0000     0.0000 </r>
        <r>    11.2864     0.0362     0.0287     0.0357     0.0327     0.0000     0.0000     0.0000     0.0000     0.0000 </r>
        <r>    11.4387     0.0431     0.0294     0.0239     0.0301     0.0000     0.0000     0.0000     0.0000     0.0000 </r>
        <r>    11.5910     0.0528     0.0366     0.0293     0.0463     0.0000     0.0000     0.0000     0.0000     0.0000 </r>
        <r>    11.7433     0.0380     0.0289     0.0338     0.0373     0.0000     0.0000     0.0000     0.0000     0.0000 </r>
        <r>    11.8955     0.0217     0.0235     0.0224     0.0270     0.0000     0.0000     0.0000     0.0000     0.0000 </r>
        <r>    12.0478     0.0193     0.0214     0.0308     0.0359     0.0000     0.0000     0.0000     0.0000     0.0000 </r>
        <r>    12.2001     0.0296     0.0232     0.0212     0.0320     0.0000     0.0000     0.0000     0.0000     0.0000 </r>
        <r>    12.3524     0.0251     0.0212     0.0208     0.0303     0.0000     0.0000     0.0000     0.0000     0.0000 </r>
        <r>    12.5047     0.0352     0.0233     0.0246     0.0324     0.0000     0.0000     0.0000     0.0000     0.0000 </r>
        <r>    12.6569     0.0259     0.0243     0.0189     0.0303     0.0000     0.0000     0.0000     0.0000     0.0000 </r>
        <r>    12.8092     0.0263     0.0213     0.0228     0.0367     0.0000     0.0000     0.0000     0.0000     0.0000 </r>
        <r>    12.9615     0.0388     0.0292     0.0312     0.0330     0.0000     0.0000     0.0000     0.0000     0.0000 </r>
        <r>    13.1138     0.0218     0.0261     0.0381     0.0429     0.0000     0.0000     0.0000     0.0000     0.0000 </r>
        <r>    13.2661     0.0231     0.0341     0.0204     0.0365     0.0000     0.0000     0.0000     0.0000     0.0000 </r>
        <r>    13.4183     0.0134     0.0278     0.0262     0.0378     0.0000     0.0000     0.0000     0.0000     0.0000 </r>
        <r>    13.5706     0.0229     0.0210     0.0226     0.0298     0.0000     0.0000     0.0000     0.0000     0.0000 </r>
        <r>    13.7229     0.0143     0.0226     0.0250     0.0311     0.0000     0.0000     0.0000     0.0000     0.0000 </r>
        <r>    13.8752     0.0890     0.0258     0.0429     0.0313     0.0000     0.0000     0.0000     0.0000     0.0000 </r>
        <r>    14.0275     0.0535     0.0137     0.0242     0.0141     0.0000     0.0000     0.0000     0.0000     0.0000 </r>
        <r>    14.1797     0.0441     0.0242     0.0302     0.0336     0.0000     0.0000     0.0000     0.0000     0.0000 </r>
        <r>    14.3320     0.0321     0.0164     0.0204     0.0166     0.0000     0.0000     0.0000     0.0000     0.0000 </r>
        <r>    14.4843     0.0299     0.0202     0.0217     0.0193     0.0000     0.0000     0.0000     0.0000     0.0000 </r>
        <r>    14.6366     0.0260     0.0175     0.0245     0.0204     0.0000     0.0000     0.0000     0.0000     0.0000 </r>
        <r>    14.7889     0.0421     0.0227     0.0199     0.0167     0.0000     0.0000     0.0000     0.0000     0.0000 </r>
        <r>    14.9412     0.0377     0.0233     0.0336     0.0350     0.0000     0.0000     0.0000     0.0000     0.0000 </r>
        <r>    15.0934     0.0443     0.0309     0.0259     0.0278     0.0000     0.0000     0.0000     0.0000     0.0000 </r>
        <r>    15.2457     0.0229     0.0265     0.0349     0.0382     0.0000     0.0000     0.0000     0.0000     0.0000 </r>
        <r>    15.3980     0.0181     0.0265     0.0263     0.0287     0.0000     0.0000     0.0000     0.0000     0.0000 </r>
        <r>    15.5503     0.0235     0.0255     0.0352     0.0388     0.0000     0.0000     0.0000     0.0000     0.0000 </r>
        <r>    15.7026     0.0287     0.0385     0.0491     0.0501     0.0000     0.0000     0.0000     0.0000     0.0000 </r>
        <r>    15.8548     0.0122     0.0225     0.0490     0.0542     0.0000     0.0000     0.0000     0.0000     0.0000 </r>
        <r>    16.0071     0.0193     0.0355     0.1018     0.1058     0.0000     0.0000     0.0000     0.0000     0.0000 </r>
        <r>    16.1594     0.0083     0.0215     0.0156     0.0151     0.0000     0.0000     0.0000     0.0000     0.0000 </r>
        <r>    16.3117     0.0178     0.0405     0.0146     0.0169     0.0000     0.0000     0.0000     0.0000     0.0000 </r>
        <r>    16.4640     0.0187     0.1294     0.2072     0.1311     0.0000     0.0000     0.0000     0.0000     0.0000 </r>
        <r>    16.6162     0.0188     0.0673     0.0470     0.0366     0.0000     0.0000     0.0000     0.0000     0.0000 </r>
        <r>    16.7685     0.0071     0.0345     0.0083     0.0145     0.0000     0.0000     0.0000     0.0000     0.0000 </r>
        <r>    16.9208     0.0179     0.0202     0.0077     0.0073     0.0000     0.0000     0.0000     0.0000     0.0000 </r>
        <r>    17.0731     0.0122     0.0167     0.0064     0.0045     0.0000     0.0000     0.0000     0.0000     0.0000 </r>
        <r>    17.2254     0.0135     0.0301     0.0240     0.0127     0.0000     0.0000     0.0000     0.0000     0.0000 </r>
        <r>    17.3776     0.0095     0.0130     0.0084     0.0084     0.0000     0.0000     0.0000     0.0000     0.0000 </r>
        <r>    17.5299     0.0092     0.0143     0.0048     0.0071     0.0000     0.0000     0.0000     0.0000     0.0000 </r>
        <r>    17.6822     0.0087     0.0135     0.0048     0.0067     0.0000     0.0000     0.0000     0.0000     0.0000 </r>
        <r>    17.8345     0.0085     0.0134     0.0037     0.0049     0.0000     0.0000     0.0000     0.0000     0.0000 </r>
        <r>    17.9868     0.0087     0.0164     0.0031     0.0069     0.0000     0.0000     0.0000     0.0000     0.0000 </r>
        <r>    18.1390     0.0069     0.0202     0.0073     0.0067     0.0000     0.0000     0.0000     0.0000     0.0000 </r>
        <r>    18.2913     0.0076     0.0132     0.0058     0.0077     0.0000     0.0000     0.0000     0.0000     0.0000 </r>
        <r>    18.4436     0.0040     0.0127     0.0013     0.0029     0.0000     0.0000     0.0000     0.0000     0.0000 </r>
        <r>    18.5959     0.0155     0.0329     0.0042     0.0046     0.0000     0.0000     0.0000     0.0000     0.0000 </r>
        <r>    18.7482     0.0306     0.1347     0.0259     0.0105     0.0000     0.0000     0.0000     0.0000     0.0000 </r>
        <r>    18.9004     0.0250     0.1268     0.0415     0.0034     0.0000     0.0000     0.0000     0.0000     0.0000 </r>
        <r>    19.0527     0.0140     0.0865     0.0144     0.0024     0.0000     0.0000     0.0000     0.0000     0.0000 </r>
        <r>    19.2050     0.0107     0.0557     0.0151     0.0057     0.0000     0.0000     0.0000     0.0000     0.0000 </r>
        <r>    19.3573     0.0061     0.0229     0.0223     0.0075     0.0000     0.0000     0.0000     0.0000     0.0000 </r>
        <r>    19.5096     0.0039     0.0340     0.0208     0.0050     0.0000     0.0000     0.0000     0.0000     0.0000 </r>
        <r>    19.6618     0.0053     0.0262     0.0160     0.0045     0.0000     0.0000     0.0000     0.0000     0.0000 </r>
        <r>    19.8141     0.0027     0.0095     0.0070     0.0042     0.0000     0.0000     0.0000     0.0000     0.0000 </r>
        <r>    19.9664     0.0053     0.0138     0.0071     0.0050     0.0000     0.0000     0.0000     0.0000     0.0000 </r>
        <r>    20.1187     0.0040     0.0144     0.0144     0.0042     0.0000     0.0000     0.0000     0.0000     0.0000 </r>
        <r>    20.2710     0.0057     0.0149     0.0170     0.0081     0.0000     0.0000     0.0000     0.0000     0.0000 </r>
        <r>    20.4233     0.0018     0.0031     0.0061     0.0025     0.0000     0.0000     0.0000     0.0000     0.0000 </r>
        <r>    20.5755     0.0044     0.0263     0.0203     0.0097     0.0000     0.0000     0.0000     0.0000     0.0000 </r>
        <r>    20.7278     0.0046     0.0264     0.0342     0.0116     0.0000     0.0000     0.0000     0.0000     0.0000 </r>
        <r>    20.8801     0.0012     0.0086     0.0168     0.0039     0.0000     0.0000     0.0000     0.0000     0.0000 </r>
        <r>    21.0324     0.0012     0.0031     0.0187     0.0015     0.0000     0.0000     0.0000     0.0000     0.0000 </r>
        <r>    21.1847     0.0024     0.0051     0.0098     0.0044     0.0000     0.0000     0.0000     0.0000     0.0000 </r>
        <r>    21.3369     0.0041     0.0211     0.0231     0.0064     0.0000     0.0000     0.0000     0.0000     0.0000 </r>
        <r>    21.4892     0.0023     0.0074     0.0073     0.0054     0.0000     0.0000     0.0000     0.0000     0.0000 </r>
        <r>    21.6415     0.0012     0.0039     0.0161     0.0025     0.0000     0.0000     0.0000     0.0000     0.0000 </r>
        <r>    21.7938     0.0008     0.0025     0.0050     0.0035     0.0000     0.0000     0.0000     0.0000     0.0000 </r>
        <r>    21.9461     0.0047     0.0028     0.0059     0.0029     0.0000     0.0000     0.0000     0.0000     0.0000 </r>
        <r>    22.0983     0.0013     0.0103     0.0110     0.0013     0.0000     0.0000     0.0000     0.0000     0.0000 </r>
        <r>    22.2506     0.0048     0.0084     0.0151     0.0095     0.0000     0.0000     0.0000     0.0000     0.0000 </r>
        <r>    22.4029     0.0029     0.0084     0.0116     0.0060     0.0000     0.0000     0.0000     0.0000     0.0000 </r>
        <r>    22.5552     0.0028     0.0098     0.0111     0.0016     0.0000     0.0000     0.0000     0.0000     0.0000 </r>
        <r>    22.7075     0.0015     0.0046     0.0061     0.0008     0.0000     0.0000     0.0000     0.0000     0.0000 </r>
        <r>    22.8597     0.0050     0.0042     0.0056     0.0033     0.0000     0.0000     0.0000     0.0000     0.0000 </r>
        <r>    23.0120     0.0018     0.0067     0.0055     0.0021     0.0000     0.0000     0.0000     0.0000     0.0000 </r>
        <r>    23.1643     0.0010     0.0035     0.0020     0.0016     0.0000     0.0000     0.0000     0.0000     0.0000 </r>
        <r>    23.3166     0.0053     0.0101     0.0075     0.0073     0.0000     0.0000     0.0000     0.0000     0.0000 </r>
        <r>    23.4689     0.0039     0.0043     0.0119     0.0053     0.0000     0.0000     0.0000     0.0000     0.0000 </r>
        <r>    23.6211     0.0015     0.0041     0.0067     0.0007     0.0000     0.0000     0.0000     0.0000     0.0000 </r>
        <r>    23.7734     0.0000     0.0000     0.0000     0.0000     0.0000     0.0000     0.0000     0.0000     0.0000 </r>
        <r>    23.9257     0.0044     0.0042     0.0119     0.0084     0.0000     0.0000     0.0000     0.0000     0.0000 </r>
        <r>    24.0780     0.0045     0.0095     0.0081     0.0065     0.0000     0.0000     0.0000     0.0000     0.0000 </r>
        <r>    24.2303     0.0031     0.0030     0.0020     0.0008     0.0000     0.0000     0.0000     0.0000     0.0000 </r>
        <r>    24.3825     0.0027     0.0037     0.0080     0.0012     0.0000     0.0000     0.0000     0.0000     0.0000 </r>
        <r>    24.5348     0.0090     0.0055     0.0178     0.0051     0.0000     0.0000     0.0000     0.0000     0.0000 </r>
        <r>    24.6871     0.0080     0.0078     0.0161     0.0085     0.0000     0.0000     0.0000     0.0000     0.0000 </r>
        <r>    24.8394     0.0083     0.0077     0.0177     0.0069     0.0000     0.0000     0.0000     0.0000     0.0000 </r>
        <r>    24.9917     0.0031     0.0049     0.0042     0.0033     0.0000     0.0000     0.0000     0.0000     0.0000 </r>
        <r>    25.1439     0.0024     0.0032     0.0044     0.0018     0.0000     0.0000     0.0000     0.0000     0.0000 </r>
        <r>    25.2962     0.0048     0.0017     0.0064     0.0018     0.0000     0.0000     0.0000     0.0000     0.0000 </r>
        <r>    25.4485     0.0060     0.0032     0.0034     0.0031     0.0000     0.0000     0.0000     0.0000     0.0000 </r>
        <r>    25.6008     0.0090     0.0023     0.0097     0.0139     0.0000     0.0000     0.0000     0.0000     0.0000 </r>
        <r>    25.7531     0.0030     0.0022     0.0063     0.0048     0.0000     0.0000     0.0000     0.0000     0.0000 </r>
        <r>    25.9054     0.0049     0.0023     0.0061     0.0038     0.0000     0.0000     0.0000     0.0000     0.0000 </r>
        <r>    26.0576     0.0050     0.0016     0.0040     0.0040     0.0000     0.0000     0.0000     0.0000     0.0000 </r>
        <r>    26.2099     0.0014     0.0006     0.0033     0.0013     0.0000     0.0000     0.0000     0.0000     0.0000 </r>
        <r>    26.3622     0.0009     0.0005     0.0011     0.0013     0.0000     0.0000     0.0000     0.0000     0.0000 </r>
        <r>    26.5145     0.0000     0.0000     0.0000     0.0000     0.0000     0.0000     0.0000     0.0000     0.0000 </r>
        <r>    26.6668     0.0005     0.0005     0.0063     0.0018     0.0000     0.0000     0.0000     0.0000     0.0000 </r>
        <r>    26.8190     0.0004     0.0009     0.0028     0.0006     0.0000     0.0000     0.0000     0.0000     0.0000 </r>
        <r>    26.9713     0.0020     0.0042     0.0019     0.0024     0.0000     0.0000     0.0000     0.0000     0.0000 </r>
        <r>    27.1236     0.0020     0.0016     0.0012     0.0042     0.0000     0.0000     0.0000     0.0000     0.0000 </r>
        <r>    27.2759     0.0002     0.0004     0.0004     0.0005     0.0000     0.0000     0.0000     0.0000     0.0000 </r>
        <r>    27.4282     0.0002     0.0005     0.0007     0.0002     0.0000     0.0000     0.0000     0.0000     0.0000 </r>
        <r>    27.5804     0.0010     0.0010     0.0033     0.0031     0.0000     0.0000     0.0000     0.0000     0.0000 </r>
        <r>    27.7327     0.0018     0.0020     0.0033     0.0011     0.0000     0.0000     0.0000     0.0000     0.0000 </r>
        <r>    27.8850     0.0004     0.0004     0.0001     0.0002     0.0000     0.0000     0.0000     0.0000     0.0000 </r>
        <r>    28.0373     0.0000     0.0000     0.0000     0.0000     0.0000     0.0000     0.0000     0.0000     0.0000 </r>
        <r>    28.1896     0.0028     0.0008     0.0028     0.0065     0.0000     0.0000     0.0000     0.0000     0.0000 </r>
        <r>    28.3418     0.0004     0.0012     0.0022     0.0031     0.0000     0.0000     0.0000     0.0000     0.0000 </r>
        <r>    28.4941     0.0001     0.0017     0.0020     0.0045     0.0000     0.0000     0.0000     0.0000     0.0000 </r>
        <r>    28.6464     0.0000     0.0004     0.0006     0.0012     0.0000     0.0000     0.0000     0.0000     0.0000 </r>
        <r>    28.7987     0.0000     0.0001     0.0001     0.0001     0.0000     0.0000     0.0000     0.0000     0.0000 </r>
        <r>    28.9510     0.0013     0.0014     0.0015     0.0061     0.0000     0.0000     0.0000     0.0000     0.0000 </r>
        <r>    29.1032     0.0014     0.0042     0.0043     0.0106     0.0000     0.0000     0.0000     0.0000     0.0000 </r>
        <r>    29.2555     0.0005     0.0020     0.0015     0.0024     0.0000     0.0000     0.0000     0.0000     0.0000 </r>
        <r>    29.4078     0.0001     0.0008     0.0030     0.0008     0.0000     0.0000     0.0000     0.0000     0.0000 </r>
        <r>    29.5601     0.0001     0.0014     0.0035     0.0007     0.0000     0.0000     0.0000     0.0000     0.0000 </r>
        <r>    29.7124     0.0000     0.0000     0.0001     0.0000     0.0000     0.0000     0.0000     0.0000     0.0000 </r>
        <r>    29.8646     0.0000     0.0000     0.0026     0.0007     0.0000     0.0000     0.0000     0.0000     0.0000 </r>
        <r>    30.0169     0.0000     0.0000     0.0000     0.0000     0.0000     0.0000     0.0000     0.0000     0.0000 </r>
        <r>    30.1692     0.0000     0.0000     0.0000     0.0000     0.0000     0.0000     0.0000     0.0000     0.0000 </r>
        <r>    30.3215     0.0000     0.0000     0.0000     0.0000     0.0000     0.0000     0.0000     0.0000     0.0000 </r>
        <r>    30.4738     0.0000     0.0000     0.0000     0.0000     0.0000     0.0000     0.0000     0.0000     0.0000 </r>
        <r>    30.6261     0.0000     0.0000     0.0000     0.0000     0.0000     0.0000     0.0000     0.0000     0.0000 </r>
        <r>    30.7783     0.0002     0.0013     0.0027     0.0008     0.0000     0.0000     0.0000     0.0000     0.0000 </r>
        <r>    30.9306     0.0001     0.0007     0.0013     0.0003     0.0000     0.0000     0.0000     0.0000     0.0000 </r>
        <r>    31.0829     0.0000     0.0000     0.0000     0.0000     0.0000     0.0000     0.0000     0.0000     0.0000 </r>
        <r>    31.2352     0.0000     0.0000     0.0000     0.0000     0.0000     0.0000     0.0000     0.0000     0.0000 </r>
        <r>    31.3875     0.0000     0.0000     0.0000     0.0000     0.0000     0.0000     0.0000     0.0000     0.0000 </r>
        <r>    31.5397     0.0000     0.0000     0.0000     0.0000     0.0000     0.0000     0.0000     0.0000     0.0000 </r>
        <r>    31.6920     0.0000     0.0000     0.0000     0.0000     0.0000     0.0000     0.0000     0.0000     0.0000 </r>
        <r>    31.8443     0.0000     0.0000     0.0000     0.0000     0.0000     0.0000     0.0000     0.0000     0.0000 </r>
        <r>    31.9966     0.0000     0.0031     0.0011     0.0001     0.0000     0.0000     0.0000     0.0000     0.0000 </r>
        <r>    32.1489     0.0000     0.0015     0.0005     0.0001     0.0000     0.0000     0.0000     0.0000     0.0000 </r>
        <r>    32.3011     0.0000     0.0001     0.0001     0.0000     0.0000     0.0000     0.0000     0.0000     0.0000 </r>
        <r>    32.4534     0.0004     0.0029     0.0039     0.0016     0.0000     0.0000     0.0000     0.0000     0.0000 </r>
        <r>    32.6057     0.0009     0.0003     0.0004     0.0002     0.0000     0.0000     0.0000     0.0000     0.0000 </r>
        <r>    32.7580     0.0014     0.0004     0.0005     0.0003     0.0000     0.0000     0.0000     0.0000     0.0000 </r>
        <r>    32.9103     0.0000     0.0000     0.0000     0.0000     0.0000     0.0000     0.0000     0.0000     0.0000 </r>
        <r>    33.0625     0.0000     0.0000     0.0000     0.0000     0.0000     0.0000     0.0000     0.0000     0.0000 </r>
        <r>    33.2148     0.0000     0.0000     0.0000     0.0000     0.0000     0.0000     0.0000     0.0000     0.0000 </r>
        <r>    33.3671     0.0015     0.0008     0.0006     0.0010     0.0000     0.0000     0.0000     0.0000     0.0000 </r>
        <r>    33.5194     0.0000     0.0000     0.0000     0.0000     0.0000     0.0000     0.0000     0.0000     0.0000 </r>
        <r>    33.6717     0.0017     0.0002     0.0001     0.0008     0.0000     0.0000     0.0000     0.0000     0.0000 </r>
        <r>    33.8239     0.0007     0.0001     0.0000     0.0003     0.0000     0.0000     0.0000     0.0000     0.0000 </r>
        <r>    33.9762     0.0000     0.0000     0.0000     0.0000     0.0000     0.0000     0.0000     0.0000     0.0000 </r>
        <r>    34.1285     0.0001     0.0005     0.0001     0.0001     0.0000     0.0000     0.0000     0.0000     0.0000 </r>
        <r>    34.2808     0.0001     0.0009     0.0002     0.0002     0.0000     0.0000     0.0000     0.0000     0.0000 </r>
        <r>    34.4331     0.0000     0.0000     0.0000     0.0000     0.0000     0.0000     0.0000     0.0000     0.0000 </r>
        <r>    34.5853     0.0000     0.0000     0.0000     0.0000     0.0000     0.0000     0.0000     0.0000     0.0000 </r>
        <r>    34.7376     0.0000     0.0000     0.0000     0.0000     0.0000     0.0000     0.0000     0.0000     0.0000 </r>
        <r>    34.8899     0.0000     0.0000     0.0000     0.0000     0.0000     0.0000     0.0000     0.0000     0.0000 </r>
        <r>    35.0422     0.0000     0.0000     0.0000     0.0000     0.0000     0.0000     0.0000     0.0000     0.0000 </r>
        <r>    35.1945     0.0000     0.0000     0.0000     0.0000     0.0000     0.0000     0.0000     0.0000     0.0000 </r>
        <r>    35.3467     0.0000     0.0001     0.0000     0.0000     0.0000     0.0000     0.0000     0.0000     0.0000 </r>
        <r>    35.4990     0.0003     0.0009     0.0002     0.0001     0.0000     0.0000     0.0000     0.0000     0.0000 </r>
        <r>    35.6513     0.0000     0.0000     0.0000     0.0000     0.0000     0.0000     0.0000     0.0000     0.0000 </r>
        <r>    35.8036     0.0000     0.0000     0.0000     0.0000     0.0000     0.0000     0.0000     0.0000     0.0000 </r>
        <r>    35.9559     0.0000     0.0000     0.0000     0.0000     0.0000     0.0000     0.0000     0.0000     0.0000 </r>
        <r>    36.1082     0.0000     0.0000     0.0000     0.0000     0.0000     0.0000     0.0000     0.0000     0.0000 </r>
        <r>    36.2604     0.0000     0.0000     0.0000     0.0000     0.0000     0.0000     0.0000     0.0000     0.0000 </r>
        <r>    36.4127     0.0000     0.0000     0.0000     0.0000     0.0000     0.0000     0.0000     0.0000     0.0000 </r>
        <r>    36.5650     0.0000     0.0000     0.0000     0.0000     0.0000     0.0000     0.0000     0.0000     0.0000 </r>
        <r>    36.7173     0.0000     0.0000     0.0000     0.0000     0.0000     0.0000     0.0000     0.0000     0.0000 </r>
        <r>    36.8696     0.0000     0.0000     0.0000     0.0000     0.0000     0.0000     0.0000     0.0000     0.0000 </r>
        <r>    37.0218     0.0000     0.0000     0.0000     0.0000     0.0000     0.0000     0.0000     0.0000     0.0000 </r>
        <r>    37.1741     0.0000     0.0000     0.0000     0.0000     0.0000     0.0000     0.0000     0.0000     0.0000 </r>
        <r>    37.3264     0.0000     0.0000     0.0000     0.0000     0.0000     0.0000     0.0000     0.0000     0.0000 </r>
        <r>    37.4787     0.0000     0.0000     0.0000     0.0000     0.0000     0.0000     0.0000     0.0000     0.0000 </r>
       </set>
      </set>
     </set>
    </array>
   </partial>
  </dos>
  <projected>
   <eigenvalues>
    <array>
     <dimension dim="1">band</dimension>
     <dimension dim="2">kpoint</dimension>
     <dimension dim="3">spin</dimension>
     <field>eigene</field>
     <field>occ</field>
     <set>
      <set comment="spin 1">
       <set comment="kpoint 1">
        <r>   -3.7966    1.0000 </r>
        <r>   -1.1364    1.0000 </r>
        <r>    4.6342    1.0000 </r>
        <r>    4.6342    1.0000 </r>
        <r>    7.3735    0.0000 </r>
        <r>    9.1720    0.0000 </r>
        <r>    9.1720    0.0000 </r>
        <r>   13.5618    0.0000 </r>
        <r>   16.3845    0.0000 </r>
        <r>   16.3856    0.0000 </r>
        <r>   17.1912    0.0000 </r>
        <r>   34.1405    0.0000 </r>
       </set>
       <set comment="kpoint 2">
        <r>   -3.8083    1.0000 </r>
        <r>   -1.1196    1.0000 </r>
        <r>    4.6356    1.0000 </r>
        <r>    4.6356    1.0000 </r>
        <r>    7.3752    0.0000 </r>
        <r>    9.1737    0.0000 </r>
        <r>    9.1737    0.0000 </r>
        <r>   13.5644    0.0000 </r>
        <r>   16.2863    0.0000 </r>
        <r>   17.1613    0.0000 </r>
        <r>   26.7255    0.0000 </r>
        <r>   27.4440    0.0000 </r>
       </set>
       <set comment="kpoint 3">
        <r>   -3.8427    1.0000 </r>
        <r>   -1.0702    1.0000 </r>
        <r>    4.6400    1.0000 </r>
        <r>    4.6400    1.0000 </r>
        <r>    7.3802    0.0000 </r>
        <r>    9.1787    0.0000 </r>
        <r>    9.1787    0.0000 </r>
        <r>   13.5722    0.0000 </r>
        <r>   16.0736    0.0000 </r>
        <r>   17.0396    0.0000 </r>
        <r>   17.3809    0.0000 </r>
        <r>   25.4093    0.0000 </r>
       </set>
       <set comment="kpoint 4">
        <r>   -3.8971    1.0000 </r>
        <r>   -0.9905    1.0000 </r>
        <r>    4.6473    1.0000 </r>
        <r>    4.6473    1.0000 </r>
        <r>    7.3886    0.0000 </r>
        <r>    9.1870    0.0000 </r>
        <r>    9.1870    0.0000 </r>
        <r>   13.5851    0.0000 </r>
        <r>   15.8258    0.0000 </r>
        <r>   15.8258    0.0000 </r>
        <r>   16.8492    0.0000 </r>
        <r>   18.6981    0.0000 </r>
       </set>
       <set comment="kpoint 5">
        <r>   -3.9684    1.0000 </r>
        <r>   -0.8840    1.0000 </r>
        <r>    4.6576    1.0000 </r>
        <r>    4.6576    1.0000 </r>
        <r>    7.4003    0.0000 </r>
        <r>    9.1983    0.0000 </r>
        <r>    9.1983    0.0000 </r>
        <r>   13.6026    0.0000 </r>
        <r>   15.5696    0.0000 </r>
        <r>   15.5738    0.0000 </r>
        <r>   18.1402    0.0000 </r>
        <r>   24.2349    0.0000 </r>
       </set>
       <set comment="kpoint 6">
        <r>   -4.0529    1.0000 </r>
        <r>   -0.7542    1.0000 </r>
        <r>    4.6707    1.0000 </r>
        <r>    4.6707    1.0000 </r>
        <r>    7.4155    0.0000 </r>
        <r>    9.2126    0.0000 </r>
        <r>    9.2126    0.0000 </r>
        <r>   13.6241    0.0000 </r>
        <r>   15.3142    0.0000 </r>
        <r>   15.3144    0.0000 </r>
        <r>   16.4334    0.0000 </r>
        <r>   29.4069    0.0000 </r>
       </set>
       <set comment="kpoint 7">
        <r>   -4.1471    1.0000 </r>
        <r>   -0.6046    1.0000 </r>
        <r>    4.6868    1.0000 </r>
        <r>    4.6868    1.0000 </r>
        <r>    7.4339    0.0000 </r>
        <r>    9.2292    0.0000 </r>
        <r>    9.2292    0.0000 </r>
        <r>   13.6487    0.0000 </r>
        <r>   15.0635    0.0000 </r>
        <r>   16.0395    0.0000 </r>
        <r>   19.0829    0.0000 </r>
        <r>   23.3144    0.0000 </r>
       </set>
       <set comment="kpoint 8">
        <r>   -4.2483    1.0000 </r>
        <r>   -0.4382    1.0000 </r>
        <r>    4.7058    1.0000 </r>
        <r>    4.7058    1.0000 </r>
        <r>    7.4556    0.0000 </r>
        <r>    9.2478    0.0000 </r>
        <r>    9.2478    0.0000 </r>
        <r>   13.6749    0.0000 </r>
        <r>   14.8200    0.0000 </r>
        <r>   15.6126    0.0000 </r>
        <r>   22.8390    0.0000 </r>
        <r>   29.4363    0.0000 </r>
       </set>
       <set comment="kpoint 9">
        <r>   -4.3539    1.0000 </r>
        <r>   -0.2574    1.0000 </r>
        <r>    4.7276    1.0000 </r>
        <r>    4.7276    1.0000 </r>
        <r>    7.4806    0.0000 </r>
        <r>    9.2677    0.0000 </r>
        <r>    9.2677    0.0000 </r>
        <r>   13.7007    0.0000 </r>
        <r>   14.5851    0.0000 </r>
        <r>   15.6289    0.0000 </r>
        <r>   22.2059    0.0000 </r>
        <r>   24.6776    0.0000 </r>
       </set>
       <set comment="kpoint 10">
        <r>   -4.4620    1.0000 </r>
        <r>   -0.0644    1.0000 </r>
        <r>    4.7523    1.0000 </r>
        <r>    4.7523    1.0000 </r>
        <r>    7.5087    0.0000 </r>
        <r>    9.2883    0.0000 </r>
        <r>    9.2883    0.0000 </r>
        <r>   13.7219    0.0000 </r>
        <r>   14.3600    0.0000 </r>
        <r>   14.3600    0.0000 </r>
        <r>   15.4721    0.0000 </r>
        <r>   23.9593    0.0000 </r>
       </set>
       <set comment="kpoint 11">
        <r>   -4.5710    1.0000 </r>
        <r>    0.1394    1.0000 </r>
        <r>    4.7799    1.0000 </r>
        <r>    4.7799    1.0000 </r>
        <r>    7.5399    0.0000 </r>
        <r>    9.3086    0.0000 </r>
        <r>    9.3086    0.0000 </r>
        <r>   13.7379    0.0000 </r>
        <r>   14.1461    0.0000 </r>
        <r>   15.2141    0.0000 </r>
        <r>   19.9793    0.0000 </r>
        <r>   20.0431    0.0000 </r>
       </set>
       <set comment="kpoint 12">
        <r>   -4.6798    1.0000 </r>
        <r>    0.3525    1.0000 </r>
        <r>    4.8103    1.0000 </r>
        <r>    4.8103    1.0000 </r>
        <r>    7.5743    0.0000 </r>
        <r>    9.3277    0.0000 </r>
        <r>    9.3277    0.0000 </r>
        <r>   13.7259    0.0000 </r>
        <r>   13.9448    0.0000 </r>
        <r>   13.9448    0.0000 </r>
        <r>   15.0664    0.0000 </r>
        <r>   20.2000    0.0000 </r>
       </set>
       <set comment="kpoint 13">
        <r>   -4.7873    1.0000 </r>
        <r>    0.5740    1.0000 </r>
        <r>    4.8435    1.0000 </r>
        <r>    4.8435    1.0000 </r>
        <r>    7.6117    0.0000 </r>
        <r>    9.3446    0.0000 </r>
        <r>    9.3446    0.0000 </r>
        <r>   13.7313    0.0000 </r>
        <r>   14.9048    0.0000 </r>
        <r>   19.4529    0.0000 </r>
        <r>   20.6776    0.0000 </r>
        <r>   30.7750    0.0000 </r>
       </set>
       <set comment="kpoint 14">
        <r>   -4.8928    1.0000 </r>
        <r>    0.8028    1.0000 </r>
        <r>    4.8794    1.0000 </r>
        <r>    4.8794    1.0000 </r>
        <r>    7.6519    0.0000 </r>
        <r>    9.3579    0.0000 </r>
        <r>    9.3579    0.0000 </r>
        <r>   13.5892    0.0000 </r>
        <r>   13.6153    0.0000 </r>
        <r>   19.2208    0.0000 </r>
        <r>   21.6608    0.0000 </r>
        <r>   22.7404    0.0000 </r>
       </set>
       <set comment="kpoint 15">
        <r>   -4.9956    1.0000 </r>
        <r>    1.0384    1.0000 </r>
        <r>    4.9180    1.0000 </r>
        <r>    4.9180    1.0000 </r>
        <r>    7.6949    0.0000 </r>
        <r>    9.3663    0.0000 </r>
        <r>    9.3663    0.0000 </r>
        <r>   13.4275    0.0000 </r>
        <r>   13.4485    0.0000 </r>
        <r>   14.6822    0.0000 </r>
        <r>   21.0828    0.0000 </r>
        <r>   30.7533    0.0000 </r>
       </set>
       <set comment="kpoint 16">
        <r>   -5.0954    1.0000 </r>
        <r>    1.2800    1.0000 </r>
        <r>    4.9591    1.0000 </r>
        <r>    4.9591    1.0000 </r>
        <r>    7.7406    0.0000 </r>
        <r>    9.3686    0.0000 </r>
        <r>    9.3686    0.0000 </r>
        <r>   13.2890    0.0000 </r>
        <r>   13.2890    0.0000 </r>
        <r>   13.3010    0.0000 </r>
        <r>   14.7402    0.0000 </r>
        <r>   22.9895    0.0000 </r>
       </set>
       <set comment="kpoint 17">
        <r>   -5.1917    1.0000 </r>
        <r>    1.5270    1.0000 </r>
        <r>    5.0028    1.0000 </r>
        <r>    5.0028    1.0000 </r>
        <r>    7.7886    0.0000 </r>
        <r>    9.3633    0.0000 </r>
        <r>    9.3633    0.0000 </r>
        <r>   13.0981    0.0000 </r>
        <r>   13.1693    0.0000 </r>
        <r>   13.1693    0.0000 </r>
        <r>   14.7624    0.0000 </r>
        <r>   18.1504    0.0000 </r>
       </set>
       <set comment="kpoint 18">
        <r>   -5.2842    1.0000 </r>
        <r>    1.7789    1.0000 </r>
        <r>    5.0488    1.0000 </r>
        <r>    5.0488    1.0000 </r>
        <r>    7.8389    0.0000 </r>
        <r>    9.3495    0.0000 </r>
        <r>    9.3495    0.0000 </r>
        <r>   12.9271    0.0000 </r>
        <r>   14.6501    0.0000 </r>
        <r>   17.8483    0.0000 </r>
        <r>   23.8825    0.0000 </r>
        <r>   31.9801    0.0000 </r>
       </set>
       <set comment="kpoint 19">
        <r>   -5.3726    1.0000 </r>
        <r>    2.0352    1.0000 </r>
        <r>    5.0970    1.0000 </r>
        <r>    5.0970    1.0000 </r>
        <r>    7.8911    0.0000 </r>
        <r>    9.3261    0.0000 </r>
        <r>    9.3261    0.0000 </r>
        <r>   12.6410    0.0000 </r>
        <r>   12.9913    0.0000 </r>
        <r>   14.8543    0.0000 </r>
        <r>   17.5652    0.0000 </r>
        <r>   25.4660    0.0000 </r>
       </set>
       <set comment="kpoint 20">
        <r>   -5.4567    1.0000 </r>
        <r>    2.2953    1.0000 </r>
        <r>    5.1472    1.0000 </r>
        <r>    5.1472    1.0000 </r>
        <r>    7.9450    0.0000 </r>
        <r>    9.2928    0.0000 </r>
        <r>    9.2928    0.0000 </r>
        <r>   12.3953    0.0000 </r>
        <r>   12.9340    0.0000 </r>
        <r>   14.9075    0.0000 </r>
        <r>   17.2591    0.0000 </r>
        <r>   20.1175    0.0000 </r>
       </set>
       <set comment="kpoint 21">
        <r>   -5.5363    1.0000 </r>
        <r>    2.5588    1.0000 </r>
        <r>    5.1992    1.0000 </r>
        <r>    5.1992    1.0000 </r>
        <r>    8.0002    0.0000 </r>
        <r>    9.2496    0.0000 </r>
        <r>    9.2496    0.0000 </r>
        <r>   12.1468    0.0000 </r>
        <r>   14.8531    0.0000 </r>
        <r>   17.0144    0.0000 </r>
        <r>   24.0116    0.0000 </r>
        <r>   25.7421    0.0000 </r>
       </set>
       <set comment="kpoint 22">
        <r>   -5.6113    1.0000 </r>
        <r>    2.8250    1.0000 </r>
        <r>    5.2528    1.0000 </r>
        <r>    5.2528    1.0000 </r>
        <r>    8.0563    0.0000 </r>
        <r>    9.1970    0.0000 </r>
        <r>    9.1970    0.0000 </r>
        <r>   12.7584    0.0000 </r>
        <r>   14.9842    0.0000 </r>
        <r>   16.8032    0.0000 </r>
        <r>   23.8868    0.0000 </r>
        <r>   25.5889    0.0000 </r>
       </set>
       <set comment="kpoint 23">
        <r>   -5.6815    1.0000 </r>
        <r>    3.0931    1.0000 </r>
        <r>    5.3075    1.0000 </r>
        <r>    5.3075    1.0000 </r>
        <r>    8.1126    0.0000 </r>
        <r>    9.1360    0.0000 </r>
        <r>    9.1360    0.0000 </r>
        <r>   11.6363    0.0000 </r>
        <r>   12.8863    0.0000 </r>
        <r>   14.9845    0.0000 </r>
        <r>   16.6330    0.0000 </r>
        <r>   24.6017    0.0000 </r>
       </set>
       <set comment="kpoint 24">
        <r>   -5.7469    1.0000 </r>
        <r>    3.3626    1.0000 </r>
        <r>    5.3631    1.0000 </r>
        <r>    5.3631    1.0000 </r>
        <r>    8.1686    0.0000 </r>
        <r>    9.0681    0.0000 </r>
        <r>    9.0681    0.0000 </r>
        <r>   11.3793    0.0000 </r>
        <r>   12.9075    0.0000 </r>
        <r>   14.9993    0.0000 </r>
        <r>   24.7100    0.0000 </r>
        <r>   25.7715    0.0000 </r>
       </set>
       <set comment="kpoint 25">
        <r>   -5.8073    1.0000 </r>
        <r>    3.6324    1.0000 </r>
        <r>    5.4190    1.0000 </r>
        <r>    5.4190    1.0000 </r>
        <r>    8.2235    0.0000 </r>
        <r>    8.9950    0.0000 </r>
        <r>    8.9950    0.0000 </r>
        <r>   11.1224    0.0000 </r>
        <r>   12.9443    0.0000 </r>
        <r>   12.9443    0.0000 </r>
        <r>   14.8654    0.0000 </r>
        <r>   26.1741    0.0000 </r>
       </set>
       <set comment="kpoint 26">
        <r>   -5.8627    1.0000 </r>
        <r>    3.9015    1.0000 </r>
        <r>    5.4746    1.0000 </r>
        <r>    5.4746    1.0000 </r>
        <r>    8.2764    0.0000 </r>
        <r>    8.9185    0.0000 </r>
        <r>    8.9185    0.0000 </r>
        <r>   10.8668    0.0000 </r>
        <r>   12.9943    0.0000 </r>
        <r>   12.9943    0.0000 </r>
        <r>   14.7508    0.0000 </r>
        <r>   16.4698    0.0000 </r>
       </set>
       <set comment="kpoint 27">
        <r>   -5.9130    1.0000 </r>
        <r>    4.1683    1.0000 </r>
        <r>    5.5294    1.0000 </r>
        <r>    5.5294    1.0000 </r>
        <r>    8.3260    0.0000 </r>
        <r>    8.8407    0.0000 </r>
        <r>    8.8407    0.0000 </r>
        <r>   10.6145    0.0000 </r>
        <r>   13.0548    0.0000 </r>
        <r>   14.6152    0.0000 </r>
        <r>   16.5795    0.0000 </r>
        <r>   26.9436    0.0000 </r>
       </set>
       <set comment="kpoint 28">
        <r>   -5.9581    1.0000 </r>
        <r>    4.4312    1.0000 </r>
        <r>    5.5826    1.0000 </r>
        <r>    5.5826    1.0000 </r>
        <r>    8.3709    0.0000 </r>
        <r>    8.7635    0.0000 </r>
        <r>    8.7635    0.0000 </r>
        <r>   10.3678    0.0000 </r>
        <r>   13.1233    0.0000 </r>
        <r>   13.1233    0.0000 </r>
        <r>   14.4724    0.0000 </r>
        <r>   18.0750    0.0000 </r>
       </set>
       <set comment="kpoint 29">
        <r>   -5.9980    1.0000 </r>
        <r>    4.6875    1.0000 </r>
        <r>    5.6333    1.0000 </r>
        <r>    5.6333    1.0000 </r>
        <r>    8.4093    0.0000 </r>
        <r>    8.6891    0.0000 </r>
        <r>    8.6891    0.0000 </r>
        <r>   10.1300    0.0000 </r>
        <r>   13.1967    0.0000 </r>
        <r>   13.1967    0.0000 </r>
        <r>   14.3312    0.0000 </r>
        <r>   27.6997    0.0000 </r>
       </set>
       <set comment="kpoint 30">
        <r>   -6.0326    1.0000 </r>
        <r>    4.9341    1.0000 </r>
        <r>    5.6805    1.0000 </r>
        <r>    5.6805    1.0000 </r>
        <r>    8.4390    0.0000 </r>
        <r>    8.6193    0.0000 </r>
        <r>    8.6193    0.0000 </r>
        <r>    9.9059    0.0000 </r>
        <r>   13.2717    0.0000 </r>
        <r>   14.1991    0.0000 </r>
        <r>   16.8632    0.0000 </r>
        <r>   21.8755    0.0000 </r>
       </set>
       <set comment="kpoint 31">
        <r>   -6.0620    1.0000 </r>
        <r>    5.1666    1.0000 </r>
        <r>    5.7232    1.0000 </r>
        <r>    5.7232    1.0000 </r>
        <r>    8.4569    0.0000 </r>
        <r>    8.5562    0.0000 </r>
        <r>    8.5562    0.0000 </r>
        <r>    9.7016    0.0000 </r>
        <r>   13.3447    0.0000 </r>
        <r>   14.0809    0.0000 </r>
        <r>   17.3986    0.0000 </r>
        <r>   28.5707    0.0000 </r>
       </set>
       <set comment="kpoint 32">
        <r>   -6.0861    1.0000 </r>
        <r>    5.3786    1.0000 </r>
        <r>    5.7602    1.0000 </r>
        <r>    5.7602    1.0000 </r>
        <r>    8.4608    0.0000 </r>
        <r>    8.5015    0.0000 </r>
        <r>    8.5015    0.0000 </r>
        <r>    9.5250    0.0000 </r>
        <r>   13.4122    0.0000 </r>
        <r>   13.9770    0.0000 </r>
        <r>   17.3502    0.0000 </r>
        <r>   29.0203    0.0000 </r>
       </set>
       <set comment="kpoint 33">
        <r>   -6.1048    1.0000 </r>
        <r>    5.5619    1.0000 </r>
        <r>    5.7905    1.0000 </r>
        <r>    5.7905    1.0000 </r>
        <r>    8.4497    0.0000 </r>
        <r>    8.4570    0.0000 </r>
        <r>    8.4570    0.0000 </r>
        <r>    9.3844    0.0000 </r>
        <r>   13.4702    0.0000 </r>
        <r>   13.4702    0.0000 </r>
        <r>   13.8998    0.0000 </r>
        <r>   28.8539    0.0000 </r>
       </set>
       <set comment="kpoint 34">
        <r>   -6.1182    1.0000 </r>
        <r>    5.7060    1.0000 </r>
        <r>    5.8130    1.0000 </r>
        <r>    5.8130    1.0000 </r>
        <r>    8.4240    0.0000 </r>
        <r>    8.4240    0.0000 </r>
        <r>    8.4279    0.0000 </r>
        <r>    9.2854    0.0000 </r>
        <r>   13.5150    0.0000 </r>
        <r>   13.8396    0.0000 </r>
        <r>   17.1193    0.0000 </r>
        <r>   29.0179    0.0000 </r>
       </set>
       <set comment="kpoint 35">
        <r>   -6.1263    1.0000 </r>
        <r>    5.7991    1.0000 </r>
        <r>    5.8268    1.0000 </r>
        <r>    5.8268    1.0000 </r>
        <r>    8.4038    0.0000 </r>
        <r>    8.4038    0.0000 </r>
        <r>    8.4061    0.0000 </r>
        <r>    9.2282    0.0000 </r>
        <r>   13.5433    0.0000 </r>
        <r>   13.5433    0.0000 </r>
        <r>   13.8052    0.0000 </r>
        <r>   17.1026    0.0000 </r>
       </set>
       <set comment="kpoint 36">
        <r>   -6.1289    1.0000 </r>
        <r>    5.8315    1.0000 </r>
        <r>    5.8315    1.0000 </r>
        <r>    5.8315    1.0000 </r>
        <r>    8.3969    0.0000 </r>
        <r>    8.3969    0.0000 </r>
        <r>    8.3969    0.0000 </r>
        <r>    9.2097    0.0000 </r>
        <r>   13.5530    0.0000 </r>
        <r>   13.7928    0.0000 </r>
        <r>   17.0862    0.0000 </r>
        <r>   29.1965    0.0000 </r>
       </set>
       <set comment="kpoint 37">
        <r>   -6.1289    1.0000 </r>
        <r>    5.8315    1.0000 </r>
        <r>    5.8315    1.0000 </r>
        <r>    5.8315    1.0000 </r>
        <r>    8.3969    0.0000 </r>
        <r>    8.3969    0.0000 </r>
        <r>    8.3969    0.0000 </r>
        <r>    9.2097    0.0000 </r>
        <r>   13.5530    0.0000 </r>
        <r>   13.7929    0.0000 </r>
        <r>   17.0858    0.0000 </r>
        <r>   29.7803    0.0000 </r>
       </set>
       <set comment="kpoint 38">
        <r>   -6.1254    1.0000 </r>
        <r>    5.8069    1.0000 </r>
        <r>    5.8159    1.0000 </r>
        <r>    5.8159    1.0000 </r>
        <r>    8.3880    0.0000 </r>
        <r>    8.4169    0.0000 </r>
        <r>    8.4169    0.0000 </r>
        <r>    9.2339    0.0000 </r>
        <r>   13.5275    0.0000 </r>
        <r>   13.8088    0.0000 </r>
        <r>   17.0933    0.0000 </r>
        <r>   29.3895    0.0000 </r>
       </set>
       <set comment="kpoint 39">
        <r>   -6.1147    1.0000 </r>
        <r>    5.7353    1.0000 </r>
        <r>    5.7707    1.0000 </r>
        <r>    5.7707    1.0000 </r>
        <r>    8.3615    0.0000 </r>
        <r>    8.4753    0.0000 </r>
        <r>    8.4753    0.0000 </r>
        <r>    9.3038    0.0000 </r>
        <r>   13.4376    0.0000 </r>
        <r>   13.5688    0.0000 </r>
        <r>   13.8568    0.0000 </r>
        <r>   17.1408    0.0000 </r>
       </set>
       <set comment="kpoint 40">
        <r>   -6.0968    1.0000 </r>
        <r>    5.6222    1.0000 </r>
        <r>    5.6996    1.0000 </r>
        <r>    5.6996    1.0000 </r>
        <r>    8.3186    0.0000 </r>
        <r>    8.5684    0.0000 </r>
        <r>    8.5684    0.0000 </r>
        <r>    9.4128    0.0000 </r>
        <r>   13.3106    0.0000 </r>
        <r>   13.9348    0.0000 </r>
        <r>   17.2116    0.0000 </r>
        <r>   29.0510    0.0000 </r>
       </set>
       <set comment="kpoint 41">
        <r>   -6.0718    1.0000 </r>
        <r>    5.4749    1.0000 </r>
        <r>    5.6077    1.0000 </r>
        <r>    5.6077    1.0000 </r>
        <r>    8.2608    0.0000 </r>
        <r>    8.6911    0.0000 </r>
        <r>    8.6911    0.0000 </r>
        <r>    9.5518    0.0000 </r>
        <r>   13.1387    0.0000 </r>
        <r>   14.0407    0.0000 </r>
        <r>   17.2636    0.0000 </r>
        <r>   29.4395    0.0000 </r>
       </set>
       <set comment="kpoint 42">
        <r>   -6.0396    1.0000 </r>
        <r>    5.3006    1.0000 </r>
        <r>    5.5001    1.0000 </r>
        <r>    5.5001    1.0000 </r>
        <r>    8.1899    0.0000 </r>
        <r>    8.8380    0.0000 </r>
        <r>    8.8380    0.0000 </r>
        <r>    9.7100    0.0000 </r>
        <r>   12.9503    0.0000 </r>
        <r>   13.6519    0.0000 </r>
        <r>   14.1763    0.0000 </r>
        <r>   29.1092    0.0000 </r>
       </set>
       <set comment="kpoint 43">
        <r>   -6.0004    1.0000 </r>
        <r>    5.1057    1.0000 </r>
        <r>    5.3815    1.0000 </r>
        <r>    5.3815    1.0000 </r>
        <r>    8.1083    0.0000 </r>
        <r>    9.0048    0.0000 </r>
        <r>    9.0048    0.0000 </r>
        <r>    9.8755    0.0000 </r>
        <r>   12.7567    0.0000 </r>
        <r>   14.3350    0.0000 </r>
        <r>   17.3911    0.0000 </r>
        <r>   28.1519    0.0000 </r>
       </set>
       <set comment="kpoint 44">
        <r>   -5.9540    1.0000 </r>
        <r>    4.8951    1.0000 </r>
        <r>    5.2554    1.0000 </r>
        <r>    5.2554    1.0000 </r>
        <r>    8.0179    0.0000 </r>
        <r>    9.1877    0.0000 </r>
        <r>    9.1877    0.0000 </r>
        <r>   10.0343    0.0000 </r>
        <r>   12.5737    0.0000 </r>
        <r>   13.7471    0.0000 </r>
        <r>   14.5164    0.0000 </r>
        <r>   17.4580    0.0000 </r>
       </set>
       <set comment="kpoint 45">
        <r>   -5.9006    1.0000 </r>
        <r>    4.6728    1.0000 </r>
        <r>    5.1248    1.0000 </r>
        <r>    5.1248    1.0000 </r>
        <r>    7.9210    0.0000 </r>
        <r>    9.3834    0.0000 </r>
        <r>    9.3834    0.0000 </r>
        <r>   10.1681    0.0000 </r>
        <r>   12.4210    0.0000 </r>
        <r>   13.8064    0.0000 </r>
        <r>   14.7178    0.0000 </r>
        <r>   32.3743    0.0000 </r>
       </set>
       <set comment="kpoint 46">
        <r>   -5.8401    1.0000 </r>
        <r>    4.4415    1.0000 </r>
        <r>    4.9922    1.0000 </r>
        <r>    4.9922    1.0000 </r>
        <r>    7.8193    0.0000 </r>
        <r>    9.5897    0.0000 </r>
        <r>    9.5897    0.0000 </r>
        <r>   10.2547    0.0000 </r>
        <r>   12.3227    0.0000 </r>
        <r>   13.8736    0.0000 </r>
        <r>   14.9372    0.0000 </r>
        <r>   17.9677    0.0000 </r>
       </set>
       <set comment="kpoint 47">
        <r>   -5.7726    1.0000 </r>
        <r>    4.2036    1.0000 </r>
        <r>    4.8590    1.0000 </r>
        <r>    4.8590    1.0000 </r>
        <r>    7.7147    0.0000 </r>
        <r>    9.8047    0.0000 </r>
        <r>    9.8047    0.0000 </r>
        <r>   10.2726    0.0000 </r>
        <r>   12.3008    0.0000 </r>
        <r>   13.9487    0.0000 </r>
        <r>   15.1727    0.0000 </r>
        <r>   17.7117    0.0000 </r>
       </set>
       <set comment="kpoint 48">
        <r>   -5.6982    1.0000 </r>
        <r>    3.9604    1.0000 </r>
        <r>    4.7267    1.0000 </r>
        <r>    4.7267    1.0000 </r>
        <r>    7.6087    0.0000 </r>
        <r>   10.0271    0.0000 </r>
        <r>   10.0271    0.0000 </r>
        <r>   10.2142    0.0000 </r>
        <r>   12.3647    0.0000 </r>
        <r>   14.0316    0.0000 </r>
        <r>   15.4223    0.0000 </r>
        <r>   18.2551    0.0000 </r>
       </set>
       <set comment="kpoint 49">
        <r>   -5.6167    1.0000 </r>
        <r>    3.7134    1.0000 </r>
        <r>    4.5963    1.0000 </r>
        <r>    4.5963    1.0000 </r>
        <r>    7.5026    0.0000 </r>
        <r>   10.0903    0.0000 </r>
        <r>   10.2558    0.0000 </r>
        <r>   10.2558    0.0000 </r>
        <r>   12.5042    0.0000 </r>
        <r>   14.1228    0.0000 </r>
        <r>   15.6844    0.0000 </r>
        <r>   17.9813    0.0000 </r>
       </set>
       <set comment="kpoint 50">
        <r>   -5.5284    1.0000 </r>
        <r>    3.4634    1.0000 </r>
        <r>    4.4687    1.0000 </r>
        <r>    4.4687    1.0000 </r>
        <r>    7.3976    0.0000 </r>
        <r>    9.9204    0.0000 </r>
        <r>   10.4896    0.0000 </r>
        <r>   10.4896    0.0000 </r>
        <r>   12.6994    0.0000 </r>
        <r>   14.2215    0.0000 </r>
        <r>   15.9572    0.0000 </r>
        <r>   18.1135    0.0000 </r>
       </set>
       <set comment="kpoint 51">
        <r>   -5.4332    1.0000 </r>
        <r>    3.2111    1.0000 </r>
        <r>    4.3444    1.0000 </r>
        <r>    4.3444    1.0000 </r>
        <r>    7.2947    0.0000 </r>
        <r>    9.7231    0.0000 </r>
        <r>   10.7280    0.0000 </r>
        <r>   10.7280    0.0000 </r>
        <r>   12.9331    0.0000 </r>
        <r>   14.3280    0.0000 </r>
        <r>   16.2392    0.0000 </r>
        <r>   25.0329    0.0000 </r>
       </set>
       <set comment="kpoint 52">
        <r>   -5.3311    1.0000 </r>
        <r>    2.9571    1.0000 </r>
        <r>    4.2241    1.0000 </r>
        <r>    4.2241    1.0000 </r>
        <r>    7.1948    0.0000 </r>
        <r>    9.5113    0.0000 </r>
        <r>   10.9705    0.0000 </r>
        <r>   10.9705    0.0000 </r>
        <r>   13.1924    0.0000 </r>
        <r>   14.4425    0.0000 </r>
        <r>   16.5286    0.0000 </r>
        <r>   24.6406    0.0000 </r>
       </set>
       <set comment="kpoint 53">
        <r>   -5.2223    1.0000 </r>
        <r>    2.7019    1.0000 </r>
        <r>    4.1081    1.0000 </r>
        <r>    4.1081    1.0000 </r>
        <r>    7.0987    0.0000 </r>
        <r>    9.2931    0.0000 </r>
        <r>   11.2164    0.0000 </r>
        <r>   11.2164    0.0000 </r>
        <r>   13.4689    0.0000 </r>
        <r>   14.5647    0.0000 </r>
        <r>   16.8239    0.0000 </r>
        <r>   18.6020    0.0000 </r>
       </set>
       <set comment="kpoint 54">
        <r>   -5.1068    1.0000 </r>
        <r>    2.4458    1.0000 </r>
        <r>    3.9967    1.0000 </r>
        <r>    3.9967    1.0000 </r>
        <r>    7.0068    0.0000 </r>
        <r>    9.0741    0.0000 </r>
        <r>   11.4654    0.0000 </r>
        <r>   11.4654    0.0000 </r>
        <r>   13.7573    0.0000 </r>
        <r>   14.6947    0.0000 </r>
        <r>   17.1231    0.0000 </r>
        <r>   18.7672    0.0000 </r>
       </set>
       <set comment="kpoint 55">
        <r>   -4.9846    1.0000 </r>
        <r>    2.1891    1.0000 </r>
        <r>    3.8904    1.0000 </r>
        <r>    3.8904    1.0000 </r>
        <r>    6.9200    0.0000 </r>
        <r>    8.8578    0.0000 </r>
        <r>   11.7172    0.0000 </r>
        <r>   11.7172    0.0000 </r>
        <r>   14.0538    0.0000 </r>
        <r>   14.8326    0.0000 </r>
        <r>   17.4242    0.0000 </r>
        <r>   18.9314    0.0000 </r>
       </set>
       <set comment="kpoint 56">
        <r>   -4.8559    1.0000 </r>
        <r>    1.9323    1.0000 </r>
        <r>    3.7893    1.0000 </r>
        <r>    3.7893    1.0000 </r>
        <r>    6.8388    0.0000 </r>
        <r>    8.6468    0.0000 </r>
        <r>   11.9715    0.0000 </r>
        <r>   11.9715    0.0000 </r>
        <r>   14.3558    0.0000 </r>
        <r>   14.9784    0.0000 </r>
        <r>   17.7246    0.0000 </r>
        <r>   19.1119    0.0000 </r>
       </set>
       <set comment="kpoint 57">
        <r>   -4.7207    1.0000 </r>
        <r>    1.6755    1.0000 </r>
        <r>    3.6935    1.0000 </r>
        <r>    3.6935    1.0000 </r>
        <r>    6.7634    0.0000 </r>
        <r>    8.4425    0.0000 </r>
        <r>   12.2282    0.0000 </r>
        <r>   12.2282    0.0000 </r>
        <r>   14.6613    0.0000 </r>
        <r>   15.1319    0.0000 </r>
        <r>   18.0215    0.0000 </r>
        <r>   19.2184    0.0000 </r>
       </set>
       <set comment="kpoint 58">
        <r>   -4.5790    1.0000 </r>
        <r>    1.4191    1.0000 </r>
        <r>    3.6034    1.0000 </r>
        <r>    3.6034    1.0000 </r>
        <r>    6.6942    0.0000 </r>
        <r>    8.2462    0.0000 </r>
        <r>   12.4869    0.0000 </r>
        <r>   12.4869    0.0000 </r>
        <r>   14.9687    0.0000 </r>
        <r>   15.2933    0.0000 </r>
        <r>   18.3112    0.0000 </r>
        <r>   19.3161    0.0000 </r>
       </set>
       <set comment="kpoint 59">
        <r>   -4.4310    1.0000 </r>
        <r>    1.1632    1.0000 </r>
        <r>    3.5190    1.0000 </r>
        <r>    3.5190    1.0000 </r>
        <r>    6.6317    0.0000 </r>
        <r>    8.0589    0.0000 </r>
        <r>   12.7477    0.0000 </r>
        <r>   12.7477    0.0000 </r>
        <r>   15.2767    0.0000 </r>
        <r>   15.4624    0.0000 </r>
        <r>   18.5895    0.0000 </r>
        <r>   19.3596    0.0000 </r>
       </set>
       <set comment="kpoint 60">
        <r>   -4.2767    1.0000 </r>
        <r>    0.9083    1.0000 </r>
        <r>    3.4404    1.0000 </r>
        <r>    3.4404    1.0000 </r>
        <r>    6.5762    0.0000 </r>
        <r>    7.8808    0.0000 </r>
        <r>   13.0104    0.0000 </r>
        <r>   13.0104    0.0000 </r>
        <r>   15.5842    0.0000 </r>
        <r>   15.6392    0.0000 </r>
        <r>   18.8505    0.0000 </r>
        <r>   19.3402    0.0000 </r>
       </set>
       <set comment="kpoint 61">
        <r>   -4.1163    1.0000 </r>
        <r>    0.6545    1.0000 </r>
        <r>    3.3678    1.0000 </r>
        <r>    3.3678    1.0000 </r>
        <r>    6.5280    0.0000 </r>
        <r>    7.7126    0.0000 </r>
        <r>   13.2749    0.0000 </r>
        <r>   13.2749    0.0000 </r>
        <r>   15.8238    0.0000 </r>
        <r>   15.8902    0.0000 </r>
        <r>   19.1038    0.0000 </r>
        <r>   22.1880    0.0000 </r>
       </set>
       <set comment="kpoint 62">
        <r>   -3.9499    1.0000 </r>
        <r>    0.4021    1.0000 </r>
        <r>    3.3012    1.0000 </r>
        <r>    3.3012    1.0000 </r>
        <r>    6.4872    0.0000 </r>
        <r>    7.5545    0.0000 </r>
        <r>   13.5410    0.0000 </r>
        <r>   13.5410    0.0000 </r>
        <r>   16.0162    0.0000 </r>
        <r>   16.1938    0.0000 </r>
        <r>   19.1035    0.0000 </r>
        <r>   19.2879    0.0000 </r>
       </set>
       <set comment="kpoint 63">
        <r>   -3.7775    1.0000 </r>
        <r>    0.1515    1.0000 </r>
        <r>    3.2408    1.0000 </r>
        <r>    3.2408    1.0000 </r>
        <r>    6.4542    0.0000 </r>
        <r>    7.4066    0.0000 </r>
        <r>   13.8085    0.0000 </r>
        <r>   13.8085    0.0000 </r>
        <r>   16.2162    0.0000 </r>
        <r>   16.4942    0.0000 </r>
        <r>   18.9104    0.0000 </r>
        <r>   22.3237    0.0000 </r>
       </set>
       <set comment="kpoint 64">
        <r>   -3.5994    1.0000 </r>
        <r>   -0.0972    1.0000 </r>
        <r>    3.1866    1.0000 </r>
        <r>    3.1866    1.0000 </r>
        <r>    6.4292    0.0000 </r>
        <r>    7.2692    0.0000 </r>
        <r>   14.0775    0.0000 </r>
        <r>   14.0775    0.0000 </r>
        <r>   16.4239    0.0000 </r>
        <r>   16.7906    0.0000 </r>
        <r>   18.6775    0.0000 </r>
        <r>   19.5568    0.0000 </r>
       </set>
       <set comment="kpoint 65">
        <r>   -3.4156    1.0000 </r>
        <r>   -0.3436    1.0000 </r>
        <r>    3.1386    1.0000 </r>
        <r>    3.1386    1.0000 </r>
        <r>    6.4124    0.0000 </r>
        <r>    7.1423    0.0000 </r>
        <r>   14.3473    0.0000 </r>
        <r>   14.3473    0.0000 </r>
        <r>   16.6386    0.0000 </r>
        <r>   17.0822    0.0000 </r>
        <r>   18.4266    0.0000 </r>
        <r>   22.7496    0.0000 </r>
       </set>
       <set comment="kpoint 66">
        <r>   -3.2262    1.0000 </r>
        <r>   -0.5875    1.0000 </r>
        <r>    3.0969    1.0000 </r>
        <r>    3.0969    1.0000 </r>
        <r>    6.4041    0.0000 </r>
        <r>    7.0258    0.0000 </r>
        <r>   14.6178    0.0000 </r>
        <r>   14.6178    0.0000 </r>
        <r>   16.8616    0.0000 </r>
        <r>   17.3682    0.0000 </r>
        <r>   18.1623    0.0000 </r>
        <r>   19.5278    0.0000 </r>
       </set>
       <set comment="kpoint 67">
        <r>   -3.0314    1.0000 </r>
        <r>   -0.8286    1.0000 </r>
        <r>    3.0616    1.0000 </r>
        <r>    3.0616    1.0000 </r>
        <r>    6.4044    0.0000 </r>
        <r>    6.9196    0.0000 </r>
        <r>   14.8876    0.0000 </r>
        <r>   14.8876    0.0000 </r>
        <r>   17.0925    0.0000 </r>
        <r>   17.6477    0.0000 </r>
        <r>   17.8926    0.0000 </r>
        <r>   23.9038    0.0000 </r>
       </set>
       <set comment="kpoint 68">
        <r>   -2.8315    1.0000 </r>
        <r>   -1.0666    1.0000 </r>
        <r>    3.0327    1.0000 </r>
        <r>    3.0327    1.0000 </r>
        <r>    6.4134    0.0000 </r>
        <r>    6.8237    0.0000 </r>
        <r>   15.1550    0.0000 </r>
        <r>   15.1550    0.0000 </r>
        <r>   17.3351    0.0000 </r>
        <r>   17.6188    0.0000 </r>
        <r>   17.9110    0.0000 </r>
        <r>   24.4540    0.0000 </r>
       </set>
       <set comment="kpoint 69">
        <r>   -2.6265    1.0000 </r>
        <r>   -1.3013    1.0000 </r>
        <r>    3.0101    1.0000 </r>
        <r>    3.0101    1.0000 </r>
        <r>    6.4313    0.0000 </r>
        <r>    6.7380    0.0000 </r>
        <r>   15.4159    0.0000 </r>
        <r>   15.4159    0.0000 </r>
        <r>   17.5400    0.0000 </r>
        <r>   18.1356    0.0000 </r>
        <r>   24.8253    0.0000 </r>
        <r>   26.9808    0.0000 </r>
       </set>
       <set comment="kpoint 70">
        <r>   -2.4167    1.0000 </r>
        <r>   -1.5325    1.0000 </r>
        <r>    2.9940    1.0000 </r>
        <r>    2.9940    1.0000 </r>
        <r>    6.4586    0.0000 </r>
        <r>    6.6625    0.0000 </r>
        <r>   15.6607    0.0000 </r>
        <r>   15.6607    0.0000 </r>
        <r>   17.7632    0.0000 </r>
        <r>   18.4628    0.0000 </r>
        <r>   24.4438    0.0000 </r>
        <r>   25.4950    0.0000 </r>
       </set>
       <set comment="kpoint 71">
        <r>   -2.2021    1.0000 </r>
        <r>   -1.7598    1.0000 </r>
        <r>    2.9843    1.0000 </r>
        <r>    2.9843    1.0000 </r>
        <r>    6.4951    0.0000 </r>
        <r>    6.5969    0.0000 </r>
        <r>   15.8625    0.0000 </r>
        <r>   15.8626    0.0000 </r>
        <r>   18.0331    0.0000 </r>
        <r>   18.6319    0.0000 </r>
        <r>   19.0230    0.0000 </r>
        <r>   25.5319    0.0000 </r>
       </set>
       <set comment="kpoint 72">
        <r>   -1.9831    1.0000 </r>
        <r>   -1.9831    1.0000 </r>
        <r>    2.9811    1.0000 </r>
        <r>    2.9811    1.0000 </r>
        <r>    6.5412    0.0000 </r>
        <r>    6.5412    0.0000 </r>
        <r>   15.9508    0.0000 </r>
        <r>   15.9514    0.0000 </r>
        <r>   16.8079    0.0000 </r>
        <r>   18.7791    0.0000 </r>
        <r>   25.6960    0.0000 </r>
        <r>   26.8734    0.0000 </r>
       </set>
       <set comment="kpoint 73">
        <r>   -1.9831    1.0000 </r>
        <r>   -1.9831    1.0000 </r>
        <r>    2.9811    1.0000 </r>
        <r>    2.9811    1.0000 </r>
        <r>    6.5412    0.0000 </r>
        <r>    6.5412    0.0000 </r>
        <r>   15.9508    0.0000 </r>
        <r>   15.9508    0.0000 </r>
        <r>   16.8078    0.0000 </r>
        <r>   16.8078    0.0000 </r>
        <r>   18.8477    0.0000 </r>
        <r>   25.7347    0.0000 </r>
       </set>
       <set comment="kpoint 74">
        <r>   -1.9828    1.0000 </r>
        <r>   -1.9828    1.0000 </r>
        <r>    2.9784    1.0000 </r>
        <r>    2.9784    1.0000 </r>
        <r>    6.5462    0.0000 </r>
        <r>    6.5462    0.0000 </r>
        <r>   15.9428    0.0000 </r>
        <r>   15.9438    0.0000 </r>
        <r>   16.7950    0.0000 </r>
        <r>   18.3637    0.0000 </r>
        <r>   18.8867    0.0000 </r>
        <r>   25.5372    0.0000 </r>
       </set>
       <set comment="kpoint 75">
        <r>   -1.9819    1.0000 </r>
        <r>   -1.9819    1.0000 </r>
        <r>    2.9702    1.0000 </r>
        <r>    2.9702    1.0000 </r>
        <r>    6.5611    0.0000 </r>
        <r>    6.5611    0.0000 </r>
        <r>   15.9182    0.0000 </r>
        <r>   15.9205    0.0000 </r>
        <r>   16.7599    0.0000 </r>
        <r>   18.4202    0.0000 </r>
        <r>   18.9244    0.0000 </r>
        <r>   25.7829    0.0000 </r>
       </set>
       <set comment="kpoint 76">
        <r>   -1.9804    1.0000 </r>
        <r>   -1.9804    1.0000 </r>
        <r>    2.9567    1.0000 </r>
        <r>    2.9567    1.0000 </r>
        <r>    6.5860    0.0000 </r>
        <r>    6.5860    0.0000 </r>
        <r>   15.8757    0.0000 </r>
        <r>   15.8772    0.0000 </r>
        <r>   18.4193    0.0000 </r>
        <r>   18.9792    0.0000 </r>
        <r>   25.0569    0.0000 </r>
        <r>   26.9374    0.0000 </r>
       </set>
       <set comment="kpoint 77">
        <r>   -1.9783    1.0000 </r>
        <r>   -1.9783    1.0000 </r>
        <r>    2.9382    1.0000 </r>
        <r>    2.9382    1.0000 </r>
        <r>    6.6202    0.0000 </r>
        <r>    6.6202    0.0000 </r>
        <r>   15.8119    0.0000 </r>
        <r>   15.8123    0.0000 </r>
        <r>   16.6550    0.0000 </r>
        <r>   18.4920    0.0000 </r>
        <r>   19.0541    0.0000 </r>
        <r>   25.5451    0.0000 </r>
       </set>
       <set comment="kpoint 78">
        <r>   -1.9757    1.0000 </r>
        <r>   -1.9757    1.0000 </r>
        <r>    2.9151    1.0000 </r>
        <r>    2.9151    1.0000 </r>
        <r>    6.6637    0.0000 </r>
        <r>    6.6637    0.0000 </r>
        <r>   15.7269    0.0000 </r>
        <r>   15.7295    0.0000 </r>
        <r>   18.4932    0.0000 </r>
        <r>   18.7138    0.0000 </r>
        <r>   19.1940    0.0000 </r>
        <r>   26.0023    0.0000 </r>
       </set>
       <set comment="kpoint 79">
        <r>   -1.9725    1.0000 </r>
        <r>   -1.9725    1.0000 </r>
        <r>    2.8876    1.0000 </r>
        <r>    2.8876    1.0000 </r>
        <r>    6.7159    0.0000 </r>
        <r>    6.7159    0.0000 </r>
        <r>   15.6201    0.0000 </r>
        <r>   15.6203    0.0000 </r>
        <r>   16.5570    0.0000 </r>
        <r>   19.1130    0.0000 </r>
        <r>   24.6180    0.0000 </r>
        <r>   25.8917    0.0000 </r>
       </set>
       <set comment="kpoint 80">
        <r>   -1.9687    1.0000 </r>
        <r>   -1.9687    1.0000 </r>
        <r>    2.8564    1.0000 </r>
        <r>    2.8564    1.0000 </r>
        <r>    6.7764    0.0000 </r>
        <r>    6.7764    0.0000 </r>
        <r>   15.4945    0.0000 </r>
        <r>   15.4946    0.0000 </r>
        <r>   16.5204    0.0000 </r>
        <r>   18.6389    0.0000 </r>
        <r>   19.4105    0.0000 </r>
        <r>   26.2257    0.0000 </r>
       </set>
       <set comment="kpoint 81">
        <r>   -1.9645    1.0000 </r>
        <r>   -1.9645    1.0000 </r>
        <r>    2.8218    1.0000 </r>
        <r>    2.8218    1.0000 </r>
        <r>    6.8449    0.0000 </r>
        <r>    6.8449    0.0000 </r>
        <r>   15.3531    0.0000 </r>
        <r>   15.3532    0.0000 </r>
        <r>   16.4920    0.0000 </r>
        <r>   18.6343    0.0000 </r>
        <r>   24.9729    0.0000 </r>
        <r>   27.0754    0.0000 </r>
       </set>
       <set comment="kpoint 82">
        <r>   -1.9597    1.0000 </r>
        <r>   -1.9597    1.0000 </r>
        <r>    2.7844    1.0000 </r>
        <r>    2.7844    1.0000 </r>
        <r>    6.9207    0.0000 </r>
        <r>    6.9207    0.0000 </r>
        <r>   15.1994    0.0000 </r>
        <r>   15.1994    0.0000 </r>
        <r>   16.4705    0.0000 </r>
        <r>   18.7122    0.0000 </r>
        <r>   19.8058    0.0000 </r>
        <r>   25.5432    0.0000 </r>
       </set>
       <set comment="kpoint 83">
        <r>   -1.9545    1.0000 </r>
        <r>   -1.9545    1.0000 </r>
        <r>    2.7447    1.0000 </r>
        <r>    2.7447    1.0000 </r>
        <r>    7.0035    0.0000 </r>
        <r>    7.0035    0.0000 </r>
        <r>   15.0363    0.0000 </r>
        <r>   15.0363    0.0000 </r>
        <r>   16.4543    0.0000 </r>
        <r>   16.4543    0.0000 </r>
        <r>   18.6154    0.0000 </r>
        <r>   25.5529    0.0000 </r>
       </set>
       <set comment="kpoint 84">
        <r>   -1.9489    1.0000 </r>
        <r>   -1.9489    1.0000 </r>
        <r>    2.7031    1.0000 </r>
        <r>    2.7031    1.0000 </r>
        <r>    7.0927    0.0000 </r>
        <r>    7.0927    0.0000 </r>
        <r>   14.8661    0.0000 </r>
        <r>   14.8661    0.0000 </r>
        <r>   16.4420    0.0000 </r>
        <r>   18.5968    0.0000 </r>
        <r>   20.1747    0.0000 </r>
        <r>   25.4076    0.0000 </r>
       </set>
       <set comment="kpoint 85">
        <r>   -1.9429    1.0000 </r>
        <r>   -1.9429    1.0000 </r>
        <r>    2.6600    1.0000 </r>
        <r>    2.6600    1.0000 </r>
        <r>    7.1879    0.0000 </r>
        <r>    7.1879    0.0000 </r>
        <r>   14.6908    0.0000 </r>
        <r>   16.3960    0.0000 </r>
        <r>   18.5186    0.0000 </r>
        <r>   18.6461    0.0000 </r>
        <r>   20.4823    0.0000 </r>
        <r>   24.9521    0.0000 </r>
       </set>
       <set comment="kpoint 86">
        <r>   -1.9365    1.0000 </r>
        <r>   -1.9365    1.0000 </r>
        <r>    2.6160    1.0000 </r>
        <r>    2.6160    1.0000 </r>
        <r>    7.2888    0.0000 </r>
        <r>    7.2888    0.0000 </r>
        <r>   14.5117    0.0000 </r>
        <r>   16.4192    0.0000 </r>
        <r>   18.6451    0.0000 </r>
        <r>   18.7524    0.0000 </r>
        <r>   20.5837    0.0000 </r>
        <r>   24.3498    0.0000 </r>
       </set>
       <set comment="kpoint 87">
        <r>   -1.9299    1.0000 </r>
        <r>   -1.9299    1.0000 </r>
        <r>    2.5715    1.0000 </r>
        <r>    2.5715    1.0000 </r>
        <r>    7.3949    0.0000 </r>
        <r>    7.3949    0.0000 </r>
        <r>   14.3299    0.0000 </r>
        <r>   16.4179    0.0000 </r>
        <r>   18.6448    0.0000 </r>
        <r>   18.9053    0.0000 </r>
        <r>   21.1299    0.0000 </r>
        <r>   24.6242    0.0000 </r>
       </set>
       <set comment="kpoint 88">
        <r>   -1.9230    1.0000 </r>
        <r>   -1.9230    1.0000 </r>
        <r>    2.5268    1.0000 </r>
        <r>    2.5268    1.0000 </r>
        <r>    7.5059    0.0000 </r>
        <r>    7.5059    0.0000 </r>
        <r>   14.1460    0.0000 </r>
        <r>   14.1460    0.0000 </r>
        <r>   16.4173    0.0000 </r>
        <r>   18.6880    0.0000 </r>
        <r>   25.1873    0.0000 </r>
        <r>   27.6039    0.0000 </r>
       </set>
       <set comment="kpoint 89">
        <r>   -1.9159    1.0000 </r>
        <r>   -1.9159    1.0000 </r>
        <r>    2.4822    1.0000 </r>
        <r>    2.4822    1.0000 </r>
        <r>    7.6214    0.0000 </r>
        <r>    7.6214    0.0000 </r>
        <r>   13.9608    0.0000 </r>
        <r>   16.4125    0.0000 </r>
        <r>   18.6720    0.0000 </r>
        <r>   18.7578    0.0000 </r>
        <r>   21.2808    0.0000 </r>
        <r>   23.2467    0.0000 </r>
       </set>
       <set comment="kpoint 90">
        <r>   -1.9087    1.0000 </r>
        <r>   -1.9087    1.0000 </r>
        <r>    2.4381    1.0000 </r>
        <r>    2.4381    1.0000 </r>
        <r>    7.7411    0.0000 </r>
        <r>    7.7411    0.0000 </r>
        <r>   13.7748    0.0000 </r>
        <r>   16.4153    0.0000 </r>
        <r>   18.6891    0.0000 </r>
        <r>   20.5862    0.0000 </r>
        <r>   23.3745    0.0000 </r>
        <r>   29.0104    0.0000 </r>
       </set>
       <set comment="kpoint 91">
        <r>   -1.9013    1.0000 </r>
        <r>   -1.9013    1.0000 </r>
        <r>    2.3949    1.0000 </r>
        <r>    2.3949    1.0000 </r>
        <r>    7.8649    0.0000 </r>
        <r>    7.8649    0.0000 </r>
        <r>   13.5883    0.0000 </r>
        <r>   13.5883    0.0000 </r>
        <r>   16.4114    0.0000 </r>
        <r>   16.4114    0.0000 </r>
        <r>   18.7250    0.0000 </r>
        <r>   28.9059    0.0000 </r>
       </set>
       <set comment="kpoint 92">
        <r>   -1.8940    1.0000 </r>
        <r>   -1.8940    1.0000 </r>
        <r>    2.3527    1.0000 </r>
        <r>    2.3527    1.0000 </r>
        <r>    7.9922    0.0000 </r>
        <r>    7.9922    0.0000 </r>
        <r>   13.4018    0.0000 </r>
        <r>   13.4018    0.0000 </r>
        <r>   16.4106    0.0000 </r>
        <r>   16.4106    0.0000 </r>
        <r>   18.7386    0.0000 </r>
        <r>   23.8853    0.0000 </r>
       </set>
       <set comment="kpoint 93">
        <r>   -1.8866    1.0000 </r>
        <r>   -1.8866    1.0000 </r>
        <r>    2.3118    1.0000 </r>
        <r>    2.3118    1.0000 </r>
        <r>    8.1231    0.0000 </r>
        <r>    8.1231    0.0000 </r>
        <r>   13.2154    0.0000 </r>
        <r>   13.2154    0.0000 </r>
        <r>   16.4102    0.0000 </r>
        <r>   16.4102    0.0000 </r>
        <r>   18.7522    0.0000 </r>
        <r>   22.0070    0.0000 </r>
       </set>
       <set comment="kpoint 94">
        <r>   -1.8794    1.0000 </r>
        <r>   -1.8794    1.0000 </r>
        <r>    2.2725    1.0000 </r>
        <r>    2.2725    1.0000 </r>
        <r>    8.2571    0.0000 </r>
        <r>    8.2571    0.0000 </r>
        <r>   13.0295    0.0000 </r>
        <r>   13.0295    0.0000 </r>
        <r>   16.4102    0.0000 </r>
        <r>   16.4102    0.0000 </r>
        <r>   23.2943    0.0000 </r>
        <r>   28.3939    0.0000 </r>
       </set>
       <set comment="kpoint 95">
        <r>   -1.8723    1.0000 </r>
        <r>   -1.8723    1.0000 </r>
        <r>    2.2351    1.0000 </r>
        <r>    2.2351    1.0000 </r>
        <r>    8.3941    0.0000 </r>
        <r>    8.3941    0.0000 </r>
        <r>   12.8443    0.0000 </r>
        <r>   12.8443    0.0000 </r>
        <r>   16.4104    0.0000 </r>
        <r>   16.4104    0.0000 </r>
        <r>   23.4940    0.0000 </r>
        <r>   29.1751    0.0000 </r>
       </set>
       <set comment="kpoint 96">
        <r>   -1.8654    1.0000 </r>
        <r>   -1.8654    1.0000 </r>
        <r>    2.1995    1.0000 </r>
        <r>    2.1995    1.0000 </r>
        <r>    8.5339    0.0000 </r>
        <r>    8.5339    0.0000 </r>
        <r>   12.6600    0.0000 </r>
        <r>   12.6600    0.0000 </r>
        <r>   16.4108    0.0000 </r>
        <r>   16.4108    0.0000 </r>
        <r>   18.7915    0.0000 </r>
        <r>   23.1784    0.0000 </r>
       </set>
       <set comment="kpoint 97">
        <r>   -1.8587    1.0000 </r>
        <r>   -1.8587    1.0000 </r>
        <r>    2.1662    1.0000 </r>
        <r>    2.1662    1.0000 </r>
        <r>    8.6760    0.0000 </r>
        <r>    8.6760    0.0000 </r>
        <r>   12.4767    0.0000 </r>
        <r>   12.4767    0.0000 </r>
        <r>   16.4111    0.0000 </r>
        <r>   16.4111    0.0000 </r>
        <r>   22.5327    0.0000 </r>
        <r>   28.9656    0.0000 </r>
       </set>
       <set comment="kpoint 98">
        <r>   -1.8525    1.0000 </r>
        <r>   -1.8525    1.0000 </r>
        <r>    2.1352    1.0000 </r>
        <r>    2.1352    1.0000 </r>
        <r>    8.8205    0.0000 </r>
        <r>    8.8205    0.0000 </r>
        <r>   12.2950    0.0000 </r>
        <r>   16.4116    0.0000 </r>
        <r>   18.7682    0.0000 </r>
        <r>   18.8429    0.0000 </r>
        <r>   22.8967    0.0000 </r>
        <r>   23.2722    0.0000 </r>
       </set>
       <set comment="kpoint 99">
        <r>   -1.8466    1.0000 </r>
        <r>   -1.8466    1.0000 </r>
        <r>    2.1067    1.0000 </r>
        <r>    2.1067    1.0000 </r>
        <r>    8.9668    0.0000 </r>
        <r>    8.9668    0.0000 </r>
        <r>   12.1149    0.0000 </r>
        <r>   12.1149    0.0000 </r>
        <r>   16.4122    0.0000 </r>
        <r>   16.4122    0.0000 </r>
        <r>   18.8265    0.0000 </r>
        <r>   23.3264    0.0000 </r>
       </set>
       <set comment="kpoint 100">
        <r>   -1.8411    1.0000 </r>
        <r>   -1.8411    1.0000 </r>
        <r>    2.0808    1.0000 </r>
        <r>    2.0808    1.0000 </r>
        <r>    9.1147    0.0000 </r>
        <r>    9.1147    0.0000 </r>
        <r>   11.9369    0.0000 </r>
        <r>   11.9369    0.0000 </r>
        <r>   16.4128    0.0000 </r>
        <r>   16.4128    0.0000 </r>
        <r>   24.0102    0.0000 </r>
        <r>   24.7029    0.0000 </r>
       </set>
       <set comment="kpoint 101">
        <r>   -1.8362    1.0000 </r>
        <r>   -1.8362    1.0000 </r>
        <r>    2.0577    1.0000 </r>
        <r>    2.0577    1.0000 </r>
        <r>    9.2636    0.0000 </r>
        <r>    9.2636    0.0000 </r>
        <r>   11.7615    0.0000 </r>
        <r>   11.7615    0.0000 </r>
        <r>   16.4134    0.0000 </r>
        <r>   16.4134    0.0000 </r>
        <r>   24.3728    0.0000 </r>
        <r>   26.5976    0.0000 </r>
       </set>
       <set comment="kpoint 102">
        <r>   -1.8318    1.0000 </r>
        <r>   -1.8318    1.0000 </r>
        <r>    2.0374    1.0000 </r>
        <r>    2.0374    1.0000 </r>
        <r>    9.4128    0.0000 </r>
        <r>    9.4128    0.0000 </r>
        <r>   11.5893    0.0000 </r>
        <r>   11.5893    0.0000 </r>
        <r>   16.4140    0.0000 </r>
        <r>   16.4140    0.0000 </r>
        <r>   23.0957    0.0000 </r>
        <r>   25.2529    0.0000 </r>
       </set>
       <set comment="kpoint 103">
        <r>   -1.8280    1.0000 </r>
        <r>   -1.8280    1.0000 </r>
        <r>    2.0201    1.0000 </r>
        <r>    2.0201    1.0000 </r>
        <r>    9.5612    0.0000 </r>
        <r>    9.5612    0.0000 </r>
        <r>   11.4216    0.0000 </r>
        <r>   11.4216    0.0000 </r>
        <r>   16.4145    0.0000 </r>
        <r>   16.4145    0.0000 </r>
        <r>   24.9689    0.0000 </r>
        <r>   29.0728    0.0000 </r>
       </set>
       <set comment="kpoint 104">
        <r>   -1.8248    1.0000 </r>
        <r>   -1.8248    1.0000 </r>
        <r>    2.0058    1.0000 </r>
        <r>    2.0058    1.0000 </r>
        <r>    9.7066    0.0000 </r>
        <r>    9.7066    0.0000 </r>
        <r>   11.2602    0.0000 </r>
        <r>   11.2602    0.0000 </r>
        <r>   16.4149    0.0000 </r>
        <r>   16.4149    0.0000 </r>
        <r>   24.6281    0.0000 </r>
        <r>   25.2315    0.0000 </r>
       </set>
       <set comment="kpoint 105">
        <r>   -1.8223    1.0000 </r>
        <r>   -1.8223    1.0000 </r>
        <r>    1.9946    1.0000 </r>
        <r>    1.9946    1.0000 </r>
        <r>    9.8453    0.0000 </r>
        <r>    9.8453    0.0000 </r>
        <r>   11.1093    0.0000 </r>
        <r>   11.1093    0.0000 </r>
        <r>   16.4153    0.0000 </r>
        <r>   16.4153    0.0000 </r>
        <r>   18.8720    0.0000 </r>
        <r>   25.0629    0.0000 </r>
       </set>
       <set comment="kpoint 106">
        <r>   -1.8205    1.0000 </r>
        <r>   -1.8205    1.0000 </r>
        <r>    1.9866    1.0000 </r>
        <r>    1.9866    1.0000 </r>
        <r>    9.9695    0.0000 </r>
        <r>    9.9695    0.0000 </r>
        <r>   10.9763    0.0000 </r>
        <r>   10.9763    0.0000 </r>
        <r>   16.4155    0.0000 </r>
        <r>   16.4155    0.0000 </r>
        <r>   18.8754    0.0000 </r>
        <r>   24.4057    0.0000 </r>
       </set>
       <set comment="kpoint 107">
        <r>   -1.8194    1.0000 </r>
        <r>   -1.8194    1.0000 </r>
        <r>    1.9818    1.0000 </r>
        <r>    1.9818    1.0000 </r>
        <r>   10.0631    0.0000 </r>
        <r>   10.0631    0.0000 </r>
        <r>   10.8773    0.0000 </r>
        <r>   10.8773    0.0000 </r>
        <r>   16.4157    0.0000 </r>
        <r>   16.4157    0.0000 </r>
        <r>   24.4628    0.0000 </r>
        <r>   25.5058    0.0000 </r>
       </set>
       <set comment="kpoint 108">
        <r>   -1.8190    1.0000 </r>
        <r>   -1.8190    1.0000 </r>
        <r>    1.9802    1.0000 </r>
        <r>    1.9802    1.0000 </r>
        <r>   10.0999    0.0000 </r>
        <r>   10.0999    0.0000 </r>
        <r>   10.8387    0.0000 </r>
        <r>   10.8387    0.0000 </r>
        <r>   16.4158    0.0000 </r>
        <r>   16.4158    0.0000 </r>
        <r>   18.8782    0.0000 </r>
        <r>   24.7332    0.0000 </r>
       </set>
       <set comment="kpoint 109">
        <r>   -1.8190    1.0000 </r>
        <r>   -1.8190    1.0000 </r>
        <r>    1.9802    1.0000 </r>
        <r>    1.9802    1.0000 </r>
        <r>   10.0999    0.0000 </r>
        <r>   10.0999    0.0000 </r>
        <r>   10.8387    0.0000 </r>
        <r>   10.8387    0.0000 </r>
        <r>   16.4158    0.0000 </r>
        <r>   16.4158    0.0000 </r>
        <r>   22.5093    0.0000 </r>
        <r>   24.7101    0.0000 </r>
       </set>
       <set comment="kpoint 110">
        <r>   -1.8514    1.0000 </r>
        <r>   -1.7870    1.0000 </r>
        <r>    1.9558    1.0000 </r>
        <r>    2.0062    1.0000 </r>
        <r>   10.0570    0.0000 </r>
        <r>   10.1214    0.0000 </r>
        <r>   10.8306    0.0000 </r>
        <r>   10.8702    0.0000 </r>
        <r>   16.3545    0.0000 </r>
        <r>   16.4736    0.0000 </r>
        <r>   18.8449    0.0000 </r>
        <r>   24.5093    0.0000 </r>
       </set>
       <set comment="kpoint 111">
        <r>   -1.8829    1.0000 </r>
        <r>   -1.7564    1.0000 </r>
        <r>    1.9319    1.0000 </r>
        <r>    2.0348    1.0000 </r>
        <r>    9.9820    0.0000 </r>
        <r>   10.1369    0.0000 </r>
        <r>   10.8567    0.0000 </r>
        <r>   10.9090    0.0000 </r>
        <r>   16.2911    0.0000 </r>
        <r>   16.5262    0.0000 </r>
        <r>   18.9256    0.0000 </r>
        <r>   24.7724    0.0000 </r>
       </set>
       <set comment="kpoint 112">
        <r>   -1.9134    1.0000 </r>
        <r>   -1.7274    1.0000 </r>
        <r>    1.9087    1.0000 </r>
        <r>    2.0660    1.0000 </r>
        <r>    9.8850    0.0000 </r>
        <r>   10.1469    0.0000 </r>
        <r>   10.9071    0.0000 </r>
        <r>   10.9547    0.0000 </r>
        <r>   16.2258    0.0000 </r>
        <r>   16.5725    0.0000 </r>
        <r>   24.4421    0.0000 </r>
        <r>   25.3971    0.0000 </r>
       </set>
       <set comment="kpoint 113">
        <r>   -1.9430    1.0000 </r>
        <r>   -1.7000    1.0000 </r>
        <r>    1.8861    1.0000 </r>
        <r>    2.0996    1.0000 </r>
        <r>    9.7746    0.0000 </r>
        <r>   10.1522    0.0000 </r>
        <r>   10.9732    0.0000 </r>
        <r>   11.0064    0.0000 </r>
        <r>   16.1588    0.0000 </r>
        <r>   16.6114    0.0000 </r>
        <r>   22.3567    0.0000 </r>
        <r>   24.7984    0.0000 </r>
       </set>
       <set comment="kpoint 114">
        <r>   -1.9717    1.0000 </r>
        <r>   -1.6741    1.0000 </r>
        <r>    1.8642    1.0000 </r>
        <r>    2.1357    1.0000 </r>
        <r>    9.6565    0.0000 </r>
        <r>   10.1536    0.0000 </r>
        <r>   11.0493    0.0000 </r>
        <r>   11.0635    0.0000 </r>
        <r>   16.0908    0.0000 </r>
        <r>   22.1863    0.0000 </r>
        <r>   24.1226    0.0000 </r>
        <r>   35.4021    0.0000 </r>
       </set>
       <set comment="kpoint 115">
        <r>   -1.9995    1.0000 </r>
        <r>   -1.6496    1.0000 </r>
        <r>    1.8429    1.0000 </r>
        <r>    2.1741    1.0000 </r>
        <r>    9.5343    0.0000 </r>
        <r>   10.1518    0.0000 </r>
        <r>   11.1250    0.0000 </r>
        <r>   11.1320    0.0000 </r>
        <r>   16.0199    0.0000 </r>
        <r>   16.6617    0.0000 </r>
        <r>   24.1978    0.0000 </r>
        <r>   24.9707    0.0000 </r>
       </set>
       <set comment="kpoint 116">
        <r>   -2.0264    1.0000 </r>
        <r>   -1.6267    1.0000 </r>
        <r>    1.8222    1.0000 </r>
        <r>    2.2148    1.0000 </r>
        <r>    9.4099    0.0000 </r>
        <r>   10.1476    0.0000 </r>
        <r>   11.1903    0.0000 </r>
        <r>   11.2194    0.0000 </r>
        <r>   15.9483    0.0000 </r>
        <r>   16.6709    0.0000 </r>
        <r>   22.6805    0.0000 </r>
        <r>   24.4175    0.0000 </r>
       </set>
       <set comment="kpoint 117">
        <r>   -2.0523    1.0000 </r>
        <r>   -1.6052    1.0000 </r>
        <r>    1.8022    1.0000 </r>
        <r>    2.2577    1.0000 </r>
        <r>    9.2847    0.0000 </r>
        <r>   10.1414    0.0000 </r>
        <r>   11.2589    0.0000 </r>
        <r>   11.3102    0.0000 </r>
        <r>   15.8755    0.0000 </r>
        <r>   16.6683    0.0000 </r>
        <r>   24.4198    0.0000 </r>
        <r>   33.6511    0.0000 </r>
       </set>
       <set comment="kpoint 118">
        <r>   -2.0772    1.0000 </r>
        <r>   -1.5851    1.0000 </r>
        <r>    1.7828    1.0000 </r>
        <r>    2.3026    1.0000 </r>
        <r>    9.1595    0.0000 </r>
        <r>   10.1339    0.0000 </r>
        <r>   11.3301    0.0000 </r>
        <r>   11.4036    0.0000 </r>
        <r>   15.8014    0.0000 </r>
        <r>   16.6534    0.0000 </r>
        <r>   24.3024    0.0000 </r>
        <r>   24.5270    0.0000 </r>
       </set>
       <set comment="kpoint 119">
        <r>   -2.1013    1.0000 </r>
        <r>   -1.5664    1.0000 </r>
        <r>    1.7642    1.0000 </r>
        <r>    2.3493    1.0000 </r>
        <r>    9.0348    0.0000 </r>
        <r>   10.1254    0.0000 </r>
        <r>   11.4704    0.0000 </r>
        <r>   15.7269    0.0000 </r>
        <r>   16.6615    0.0000 </r>
        <r>   19.3880    0.0000 </r>
        <r>   22.2774    0.0000 </r>
        <r>   24.7556    0.0000 </r>
       </set>
       <set comment="kpoint 120">
        <r>   -2.1244    1.0000 </r>
        <r>   -1.5490    1.0000 </r>
        <r>    1.7462    1.0000 </r>
        <r>    2.3979    1.0000 </r>
        <r>    8.9112    0.0000 </r>
        <r>   10.1161    0.0000 </r>
        <r>   11.4790    0.0000 </r>
        <r>   11.5965    0.0000 </r>
        <r>   15.6500    0.0000 </r>
        <r>   16.5876    0.0000 </r>
        <r>   23.9477    0.0000 </r>
        <r>   28.9684    0.0000 </r>
       </set>
       <set comment="kpoint 121">
        <r>   -2.1466    1.0000 </r>
        <r>   -1.5329    1.0000 </r>
        <r>    1.7289    1.0000 </r>
        <r>    2.4480    1.0000 </r>
        <r>    8.7890    0.0000 </r>
        <r>   10.1063    0.0000 </r>
        <r>   11.5561    0.0000 </r>
        <r>   11.6954    0.0000 </r>
        <r>   15.5728    0.0000 </r>
        <r>   16.5379    0.0000 </r>
        <r>   23.5359    0.0000 </r>
        <r>   24.5748    0.0000 </r>
       </set>
       <set comment="kpoint 122">
        <r>   -2.1678    1.0000 </r>
        <r>   -1.5179    1.0000 </r>
        <r>    1.7123    1.0000 </r>
        <r>    2.4996    1.0000 </r>
        <r>    8.6685    0.0000 </r>
        <r>   10.0963    0.0000 </r>
        <r>   11.6346    0.0000 </r>
        <r>   11.7956    0.0000 </r>
        <r>   15.4947    0.0000 </r>
        <r>   16.4785    0.0000 </r>
        <r>   18.6930    0.0000 </r>
        <r>   23.4446    0.0000 </r>
       </set>
       <set comment="kpoint 123">
        <r>   -2.1882    1.0000 </r>
        <r>   -1.5042    1.0000 </r>
        <r>    1.6963    1.0000 </r>
        <r>    2.5523    1.0000 </r>
        <r>    8.5499    0.0000 </r>
        <r>   10.0862    0.0000 </r>
        <r>   11.7144    0.0000 </r>
        <r>   11.8970    0.0000 </r>
        <r>   15.4157    0.0000 </r>
        <r>   16.4104    0.0000 </r>
        <r>   18.7447    0.0000 </r>
        <r>   23.3330    0.0000 </r>
       </set>
       <set comment="kpoint 124">
        <r>   -2.2075    1.0000 </r>
        <r>   -1.4915    1.0000 </r>
        <r>    1.6811    1.0000 </r>
        <r>    2.6061    1.0000 </r>
        <r>    8.4335    0.0000 </r>
        <r>   10.0760    0.0000 </r>
        <r>   11.7953    0.0000 </r>
        <r>   11.9995    0.0000 </r>
        <r>   15.3359    0.0000 </r>
        <r>   16.3348    0.0000 </r>
        <r>   18.8051    0.0000 </r>
        <r>   19.9742    0.0000 </r>
       </set>
       <set comment="kpoint 125">
        <r>   -2.2260    1.0000 </r>
        <r>   -1.4799    1.0000 </r>
        <r>    1.6666    1.0000 </r>
        <r>    2.6607    1.0000 </r>
        <r>    8.3195    0.0000 </r>
        <r>   10.0660    0.0000 </r>
        <r>   11.8771    0.0000 </r>
        <r>   12.1029    0.0000 </r>
        <r>   15.2553    0.0000 </r>
        <r>   16.2529    0.0000 </r>
        <r>   19.8659    0.0000 </r>
        <r>   25.3049    0.0000 </r>
       </set>
       <set comment="kpoint 126">
        <r>   -2.2435    1.0000 </r>
        <r>   -1.4692    1.0000 </r>
        <r>    1.6528    1.0000 </r>
        <r>    2.7159    1.0000 </r>
        <r>    8.2083    0.0000 </r>
        <r>   10.0562    0.0000 </r>
        <r>   11.9598    0.0000 </r>
        <r>   12.2074    0.0000 </r>
        <r>   15.1741    0.0000 </r>
        <r>   16.1655    0.0000 </r>
        <r>   23.2770    0.0000 </r>
        <r>   24.7495    0.0000 </r>
       </set>
       <set comment="kpoint 127">
        <r>   -2.2600    1.0000 </r>
        <r>   -1.4595    1.0000 </r>
        <r>    1.6398    1.0000 </r>
        <r>    2.7714    1.0000 </r>
        <r>    8.0999    0.0000 </r>
        <r>   10.0467    0.0000 </r>
        <r>   12.0822    0.0000 </r>
        <r>   15.0899    0.0000 </r>
        <r>   16.0756    0.0000 </r>
        <r>   19.5191    0.0000 </r>
        <r>   22.2180    0.0000 </r>
        <r>   28.1252    0.0000 </r>
       </set>
       <set comment="kpoint 128">
        <r>   -2.2756    1.0000 </r>
        <r>   -1.4507    1.0000 </r>
        <r>    1.6274    1.0000 </r>
        <r>    2.8268    1.0000 </r>
        <r>    7.9948    0.0000 </r>
        <r>   10.0375    0.0000 </r>
        <r>   12.1272    0.0000 </r>
        <r>   12.4188    0.0000 </r>
        <r>   15.0098    0.0000 </r>
        <r>   15.9775    0.0000 </r>
        <r>   20.0504    0.0000 </r>
        <r>   22.5057    0.0000 </r>
       </set>
       <set comment="kpoint 129">
        <r>   -2.2903    1.0000 </r>
        <r>   -1.4426    1.0000 </r>
        <r>    1.6158    1.0000 </r>
        <r>    2.8821    1.0000 </r>
        <r>    7.8931    0.0000 </r>
        <r>   10.0287    0.0000 </r>
        <r>   12.2116    0.0000 </r>
        <r>   12.5256    0.0000 </r>
        <r>   14.9268    0.0000 </r>
        <r>   15.8781    0.0000 </r>
        <r>   19.1942    0.0000 </r>
        <r>   20.7185    0.0000 </r>
       </set>
       <set comment="kpoint 130">
        <r>   -2.3040    1.0000 </r>
        <r>   -1.4354    1.0000 </r>
        <r>    1.6049    1.0000 </r>
        <r>    2.9366    1.0000 </r>
        <r>    7.7952    0.0000 </r>
        <r>   10.0203    0.0000 </r>
        <r>   12.2965    0.0000 </r>
        <r>   12.6332    0.0000 </r>
        <r>   14.8435    0.0000 </r>
        <r>   15.7761    0.0000 </r>
        <r>   19.2810    0.0000 </r>
        <r>   20.4628    0.0000 </r>
       </set>
       <set comment="kpoint 131">
        <r>   -2.3168    1.0000 </r>
        <r>   -1.4289    1.0000 </r>
        <r>    1.5948    1.0000 </r>
        <r>    2.9903    1.0000 </r>
        <r>    7.7014    0.0000 </r>
        <r>   10.0124    0.0000 </r>
        <r>   12.3816    0.0000 </r>
        <r>   12.7414    0.0000 </r>
        <r>   14.7599    0.0000 </r>
        <r>   15.6719    0.0000 </r>
        <r>   19.3725    0.0000 </r>
        <r>   20.5946    0.0000 </r>
       </set>
       <set comment="kpoint 132">
        <r>   -2.3286    1.0000 </r>
        <r>   -1.4230    1.0000 </r>
        <r>    1.5854    1.0000 </r>
        <r>    3.0426    1.0000 </r>
        <r>    7.6121    0.0000 </r>
        <r>   10.0050    0.0000 </r>
        <r>   12.4670    0.0000 </r>
        <r>   12.8503    0.0000 </r>
        <r>   14.6761    0.0000 </r>
        <r>   15.5658    0.0000 </r>
        <r>   20.1251    0.0000 </r>
        <r>   21.4156    0.0000 </r>
       </set>
       <set comment="kpoint 133">
        <r>   -2.3395    1.0000 </r>
        <r>   -1.4178    1.0000 </r>
        <r>    1.5767    1.0000 </r>
        <r>    3.0931    1.0000 </r>
        <r>    7.5275    0.0000 </r>
        <r>    9.9981    0.0000 </r>
        <r>   12.5523    0.0000 </r>
        <r>   12.9597    0.0000 </r>
        <r>   14.5921    0.0000 </r>
        <r>   15.4580    0.0000 </r>
        <r>   19.5709    0.0000 </r>
        <r>   22.1340    0.0000 </r>
       </set>
       <set comment="kpoint 134">
        <r>   -2.3495    1.0000 </r>
        <r>   -1.4132    1.0000 </r>
        <r>    1.5688    1.0000 </r>
        <r>    3.1415    1.0000 </r>
        <r>    7.4483    0.0000 </r>
        <r>    9.9917    0.0000 </r>
        <r>   12.6374    0.0000 </r>
        <r>   13.0696    0.0000 </r>
        <r>   14.5082    0.0000 </r>
        <r>   15.3490    0.0000 </r>
        <r>   19.6777    0.0000 </r>
        <r>   21.8479    0.0000 </r>
       </set>
       <set comment="kpoint 135">
        <r>   -2.3585    1.0000 </r>
        <r>   -1.4091    1.0000 </r>
        <r>    1.5616    1.0000 </r>
        <r>    3.1873    1.0000 </r>
        <r>    7.3746    0.0000 </r>
        <r>    9.9859    0.0000 </r>
        <r>   12.7955    0.0000 </r>
        <r>   14.4024    0.0000 </r>
        <r>   15.2337    0.0000 </r>
        <r>   21.5097    0.0000 </r>
        <r>   21.9993    0.0000 </r>
        <r>   25.9241    0.0000 </r>
       </set>
       <set comment="kpoint 136">
        <r>   -2.3665    1.0000 </r>
        <r>   -1.4055    1.0000 </r>
        <r>    1.5552    1.0000 </r>
        <r>    3.2300    1.0000 </r>
        <r>    7.3070    0.0000 </r>
        <r>    9.9807    0.0000 </r>
        <r>   12.8706    0.0000 </r>
        <r>   14.3362    0.0000 </r>
        <r>   15.1264    0.0000 </r>
        <r>   20.1385    0.0000 </r>
        <r>   21.2263    0.0000 </r>
        <r>   21.9586    0.0000 </r>
       </set>
       <set comment="kpoint 137">
        <r>   -2.3736    1.0000 </r>
        <r>   -1.4025    1.0000 </r>
        <r>    1.5495    1.0000 </r>
        <r>    3.2691    1.0000 </r>
        <r>    7.2459    0.0000 </r>
        <r>    9.9761    0.0000 </r>
        <r>   12.8957    0.0000 </r>
        <r>   14.2542    0.0000 </r>
        <r>   15.0033    0.0000 </r>
        <r>   20.2008    0.0000 </r>
        <r>   21.2446    0.0000 </r>
        <r>   21.8267    0.0000 </r>
       </set>
       <set comment="kpoint 138">
        <r>   -2.3798    1.0000 </r>
        <r>   -1.3999    1.0000 </r>
        <r>    1.5446    1.0000 </r>
        <r>    3.3043    1.0000 </r>
        <r>    7.1918    0.0000 </r>
        <r>    9.9720    0.0000 </r>
        <r>   12.9709    0.0000 </r>
        <r>   13.5123    0.0000 </r>
        <r>   14.1788    0.0000 </r>
        <r>   14.9057    0.0000 </r>
        <r>   21.1978    0.0000 </r>
        <r>   27.2802    0.0000 </r>
       </set>
       <set comment="kpoint 139">
        <r>   -2.3850    1.0000 </r>
        <r>   -1.3977    1.0000 </r>
        <r>    1.5405    1.0000 </r>
        <r>    3.3349    1.0000 </r>
        <r>    7.1452    0.0000 </r>
        <r>    9.9686    0.0000 </r>
        <r>   13.0498    0.0000 </r>
        <r>   13.6228    0.0000 </r>
        <r>   14.1006    0.0000 </r>
        <r>   14.7945    0.0000 </r>
        <r>   20.4628    0.0000 </r>
        <r>   21.2256    0.0000 </r>
       </set>
       <set comment="kpoint 140">
        <r>   -2.3893    1.0000 </r>
        <r>   -1.3960    1.0000 </r>
        <r>    1.5370    1.0000 </r>
        <r>    3.3607    1.0000 </r>
        <r>    7.1064    0.0000 </r>
        <r>    9.9658    0.0000 </r>
        <r>   13.1439    0.0000 </r>
        <r>   13.8443    0.0000 </r>
        <r>   14.6514    0.0000 </r>
        <r>   20.8355    0.0000 </r>
        <r>   21.4972    0.0000 </r>
        <r>   26.2137    0.0000 </r>
       </set>
       <set comment="kpoint 141">
        <r>   -2.3926    1.0000 </r>
        <r>   -1.3946    1.0000 </r>
        <r>    1.5344    1.0000 </r>
        <r>    3.3812    1.0000 </r>
        <r>    7.0758    0.0000 </r>
        <r>    9.9636    0.0000 </r>
        <r>   13.1929    0.0000 </r>
        <r>   13.8404    0.0000 </r>
        <r>   13.9586    0.0000 </r>
        <r>   14.5758    0.0000 </r>
        <r>   20.4340    0.0000 </r>
        <r>   25.8614    0.0000 </r>
       </set>
       <set comment="kpoint 142">
        <r>   -2.3950    1.0000 </r>
        <r>   -1.3937    1.0000 </r>
        <r>    1.5325    1.0000 </r>
        <r>    3.3961    1.0000 </r>
        <r>    7.0537    0.0000 </r>
        <r>    9.9620    0.0000 </r>
        <r>   13.2563    0.0000 </r>
        <r>   13.9091    0.0000 </r>
        <r>   14.4594    0.0000 </r>
        <r>   20.7089    0.0000 </r>
        <r>   21.4595    0.0000 </r>
        <r>   27.7124    0.0000 </r>
       </set>
       <set comment="kpoint 143">
        <r>   -2.3964    1.0000 </r>
        <r>   -1.3931    1.0000 </r>
        <r>    1.5314    1.0000 </r>
        <r>    3.4051    1.0000 </r>
        <r>    7.0403    0.0000 </r>
        <r>    9.9610    0.0000 </r>
        <r>   13.2905    0.0000 </r>
        <r>   13.8632    0.0000 </r>
        <r>   14.2954    0.0000 </r>
        <r>   20.8649    0.0000 </r>
        <r>   21.6141    0.0000 </r>
        <r>   26.0289    0.0000 </r>
       </set>
       <set comment="kpoint 144">
        <r>   -2.3969    1.0000 </r>
        <r>   -1.3929    1.0000 </r>
        <r>    1.5310    1.0000 </r>
        <r>    3.4081    1.0000 </r>
        <r>    7.0358    0.0000 </r>
        <r>    9.9607    0.0000 </r>
        <r>   13.3049    0.0000 </r>
        <r>   13.8471    0.0000 </r>
        <r>   14.0751    0.0000 </r>
        <r>   14.3403    0.0000 </r>
        <r>   20.6195    0.0000 </r>
        <r>   20.8612    0.0000 </r>
       </set>
       <set comment="kpoint 145">
        <r>   -2.3969    1.0000 </r>
        <r>   -1.3929    1.0000 </r>
        <r>    1.5310    1.0000 </r>
        <r>    3.4081    1.0000 </r>
        <r>    7.0358    0.0000 </r>
        <r>    9.9607    0.0000 </r>
        <r>   13.3049    0.0000 </r>
        <r>   13.8471    0.0000 </r>
        <r>   14.0751    0.0000 </r>
        <r>   14.3403    0.0000 </r>
        <r>   20.6025    0.0000 </r>
        <r>   21.3640    0.0000 </r>
       </set>
       <set comment="kpoint 146">
        <r>   -2.4993    1.0000 </r>
        <r>   -1.2878    1.0000 </r>
        <r>    1.4680    1.0000 </r>
        <r>    3.4817    1.0000 </r>
        <r>    7.1212    0.0000 </r>
        <r>   10.3949    0.0000 </r>
        <r>   13.0828    0.0000 </r>
        <r>   13.8626    0.0000 </r>
        <r>   14.0825    0.0000 </r>
        <r>   20.9931    0.0000 </r>
        <r>   21.4363    0.0000 </r>
        <r>   28.1490    0.0000 </r>
       </set>
       <set comment="kpoint 147">
        <r>   -2.6147    1.0000 </r>
        <r>   -1.1742    1.0000 </r>
        <r>    1.4292    1.0000 </r>
        <r>    3.5602    1.0000 </r>
        <r>    7.2124    0.0000 </r>
        <r>   10.8330    0.0000 </r>
        <r>   12.7840    0.0000 </r>
        <r>   13.3289    0.0000 </r>
        <r>   13.7849    0.0000 </r>
        <r>   20.6712    0.0000 </r>
        <r>   21.2966    0.0000 </r>
        <r>   22.4592    0.0000 </r>
       </set>
       <set comment="kpoint 148">
        <r>   -2.7418    1.0000 </r>
        <r>   -1.0521    1.0000 </r>
        <r>    1.4142    1.0000 </r>
        <r>    3.6436    1.0000 </r>
        <r>    7.3091    0.0000 </r>
        <r>   11.2669    0.0000 </r>
        <r>   12.5315    0.0000 </r>
        <r>   13.0896    0.0000 </r>
        <r>   13.4507    0.0000 </r>
        <r>   13.6796    0.0000 </r>
        <r>   20.4686    0.0000 </r>
        <r>   21.2593    0.0000 </r>
       </set>
       <set comment="kpoint 149">
        <r>   -2.8792    1.0000 </r>
        <r>   -0.9216    1.0000 </r>
        <r>    1.4221    1.0000 </r>
        <r>    3.7313    1.0000 </r>
        <r>    7.4109    0.0000 </r>
        <r>   11.6740    0.0000 </r>
        <r>   12.2852    0.0000 </r>
        <r>   12.8956    0.0000 </r>
        <r>   13.2513    0.0000 </r>
        <r>   13.4762    0.0000 </r>
        <r>   20.2644    0.0000 </r>
        <r>   21.0313    0.0000 </r>
       </set>
       <set comment="kpoint 150">
        <r>   -3.0249    1.0000 </r>
        <r>   -0.7827    1.0000 </r>
        <r>    1.4513    1.0000 </r>
        <r>    3.8231    1.0000 </r>
        <r>    7.5171    0.0000 </r>
        <r>   11.9732    0.0000 </r>
        <r>   12.0462    0.0000 </r>
        <r>   12.9037    0.0000 </r>
        <r>   13.2239    0.0000 </r>
        <r>   19.9587    0.0000 </r>
        <r>   20.6443    0.0000 </r>
        <r>   22.3542    0.0000 </r>
       </set>
       <set comment="kpoint 151">
        <r>   -3.1773    1.0000 </r>
        <r>   -0.6354    1.0000 </r>
        <r>    1.5004    1.0000 </r>
        <r>    3.9186    1.0000 </r>
        <r>    7.6274    0.0000 </r>
        <r>   11.8119    0.0000 </r>
        <r>   12.0157    0.0000 </r>
        <r>   12.8707    0.0000 </r>
        <r>   13.0177    0.0000 </r>
        <r>   13.0982    0.0000 </r>
        <r>   20.2693    0.0000 </r>
        <r>   22.1033    0.0000 </r>
       </set>
       <set comment="kpoint 152">
        <r>   -3.3344    1.0000 </r>
        <r>   -0.4799    1.0000 </r>
        <r>    1.5677    1.0000 </r>
        <r>    4.0173    1.0000 </r>
        <r>    7.7408    0.0000 </r>
        <r>   11.5854    0.0000 </r>
        <r>   11.8787    0.0000 </r>
        <r>   12.6927    0.0000 </r>
        <r>   12.9329    0.0000 </r>
        <r>   19.5138    0.0000 </r>
        <r>   20.1392    0.0000 </r>
        <r>   22.5809    0.0000 </r>
       </set>
       <set comment="kpoint 153">
        <r>   -3.4946    1.0000 </r>
        <r>   -0.3161    1.0000 </r>
        <r>    1.6518    1.0000 </r>
        <r>    4.1188    1.0000 </r>
        <r>    7.8566    0.0000 </r>
        <r>   11.3660    0.0000 </r>
        <r>   11.6909    0.0000 </r>
        <r>   12.5207    0.0000 </r>
        <r>   12.7628    0.0000 </r>
        <r>   19.5722    0.0000 </r>
        <r>   22.7486    0.0000 </r>
        <r>   24.7151    0.0000 </r>
       </set>
       <set comment="kpoint 154">
        <r>   -3.6562    1.0000 </r>
        <r>   -0.1441    1.0000 </r>
        <r>    1.7510    1.0000 </r>
        <r>    4.2225    1.0000 </r>
        <r>    7.9738    0.0000 </r>
        <r>   11.1538    0.0000 </r>
        <r>   11.4912    0.0000 </r>
        <r>   12.3596    0.0000 </r>
        <r>   12.6130    0.0000 </r>
        <r>   19.1159    0.0000 </r>
        <r>   19.9296    0.0000 </r>
        <r>   32.6157    0.0000 </r>
       </set>
       <set comment="kpoint 155">
        <r>   -3.8179    1.0000 </r>
        <r>    0.0360    1.0000 </r>
        <r>    1.8642    1.0000 </r>
        <r>    4.3278    1.0000 </r>
        <r>    8.0912    0.0000 </r>
        <r>   10.9489    0.0000 </r>
        <r>   11.2908    0.0000 </r>
        <r>   12.2090    0.0000 </r>
        <r>   12.4758    0.0000 </r>
        <r>   18.9923    0.0000 </r>
        <r>   19.7609    0.0000 </r>
        <r>   23.3513    0.0000 </r>
       </set>
       <set comment="kpoint 156">
        <r>   -3.9784    1.0000 </r>
        <r>    0.2241    1.0000 </r>
        <r>    1.9899    1.0000 </r>
        <r>    4.4340    1.0000 </r>
        <r>    8.2073    0.0000 </r>
        <r>   10.7514    0.0000 </r>
        <r>   11.0936    0.0000 </r>
        <r>   12.0701    0.0000 </r>
        <r>   12.3521    0.0000 </r>
        <r>   15.1955    0.0000 </r>
        <r>   18.6623    0.0000 </r>
        <r>   22.9709    0.0000 </r>
       </set>
       <set comment="kpoint 157">
        <r>   -4.1369    1.0000 </r>
        <r>    0.4201    1.0000 </r>
        <r>    2.1272    1.0000 </r>
        <r>    4.5405    1.0000 </r>
        <r>    8.3206    0.0000 </r>
        <r>   10.5615    0.0000 </r>
        <r>   10.9016    0.0000 </r>
        <r>   11.9443    0.0000 </r>
        <r>   12.2422    0.0000 </r>
        <r>   15.6064    0.0000 </r>
        <r>   18.5392    0.0000 </r>
        <r>   19.2386    0.0000 </r>
       </set>
       <set comment="kpoint 158">
        <r>   -4.2923    1.0000 </r>
        <r>    0.6240    1.0000 </r>
        <r>    2.2751    1.0000 </r>
        <r>    4.6466    1.0000 </r>
        <r>    8.4290    0.0000 </r>
        <r>   10.3792    0.0000 </r>
        <r>   10.7156    0.0000 </r>
        <r>   11.8327    0.0000 </r>
        <r>   12.1474    0.0000 </r>
        <r>   15.9684    0.0000 </r>
        <r>   18.1539    0.0000 </r>
        <r>   22.2437    0.0000 </r>
       </set>
       <set comment="kpoint 159">
        <r>   -4.4439    1.0000 </r>
        <r>    0.8356    1.0000 </r>
        <r>    2.4325    1.0000 </r>
        <r>    4.7515    1.0000 </r>
        <r>    8.5304    0.0000 </r>
        <r>   10.2047    0.0000 </r>
        <r>   10.5361    0.0000 </r>
        <r>   11.7366    0.0000 </r>
        <r>   12.0680    0.0000 </r>
        <r>   16.2578    0.0000 </r>
        <r>   17.7503    0.0000 </r>
        <r>   21.6792    0.0000 </r>
       </set>
       <set comment="kpoint 160">
        <r>   -4.5911    1.0000 </r>
        <r>    1.0548    1.0000 </r>
        <r>    2.5986    1.0000 </r>
        <r>    4.8544    1.0000 </r>
        <r>    8.6228    0.0000 </r>
        <r>   10.0380    0.0000 </r>
        <r>   10.3634    0.0000 </r>
        <r>   11.6573    0.0000 </r>
        <r>   12.0049    0.0000 </r>
        <r>   16.4534    0.0000 </r>
        <r>   19.1329    0.0000 </r>
        <r>   23.8838    0.0000 </r>
       </set>
       <set comment="kpoint 161">
        <r>   -4.7333    1.0000 </r>
        <r>    1.2815    1.0000 </r>
        <r>    2.7726    1.0000 </r>
        <r>    4.9545    1.0000 </r>
        <r>    8.7040    0.0000 </r>
        <r>    9.8791    0.0000 </r>
        <r>   10.1977    0.0000 </r>
        <r>   11.6001    0.0000 </r>
        <r>   16.5738    0.0000 </r>
        <r>   17.4634    0.0000 </r>
        <r>   24.6661    0.0000 </r>
        <r>   33.2886    0.0000 </r>
       </set>
       <set comment="kpoint 162">
        <r>   -4.8701    1.0000 </r>
        <r>    1.5155    1.0000 </r>
        <r>    2.9536    1.0000 </r>
        <r>    5.0510    1.0000 </r>
        <r>    8.7720    0.0000 </r>
        <r>    9.7281    0.0000 </r>
        <r>   10.0389    0.0000 </r>
        <r>   11.5507    0.0000 </r>
        <r>   11.9300    0.0000 </r>
        <r>   16.3167    0.0000 </r>
        <r>   16.5566    0.0000 </r>
        <r>   20.5647    0.0000 </r>
       </set>
       <set comment="kpoint 163">
        <r>   -5.0010    1.0000 </r>
        <r>    1.7566    1.0000 </r>
        <r>    3.1408    1.0000 </r>
        <r>    5.1432    1.0000 </r>
        <r>    8.8255    0.0000 </r>
        <r>    9.5850    0.0000 </r>
        <r>    9.8870    0.0000 </r>
        <r>   11.5237    0.0000 </r>
        <r>   16.4049    0.0000 </r>
        <r>   16.9008    0.0000 </r>
        <r>   21.2825    0.0000 </r>
        <r>   26.0086    0.0000 </r>
       </set>
       <set comment="kpoint 164">
        <r>   -5.1257    1.0000 </r>
        <r>    2.0045    1.0000 </r>
        <r>    3.3333    1.0000 </r>
        <r>    5.2304    1.0000 </r>
        <r>    8.8641    0.0000 </r>
        <r>    9.4500    0.0000 </r>
        <r>    9.7422    0.0000 </r>
        <r>   11.5062    0.0000 </r>
        <r>   11.9270    0.0000 </r>
        <r>   15.4170    0.0000 </r>
        <r>   16.3865    0.0000 </r>
        <r>   27.4999    0.0000 </r>
       </set>
       <set comment="kpoint 165">
        <r>   -5.2440    1.0000 </r>
        <r>    2.2591    1.0000 </r>
        <r>    3.5301    1.0000 </r>
        <r>    5.3121    1.0000 </r>
        <r>    8.8878    0.0000 </r>
        <r>    9.3230    0.0000 </r>
        <r>    9.6042    0.0000 </r>
        <r>   11.5001    0.0000 </r>
        <r>   15.0151    0.0000 </r>
        <r>   16.2554    0.0000 </r>
        <r>   18.6363    0.0000 </r>
        <r>   21.9308    0.0000 </r>
       </set>
       <set comment="kpoint 166">
        <r>   -5.3555    1.0000 </r>
        <r>    2.5198    1.0000 </r>
        <r>    3.7303    1.0000 </r>
        <r>    5.3878    1.0000 </r>
        <r>    8.8980    0.0000 </r>
        <r>    9.2041    0.0000 </r>
        <r>    9.4729    0.0000 </r>
        <r>   11.4877    0.0000 </r>
        <r>   11.9983    0.0000 </r>
        <r>   15.8329    0.0000 </r>
        <r>   17.3100    0.0000 </r>
        <r>   26.6561    0.0000 </r>
       </set>
       <set comment="kpoint 167">
        <r>   -5.4601    1.0000 </r>
        <r>    2.7864    1.0000 </r>
        <r>    3.9328    1.0000 </r>
        <r>    5.4571    1.0000 </r>
        <r>    8.8963    0.0000 </r>
        <r>    9.0931    0.0000 </r>
        <r>    9.3484    0.0000 </r>
        <r>   11.4647    0.0000 </r>
        <r>   12.0620    0.0000 </r>
        <r>   14.2555    0.0000 </r>
        <r>   15.8764    0.0000 </r>
        <r>   23.9083    0.0000 </r>
       </set>
       <set comment="kpoint 168">
        <r>   -5.5575    1.0000 </r>
        <r>    3.0583    1.0000 </r>
        <r>    4.1362    1.0000 </r>
        <r>    5.5198    1.0000 </r>
        <r>    8.8847    0.0000 </r>
        <r>    8.9903    0.0000 </r>
        <r>    9.2302    0.0000 </r>
        <r>   11.4135    0.0000 </r>
        <r>   12.1432    0.0000 </r>
        <r>   13.9542    0.0000 </r>
        <r>   15.6694    0.0000 </r>
        <r>   23.9218    0.0000 </r>
       </set>
       <set comment="kpoint 169">
        <r>   -5.6477    1.0000 </r>
        <r>    3.3347    1.0000 </r>
        <r>    4.3392    1.0000 </r>
        <r>    5.5760    1.0000 </r>
        <r>    8.8654    0.0000 </r>
        <r>    8.8957    0.0000 </r>
        <r>    9.1185    0.0000 </r>
        <r>   11.3187    0.0000 </r>
        <r>   12.2416    0.0000 </r>
        <r>   13.7164    0.0000 </r>
        <r>   15.4521    0.0000 </r>
        <r>   16.9926    0.0000 </r>
       </set>
       <set comment="kpoint 170">
        <r>   -5.7304    1.0000 </r>
        <r>    3.6149    1.0000 </r>
        <r>    4.5401    1.0000 </r>
        <r>    5.6256    1.0000 </r>
        <r>    8.8093    0.0000 </r>
        <r>    8.8400    0.0000 </r>
        <r>    9.0131    0.0000 </r>
        <r>   11.1700    0.0000 </r>
        <r>   12.3560    0.0000 </r>
        <r>   13.5494    0.0000 </r>
        <r>   15.2295    0.0000 </r>
        <r>   23.9473    0.0000 </r>
       </set>
       <set comment="kpoint 171">
        <r>   -5.8055    1.0000 </r>
        <r>    3.8976    1.0000 </r>
        <r>    4.7369    1.0000 </r>
        <r>    5.6689    1.0000 </r>
        <r>    8.7310    0.0000 </r>
        <r>    8.8103    0.0000 </r>
        <r>    8.9139    0.0000 </r>
        <r>   10.9680    0.0000 </r>
        <r>   12.4841    0.0000 </r>
        <r>   14.9861    0.0000 </r>
        <r>   16.9967    0.0000 </r>
        <r>   23.1544    0.0000 </r>
       </set>
       <set comment="kpoint 172">
        <r>   -5.8730    1.0000 </r>
        <r>    4.1811    1.0000 </r>
        <r>    4.9274    1.0000 </r>
        <r>    5.7062    1.0000 </r>
        <r>    8.6610    0.0000 </r>
        <r>    8.7770    0.0000 </r>
        <r>    8.8210    0.0000 </r>
        <r>   10.7242    0.0000 </r>
        <r>   12.6240    0.0000 </r>
        <r>   14.7891    0.0000 </r>
        <r>   16.9166    0.0000 </r>
        <r>   17.5751    0.0000 </r>
       </set>
       <set comment="kpoint 173">
        <r>   -5.9327    1.0000 </r>
        <r>    4.4632    1.0000 </r>
        <r>    5.1090    1.0000 </r>
        <r>    5.7379    1.0000 </r>
        <r>    8.5991    0.0000 </r>
        <r>    8.7345    0.0000 </r>
        <r>    8.7405    0.0000 </r>
        <r>   10.4552    0.0000 </r>
        <r>   12.7730    0.0000 </r>
        <r>   14.5815    0.0000 </r>
        <r>   17.2852    0.0000 </r>
        <r>   28.2778    0.0000 </r>
       </set>
       <set comment="kpoint 174">
        <r>   -5.9846    1.0000 </r>
        <r>    4.7407    1.0000 </r>
        <r>    5.2786    1.0000 </r>
        <r>    5.7642    1.0000 </r>
        <r>    8.5455    0.0000 </r>
        <r>    8.6550    0.0000 </r>
        <r>    8.7002    0.0000 </r>
        <r>   12.9257    0.0000 </r>
        <r>   13.4205    0.0000 </r>
        <r>   14.3901    0.0000 </r>
        <r>   17.2335    0.0000 </r>
        <r>   18.0606    0.0000 </r>
       </set>
       <set comment="kpoint 175">
        <r>   -6.0286    1.0000 </r>
        <r>    5.0086    1.0000 </r>
        <r>    5.4328    1.0000 </r>
        <r>    5.7857    1.0000 </r>
        <r>    8.5001    0.0000 </r>
        <r>    8.5833    0.0000 </r>
        <r>    8.6547    0.0000 </r>
        <r>    9.9108    0.0000 </r>
        <r>   13.0793    0.0000 </r>
        <r>   13.4478    0.0000 </r>
        <r>   14.2183    0.0000 </r>
        <r>   17.0312    0.0000 </r>
       </set>
       <set comment="kpoint 176">
        <r>   -6.0647    1.0000 </r>
        <r>    5.2601    1.0000 </r>
        <r>    5.5676    1.0000 </r>
        <r>    5.8027    1.0000 </r>
        <r>    8.4630    0.0000 </r>
        <r>    8.5208    0.0000 </r>
        <r>    8.6015    0.0000 </r>
        <r>    9.6683    0.0000 </r>
        <r>   13.4198    0.0000 </r>
        <r>   14.0698    0.0000 </r>
        <r>   17.1712    0.0000 </r>
        <r>   28.4145    0.0000 </r>
       </set>
       <set comment="kpoint 177">
        <r>   -6.0928    1.0000 </r>
        <r>    5.4845    1.0000 </r>
        <r>    5.6788    1.0000 </r>
        <r>    5.8155    1.0000 </r>
        <r>    8.4341    0.0000 </r>
        <r>    8.4689    0.0000 </r>
        <r>    8.5395    0.0000 </r>
        <r>    9.4678    0.0000 </r>
        <r>   13.3566    0.0000 </r>
        <r>   13.9520    0.0000 </r>
        <r>   17.1766    0.0000 </r>
        <r>   29.1976    0.0000 </r>
       </set>
       <set comment="kpoint 178">
        <r>   -6.1129    1.0000 </r>
        <r>    5.6668    1.0000 </r>
        <r>    5.7622    1.0000 </r>
        <r>    5.8245    1.0000 </r>
        <r>    8.4134    0.0000 </r>
        <r>    8.4297    0.0000 </r>
        <r>    8.4732    0.0000 </r>
        <r>    9.3225    0.0000 </r>
        <r>   13.4606    0.0000 </r>
        <r>   13.5331    0.0000 </r>
        <r>   13.8646    0.0000 </r>
        <r>   17.1188    0.0000 </r>
       </set>
       <set comment="kpoint 179">
        <r>   -6.1249    1.0000 </r>
        <r>    5.7884    1.0000 </r>
        <r>    5.8139    1.0000 </r>
        <r>    5.8298    1.0000 </r>
        <r>    8.4010    0.0000 </r>
        <r>    8.4053    0.0000 </r>
        <r>    8.4185    0.0000 </r>
        <r>    9.2374    0.0000 </r>
        <r>   13.5291    0.0000 </r>
        <r>   13.5479    0.0000 </r>
        <r>   13.8112    0.0000 </r>
        <r>   17.1078    0.0000 </r>
       </set>
       <set comment="kpoint 180">
        <r>   -6.1289    1.0000 </r>
        <r>    5.8315    1.0000 </r>
        <r>    5.8315    1.0000 </r>
        <r>    5.8315    1.0000 </r>
        <r>    8.3969    0.0000 </r>
        <r>    8.3969    0.0000 </r>
        <r>    8.3969    0.0000 </r>
        <r>    9.2097    0.0000 </r>
        <r>   13.5530    0.0000 </r>
        <r>   13.7930    0.0000 </r>
        <r>   17.0859    0.0000 </r>
        <r>   17.0865    0.0000 </r>
       </set>
      </set>
     </set>
    </array>
   </eigenvalues>
   <array>
    <dimension dim="1">ion</dimension>
    <dimension dim="2">band</dimension>
    <dimension dim="3">kpoint</dimension>
    <dimension dim="4">spin</dimension>
    <field>    s</field>
    <field>   py</field>
    <field>   pz</field>
    <field>   px</field>
    <field>  dxy</field>
    <field>  dyz</field>
    <field>  dz2</field>
    <field>  dxz</field>
    <field>x2-y2</field>
    <set>
     <set comment="spin1">
      <set comment="kpoint 1">
       <set comment="band 1">
        <r>  0.2252  0.0046  0.0046  0.0046  0.0000  0.0000  0.0000  0.0000  0.0000 </r>
        <r>  0.2251  0.0046  0.0046  0.0046  0.0000  0.0000  0.0000  0.0000  0.0000 </r>
       </set>
       <set comment="band 2">
        <r>  0.0979  0.0315  0.0315  0.0315  0.0000  0.0000  0.0000  0.0000  0.0000 </r>
        <r>  0.0979  0.0315  0.0315  0.0315  0.0000  0.0000  0.0000  0.0000  0.0000 </r>
       </set>
       <set comment="band 3">
        <r>  0.0000  0.1185  0.0009  0.0990  0.0000  0.0000  0.0000  0.0000  0.0000 </r>
        <r>  0.0000  0.1185  0.0009  0.0990  0.0000  0.0000  0.0000  0.0000  0.0000 </r>
       </set>
       <set comment="band 4">
        <r>  0.0000  0.0271  0.1447  0.0466  0.0000  0.0000  0.0000  0.0000  0.0000 </r>
        <r>  0.0000  0.0271  0.1447  0.0466  0.0000  0.0000  0.0000  0.0000  0.0000 </r>
       </set>
       <set comment="band 5">
        <r>  0.1860  0.0064  0.0064  0.0064  0.0000  0.0000  0.0000  0.0000  0.0000 </r>
        <r>  0.1860  0.0064  0.0064  0.0064  0.0000  0.0000  0.0000  0.0000  0.0000 </r>
       </set>
       <set comment="band 6">
        <r>  0.0000  0.0356  0.0425  0.0161  0.0000  0.0000  0.0000  0.0000  0.0000 </r>
        <r>  0.0000  0.0356  0.0425  0.0161  0.0000  0.0000  0.0000  0.0000  0.0000 </r>
       </set>
       <set comment="band 7">
        <r>  0.0000  0.0272  0.0203  0.0467  0.0000  0.0000  0.0000  0.0000  0.0000 </r>
        <r>  0.0000  0.0272  0.0203  0.0467  0.0000  0.0000  0.0000  0.0000  0.0000 </r>
       </set>
       <set comment="band 8">
        <r>  0.0059  0.0176  0.0176  0.0176  0.0000  0.0000  0.0000  0.0000  0.0000 </r>
        <r>  0.0059  0.0176  0.0176  0.0176  0.0000  0.0000  0.0000  0.0000  0.0000 </r>
       </set>
       <set comment="band 9">
        <r>  0.0000  0.0000  0.0002  0.0002  0.0000  0.0000  0.0000  0.0000  0.0000 </r>
        <r>  0.0000  0.0000  0.0002  0.0001  0.0000  0.0000  0.0000  0.0000  0.0000 </r>
       </set>
       <set comment="band 10">
        <r>  0.0000  0.0004  0.0001  0.0003  0.0000  0.0000  0.0000  0.0000  0.0000 </r>
        <r>  0.0000  0.0003  0.0000  0.0000  0.0000  0.0000  0.0000  0.0000  0.0000 </r>
       </set>
       <set comment="band 11">
        <r>  0.0331  0.0382  0.0798  0.0301  0.0000  0.0000  0.0000  0.0000  0.0000 </r>
        <r>  0.0339  0.0390  0.0777  0.0293  0.0000  0.0000  0.0000  0.0000  0.0000 </r>
       </set>
       <set comment="band 12">
        <r>  0.0118  0.0052  0.0031  0.0132  0.0000  0.0000  0.0000  0.0000  0.0000 </r>
        <r>  0.0027  0.0191  0.0036  0.0050  0.0000  0.0000  0.0000  0.0000  0.0000 </r>
       </set>
      </set>
      <set comment="kpoint 2">
       <set comment="band 1">
        <r>  0.2247  0.0046  0.0046  0.0046  0.0000  0.0000  0.0000  0.0000  0.0000 </r>
        <r>  0.2247  0.0046  0.0046  0.0046  0.0000  0.0000  0.0000  0.0000  0.0000 </r>
       </set>
       <set comment="band 2">
        <r>  0.0983  0.0315  0.0315  0.0315  0.0000  0.0000  0.0000  0.0000  0.0000 </r>
        <r>  0.0983  0.0315  0.0315  0.0315  0.0000  0.0000  0.0000  0.0000  0.0000 </r>
       </set>
       <set comment="band 3">
        <r>  0.0000  0.1171  0.1002  0.0011  0.0000  0.0000  0.0000  0.0000  0.0000 </r>
        <r>  0.0000  0.1171  0.1002  0.0011  0.0000  0.0000  0.0000  0.0000  0.0000 </r>
       </set>
       <set comment="band 4">
        <r>  0.0000  0.0285  0.0454  0.1445  0.0000  0.0000  0.0000  0.0000  0.0000 </r>
        <r>  0.0000  0.0285  0.0454  0.1445  0.0000  0.0000  0.0000  0.0000  0.0000 </r>
       </set>
       <set comment="band 5">
        <r>  0.1859  0.0064  0.0064  0.0064  0.0000  0.0000  0.0000  0.0000  0.0000 </r>
        <r>  0.1859  0.0064  0.0064  0.0064  0.0000  0.0000  0.0000  0.0000  0.0000 </r>
       </set>
       <set comment="band 6">
        <r>  0.0000  0.0213  0.0269  0.0462  0.0000  0.0000  0.0000  0.0000  0.0000 </r>
        <r>  0.0000  0.0213  0.0269  0.0462  0.0000  0.0000  0.0000  0.0000  0.0000 </r>
       </set>
       <set comment="band 7">
        <r>  0.0000  0.0416  0.0360  0.0167  0.0000  0.0000  0.0000  0.0000  0.0000 </r>
        <r>  0.0000  0.0416  0.0360  0.0167  0.0000  0.0000  0.0000  0.0000  0.0000 </r>
       </set>
       <set comment="band 8">
        <r>  0.0058  0.0176  0.0176  0.0176  0.0000  0.0000  0.0000  0.0000  0.0000 </r>
        <r>  0.0058  0.0176  0.0176  0.0176  0.0000  0.0000  0.0000  0.0000  0.0000 </r>
       </set>
       <set comment="band 9">
        <r>  0.0000  0.0080  0.0017  0.0023  0.0000  0.0000  0.0000  0.0000  0.0000 </r>
        <r>  0.0000  0.0080  0.0017  0.0023  0.0000  0.0000  0.0000  0.0000  0.0000 </r>
       </set>
       <set comment="band 10">
        <r>  0.0396  0.0169  0.0472  0.0738  0.0000  0.0000  0.0000  0.0000  0.0000 </r>
        <r>  0.0342  0.0254  0.0467  0.0827  0.0000  0.0000  0.0000  0.0000  0.0000 </r>
       </set>
       <set comment="band 11">
        <r>  0.0229  0.0037  0.0024  0.0011  0.0000  0.0000  0.0000  0.0000  0.0000 </r>
        <r>  0.0033  0.0101  0.0140  0.0025  0.0000  0.0000  0.0000  0.0000  0.0000 </r>
       </set>
       <set comment="band 12">
        <r>  0.0028  0.0012  0.0106  0.0053  0.0000  0.0000  0.0000  0.0000  0.0000 </r>
        <r>  0.0052  0.0016  0.0060  0.0000  0.0000  0.0000  0.0000  0.0000  0.0000 </r>
       </set>
      </set>
      <set comment="kpoint 3">
       <set comment="band 1">
        <r>  0.2236  0.0047  0.0047  0.0047  0.0000  0.0000  0.0000  0.0000  0.0000 </r>
        <r>  0.2236  0.0047  0.0047  0.0047  0.0000  0.0000  0.0000  0.0000  0.0000 </r>
       </set>
       <set comment="band 2">
        <r>  0.0993  0.0314  0.0314  0.0314  0.0000  0.0000  0.0000  0.0000  0.0000 </r>
        <r>  0.0993  0.0314  0.0314  0.0314  0.0000  0.0000  0.0000  0.0000  0.0000 </r>
       </set>
       <set comment="band 3">
        <r>  0.0000  0.1203  0.0923  0.0057  0.0000  0.0000  0.0000  0.0000  0.0000 </r>
        <r>  0.0000  0.1203  0.0923  0.0057  0.0000  0.0000  0.0000  0.0000  0.0000 </r>
       </set>
       <set comment="band 4">
        <r>  0.0000  0.0252  0.0532  0.1399  0.0000  0.0000  0.0000  0.0000  0.0000 </r>
        <r>  0.0000  0.0252  0.0532  0.1399  0.0000  0.0000  0.0000  0.0000  0.0000 </r>
       </set>
       <set comment="band 5">
        <r>  0.1856  0.0065  0.0065  0.0065  0.0000  0.0000  0.0000  0.0000  0.0000 </r>
        <r>  0.1856  0.0065  0.0065  0.0065  0.0000  0.0000  0.0000  0.0000  0.0000 </r>
       </set>
       <set comment="band 6">
        <r>  0.0000  0.0325  0.0118  0.0504  0.0000  0.0000  0.0000  0.0000  0.0000 </r>
        <r>  0.0000  0.0325  0.0118  0.0504  0.0000  0.0000  0.0000  0.0000  0.0000 </r>
       </set>
       <set comment="band 7">
        <r>  0.0000  0.0307  0.0514  0.0128  0.0000  0.0000  0.0000  0.0000  0.0000 </r>
        <r>  0.0000  0.0307  0.0514  0.0128  0.0000  0.0000  0.0000  0.0000  0.0000 </r>
       </set>
       <set comment="band 8">
        <r>  0.0057  0.0179  0.0179  0.0179  0.0000  0.0000  0.0000  0.0000  0.0000 </r>
        <r>  0.0057  0.0179  0.0179  0.0179  0.0000  0.0000  0.0000  0.0000  0.0000 </r>
       </set>
       <set comment="band 9">
        <r>  0.0000  0.0112  0.0105  0.0040  0.0000  0.0000  0.0000  0.0000  0.0000 </r>
        <r>  0.0000  0.0113  0.0105  0.0040  0.0000  0.0000  0.0000  0.0000  0.0000 </r>
       </set>
       <set comment="band 10">
        <r>  0.0233  0.1086  0.0293  0.0105  0.0000  0.0000  0.0000  0.0000  0.0000 </r>
        <r>  0.0364  0.0917  0.0115  0.0051  0.0000  0.0000  0.0000  0.0000  0.0000 </r>
       </set>
       <set comment="band 11">
        <r>  0.0046  0.0008  0.0017  0.1069  0.0000  0.0000  0.0000  0.0000  0.0000 </r>
        <r>  0.0120  0.0028  0.0037  0.0837  0.0000  0.0000  0.0000  0.0000  0.0000 </r>
       </set>
       <set comment="band 12">
        <r>  0.0238  0.0005  0.0021  0.0195  0.0000  0.0000  0.0000  0.0000  0.0000 </r>
        <r>  0.0433  0.0002  0.0054  0.0124  0.0000  0.0000  0.0000  0.0000  0.0000 </r>
       </set>
      </set>
      <set comment="kpoint 4">
       <set comment="band 1">
        <r>  0.2220  0.0048  0.0048  0.0048  0.0000  0.0000  0.0000  0.0000  0.0000 </r>
        <r>  0.2220  0.0048  0.0048  0.0048  0.0000  0.0000  0.0000  0.0000  0.0000 </r>
       </set>
       <set comment="band 2">
        <r>  0.1006  0.0314  0.0314  0.0314  0.0000  0.0000  0.0000  0.0000  0.0000 </r>
        <r>  0.1006  0.0314  0.0314  0.0314  0.0000  0.0000  0.0000  0.0000  0.0000 </r>
       </set>
       <set comment="band 3">
        <r>  0.0000  0.0428  0.1227  0.0526  0.0000  0.0000  0.0000  0.0000  0.0000 </r>
        <r>  0.0000  0.0428  0.1227  0.0526  0.0000  0.0000  0.0000  0.0000  0.0000 </r>
       </set>
       <set comment="band 4">
        <r>  0.0000  0.1026  0.0227  0.0929  0.0000  0.0000  0.0000  0.0000  0.0000 </r>
        <r>  0.0000  0.1026  0.0227  0.0929  0.0000  0.0000  0.0000  0.0000  0.0000 </r>
       </set>
       <set comment="band 5">
        <r>  0.1851  0.0066  0.0066  0.0066  0.0000  0.0000  0.0000  0.0000  0.0000 </r>
        <r>  0.1851  0.0066  0.0066  0.0066  0.0000  0.0000  0.0000  0.0000  0.0000 </r>
       </set>
       <set comment="band 6">
        <r>  0.0000  0.0308  0.0190  0.0457  0.0000  0.0000  0.0000  0.0000  0.0000 </r>
        <r>  0.0000  0.0307  0.0190  0.0457  0.0000  0.0000  0.0000  0.0000  0.0000 </r>
       </set>
       <set comment="band 7">
        <r>  0.0000  0.0329  0.0446  0.0180  0.0000  0.0000  0.0000  0.0000  0.0000 </r>
        <r>  0.0000  0.0329  0.0446  0.0180  0.0000  0.0000  0.0000  0.0000  0.0000 </r>
       </set>
       <set comment="band 8">
        <r>  0.0054  0.0183  0.0183  0.0183  0.0000  0.0000  0.0000  0.0000  0.0000 </r>
        <r>  0.0054  0.0183  0.0183  0.0183  0.0000  0.0000  0.0000  0.0000  0.0000 </r>
       </set>
       <set comment="band 9">
        <r>  0.0000  0.0081  0.0076  0.0180  0.0000  0.0000  0.0000  0.0000  0.0000 </r>
        <r>  0.0000  0.0081  0.0076  0.0180  0.0000  0.0000  0.0000  0.0000  0.0000 </r>
       </set>
       <set comment="band 10">
        <r>  0.0000  0.0143  0.0148  0.0045  0.0000  0.0000  0.0000  0.0000  0.0000 </r>
        <r>  0.0000  0.0143  0.0148  0.0045  0.0000  0.0000  0.0000  0.0000  0.0000 </r>
       </set>
       <set comment="band 11">
        <r>  0.0573  0.0508  0.0520  0.0469  0.0000  0.0000  0.0000  0.0000  0.0000 </r>
        <r>  0.0589  0.0512  0.0459  0.0477  0.0000  0.0000  0.0000  0.0000  0.0000 </r>
       </set>
       <set comment="band 12">
        <r>  0.0420  0.0508  0.0703  0.0544  0.0000  0.0000  0.0000  0.0000  0.0000 </r>
        <r>  0.0412  0.1146  0.0180  0.0321  0.0000  0.0000  0.0000  0.0000  0.0000 </r>
       </set>
      </set>
      <set comment="kpoint 5">
       <set comment="band 1">
        <r>  0.2201  0.0049  0.0049  0.0049  0.0000  0.0000  0.0000  0.0000  0.0000 </r>
        <r>  0.2201  0.0049  0.0049  0.0049  0.0000  0.0000  0.0000  0.0000  0.0000 </r>
       </set>
       <set comment="band 2">
        <r>  0.1021  0.0315  0.0315  0.0315  0.0000  0.0000  0.0000  0.0000  0.0000 </r>
        <r>  0.1021  0.0315  0.0315  0.0315  0.0000  0.0000  0.0000  0.0000  0.0000 </r>
       </set>
       <set comment="band 3">
        <r>  0.0000  0.0810  0.1235  0.0136  0.0000  0.0000  0.0000  0.0000  0.0000 </r>
        <r>  0.0000  0.0810  0.1235  0.0136  0.0000  0.0000  0.0000  0.0000  0.0000 </r>
       </set>
       <set comment="band 4">
        <r>  0.0000  0.0644  0.0219  0.1318  0.0000  0.0000  0.0000  0.0000  0.0000 </r>
        <r>  0.0000  0.0644  0.0219  0.1318  0.0000  0.0000  0.0000  0.0000  0.0000 </r>
       </set>
       <set comment="band 5">
        <r>  0.1844  0.0069  0.0069  0.0069  0.0000  0.0000  0.0000  0.0000  0.0000 </r>
        <r>  0.1844  0.0069  0.0069  0.0069  0.0000  0.0000  0.0000  0.0000  0.0000 </r>
       </set>
       <set comment="band 6">
        <r>  0.0000  0.0584  0.0350  0.0031  0.0000  0.0000  0.0000  0.0000  0.0000 </r>
        <r>  0.0000  0.0584  0.0350  0.0031  0.0000  0.0000  0.0000  0.0000  0.0000 </r>
       </set>
       <set comment="band 7">
        <r>  0.0000  0.0059  0.0293  0.0612  0.0000  0.0000  0.0000  0.0000  0.0000 </r>
        <r>  0.0000  0.0059  0.0293  0.0612  0.0000  0.0000  0.0000  0.0000  0.0000 </r>
       </set>
       <set comment="band 8">
        <r>  0.0051  0.0190  0.0190  0.0190  0.0000  0.0000  0.0000  0.0000  0.0000 </r>
        <r>  0.0051  0.0190  0.0190  0.0190  0.0000  0.0000  0.0000  0.0000  0.0000 </r>
       </set>
       <set comment="band 9">
        <r>  0.0000  0.0159  0.0217  0.0005  0.0000  0.0000  0.0000  0.0000  0.0000 </r>
        <r>  0.0000  0.0159  0.0217  0.0005  0.0000  0.0000  0.0000  0.0000  0.0000 </r>
       </set>
       <set comment="band 10">
        <r>  0.0003  0.0075  0.0023  0.0286  0.0000  0.0000  0.0000  0.0000  0.0000 </r>
        <r>  0.0003  0.0072  0.0023  0.0289  0.0000  0.0000  0.0000  0.0000  0.0000 </r>
       </set>
       <set comment="band 11">
        <r>  0.0207  0.0874  0.0051  0.0009  0.0000  0.0000  0.0000  0.0000  0.0000 </r>
        <r>  0.0169  0.0095  0.0579  0.0423  0.0000  0.0000  0.0000  0.0000  0.0000 </r>
       </set>
       <set comment="band 12">
        <r>  0.0439  0.0036  0.0128  0.0047  0.0000  0.0000  0.0000  0.0000  0.0000 </r>
        <r>  0.0329  0.0055  0.0110  0.0034  0.0000  0.0000  0.0000  0.0000  0.0000 </r>
       </set>
      </set>
      <set comment="kpoint 6">
       <set comment="band 1">
        <r>  0.2183  0.0050  0.0050  0.0050  0.0000  0.0000  0.0000  0.0000  0.0000 </r>
        <r>  0.2183  0.0050  0.0050  0.0050  0.0000  0.0000  0.0000  0.0000  0.0000 </r>
       </set>
       <set comment="band 2">
        <r>  0.1035  0.0316  0.0316  0.0316  0.0000  0.0000  0.0000  0.0000  0.0000 </r>
        <r>  0.1035  0.0316  0.0316  0.0316  0.0000  0.0000  0.0000  0.0000  0.0000 </r>
       </set>
       <set comment="band 3">
        <r>  0.0000  0.0365  0.1333  0.0480  0.0000  0.0000  0.0000  0.0000  0.0000 </r>
        <r>  0.0000  0.0365  0.1333  0.0480  0.0000  0.0000  0.0000  0.0000  0.0000 </r>
       </set>
       <set comment="band 4">
        <r>  0.0000  0.1087  0.0119  0.0972  0.0000  0.0000  0.0000  0.0000  0.0000 </r>
        <r>  0.0000  0.1087  0.0119  0.0972  0.0000  0.0000  0.0000  0.0000  0.0000 </r>
       </set>
       <set comment="band 5">
        <r>  0.1835  0.0071  0.0071  0.0071  0.0000  0.0000  0.0000  0.0000  0.0000 </r>
        <r>  0.1835  0.0071  0.0071  0.0071  0.0000  0.0000  0.0000  0.0000  0.0000 </r>
       </set>
       <set comment="band 6">
        <r>  0.0000  0.0255  0.0173  0.0549  0.0000  0.0000  0.0000  0.0000  0.0000 </r>
        <r>  0.0000  0.0256  0.0173  0.0549  0.0000  0.0000  0.0000  0.0000  0.0000 </r>
       </set>
       <set comment="band 7">
        <r>  0.0000  0.0396  0.0479  0.0102  0.0000  0.0000  0.0000  0.0000  0.0000 </r>
        <r>  0.0000  0.0396  0.0479  0.0103  0.0000  0.0000  0.0000  0.0000  0.0000 </r>
       </set>
       <set comment="band 8">
        <r>  0.0047  0.0199  0.0199  0.0199  0.0000  0.0000  0.0000  0.0000  0.0000 </r>
        <r>  0.0047  0.0199  0.0199  0.0199  0.0000  0.0000  0.0000  0.0000  0.0000 </r>
       </set>
       <set comment="band 9">
        <r>  0.0000  0.0184  0.0064  0.0157  0.0000  0.0000  0.0000  0.0000  0.0000 </r>
        <r>  0.0000  0.0184  0.0064  0.0157  0.0000  0.0000  0.0000  0.0000  0.0000 </r>
       </set>
       <set comment="band 10">
        <r>  0.0000  0.0082  0.0210  0.0113  0.0000  0.0000  0.0000  0.0000  0.0000 </r>
        <r>  0.0000  0.0087  0.0205  0.0112  0.0000  0.0000  0.0000  0.0000  0.0000 </r>
       </set>
       <set comment="band 11">
        <r>  0.0730  0.0373  0.0486  0.0504  0.0000  0.0000  0.0000  0.0000  0.0000 </r>
        <r>  0.0721  0.0405  0.0457  0.0524  0.0000  0.0000  0.0000  0.0000  0.0000 </r>
       </set>
       <set comment="band 12">
        <r>  0.0149  0.0131  0.0123  0.0065  0.0000  0.0000  0.0000  0.0000  0.0000 </r>
        <r>  0.0016  0.0025  0.0395  0.0042  0.0000  0.0000  0.0000  0.0000  0.0000 </r>
       </set>
      </set>
      <set comment="kpoint 7">
       <set comment="band 1">
        <r>  0.2165  0.0050  0.0050  0.0050  0.0000  0.0000  0.0000  0.0000  0.0000 </r>
        <r>  0.2165  0.0050  0.0050  0.0050  0.0000  0.0000  0.0000  0.0000  0.0000 </r>
       </set>
       <set comment="band 2">
        <r>  0.1047  0.0318  0.0318  0.0318  0.0000  0.0000  0.0000  0.0000  0.0000 </r>
        <r>  0.1047  0.0318  0.0318  0.0318  0.0000  0.0000  0.0000  0.0000  0.0000 </r>
       </set>
       <set comment="band 3">
        <r>  0.0000  0.0956  0.1084  0.0136  0.0000  0.0000  0.0000  0.0000  0.0000 </r>
        <r>  0.0000  0.0956  0.1084  0.0136  0.0000  0.0000  0.0000  0.0000  0.0000 </r>
       </set>
       <set comment="band 4">
        <r>  0.0000  0.0494  0.0367  0.1315  0.0000  0.0000  0.0000  0.0000  0.0000 </r>
        <r>  0.0000  0.0494  0.0367  0.1315  0.0000  0.0000  0.0000  0.0000  0.0000 </r>
       </set>
       <set comment="band 5">
        <r>  0.1825  0.0075  0.0075  0.0075  0.0000  0.0000  0.0000  0.0000  0.0000 </r>
        <r>  0.1825  0.0075  0.0075  0.0075  0.0000  0.0000  0.0000  0.0000  0.0000 </r>
       </set>
       <set comment="band 6">
        <r>  0.0000  0.0033  0.0500  0.0460  0.0000  0.0000  0.0000  0.0000  0.0000 </r>
        <r>  0.0000  0.0033  0.0500  0.0460  0.0000  0.0000  0.0000  0.0000  0.0000 </r>
       </set>
       <set comment="band 7">
        <r>  0.0000  0.0629  0.0162  0.0202  0.0000  0.0000  0.0000  0.0000  0.0000 </r>
        <r>  0.0000  0.0629  0.0162  0.0202  0.0000  0.0000  0.0000  0.0000  0.0000 </r>
       </set>
       <set comment="band 8">
        <r>  0.0043  0.0215  0.0213  0.0210  0.0000  0.0000  0.0000  0.0000  0.0000 </r>
        <r>  0.0042  0.0209  0.0210  0.0215  0.0000  0.0000  0.0000  0.0000  0.0000 </r>
       </set>
       <set comment="band 9">
        <r>  0.0000  0.0176  0.0201  0.0040  0.0000  0.0000  0.0000  0.0000  0.0000 </r>
        <r>  0.0000  0.0176  0.0201  0.0040  0.0000  0.0000  0.0000  0.0000  0.0000 </r>
       </set>
       <set comment="band 10">
        <r>  0.0720  0.0334  0.0257  0.0642  0.0000  0.0000  0.0000  0.0000  0.0000 </r>
        <r>  0.0730  0.0226  0.0418  0.0534  0.0000  0.0000  0.0000  0.0000  0.0000 </r>
       </set>
       <set comment="band 11">
        <r>  0.0128  0.0190  0.0240  0.0891  0.0000  0.0000  0.0000  0.0000  0.0000 </r>
        <r>  0.0118  0.0887  0.0401  0.0020  0.0000  0.0000  0.0000  0.0000  0.0000 </r>
       </set>
       <set comment="band 12">
        <r>  0.0379  0.0047  0.0150  0.0073  0.0000  0.0000  0.0000  0.0000  0.0000 </r>
        <r>  0.0400  0.0004  0.0123  0.0103  0.0000  0.0000  0.0000  0.0000  0.0000 </r>
       </set>
      </set>
      <set comment="kpoint 8">
       <set comment="band 1">
        <r>  0.2150  0.0049  0.0049  0.0049  0.0000  0.0000  0.0000  0.0000  0.0000 </r>
        <r>  0.2150  0.0049  0.0049  0.0049  0.0000  0.0000  0.0000  0.0000  0.0000 </r>
       </set>
       <set comment="band 2">
        <r>  0.1055  0.0321  0.0321  0.0321  0.0000  0.0000  0.0000  0.0000  0.0000 </r>
        <r>  0.1055  0.0321  0.0321  0.0321  0.0000  0.0000  0.0000  0.0000  0.0000 </r>
       </set>
       <set comment="band 3">
        <r>  0.0000  0.1445  0.0390  0.0339  0.0000  0.0000  0.0000  0.0000  0.0000 </r>
        <r>  0.0000  0.1445  0.0390  0.0339  0.0000  0.0000  0.0000  0.0000  0.0000 </r>
       </set>
       <set comment="band 4">
        <r>  0.0000  0.0005  0.1059  0.1110  0.0000  0.0000  0.0000  0.0000  0.0000 </r>
        <r>  0.0000  0.0005  0.1059  0.1110  0.0000  0.0000  0.0000  0.0000  0.0000 </r>
       </set>
       <set comment="band 5">
        <r>  0.1812  0.0079  0.0079  0.0079  0.0000  0.0000  0.0000  0.0000  0.0000 </r>
        <r>  0.1812  0.0079  0.0079  0.0079  0.0000  0.0000  0.0000  0.0000  0.0000 </r>
       </set>
       <set comment="band 6">
        <r>  0.0000  0.0062  0.0594  0.0356  0.0000  0.0000  0.0000  0.0000  0.0000 </r>
        <r>  0.0000  0.0062  0.0594  0.0356  0.0000  0.0000  0.0000  0.0000  0.0000 </r>
       </set>
       <set comment="band 7">
        <r>  0.0000  0.0613  0.0081  0.0319  0.0000  0.0000  0.0000  0.0000  0.0000 </r>
        <r>  0.0000  0.0613  0.0081  0.0319  0.0000  0.0000  0.0000  0.0000  0.0000 </r>
       </set>
       <set comment="band 8">
        <r>  0.0038  0.0231  0.0229  0.0227  0.0000  0.0000  0.0000  0.0000  0.0000 </r>
        <r>  0.0039  0.0229  0.0228  0.0233  0.0000  0.0000  0.0000  0.0000  0.0000 </r>
       </set>
       <set comment="band 9">
        <r>  0.0000  0.0201  0.0060  0.0158  0.0000  0.0000  0.0000  0.0000  0.0000 </r>
        <r>  0.0000  0.0201  0.0060  0.0158  0.0000  0.0000  0.0000  0.0000  0.0000 </r>
       </set>
       <set comment="band 10">
        <r>  0.0626  0.0173  0.0622  0.0190  0.0000  0.0000  0.0000  0.0000  0.0000 </r>
        <r>  0.0615  0.0328  0.0594  0.0113  0.0000  0.0000  0.0000  0.0000  0.0000 </r>
       </set>
       <set comment="band 11">
        <r>  0.0518  0.0066  0.0014  0.0041  0.0000  0.0000  0.0000  0.0000  0.0000 </r>
        <r>  0.0468  0.0035  0.0029  0.0059  0.0000  0.0000  0.0000  0.0000  0.0000 </r>
       </set>
       <set comment="band 12">
        <r>  0.0081  0.0115  0.0248  0.0088  0.0000  0.0000  0.0000  0.0000  0.0000 </r>
        <r>  0.0007  0.0137  0.0171  0.0027  0.0000  0.0000  0.0000  0.0000  0.0000 </r>
       </set>
      </set>
      <set comment="kpoint 9">
       <set comment="band 1">
        <r>  0.2137  0.0049  0.0049  0.0049  0.0000  0.0000  0.0000  0.0000  0.0000 </r>
        <r>  0.2137  0.0049  0.0049  0.0049  0.0000  0.0000  0.0000  0.0000  0.0000 </r>
       </set>
       <set comment="band 2">
        <r>  0.1060  0.0325  0.0325  0.0325  0.0000  0.0000  0.0000  0.0000  0.0000 </r>
        <r>  0.1060  0.0325  0.0325  0.0325  0.0000  0.0000  0.0000  0.0000  0.0000 </r>
       </set>
       <set comment="band 3">
        <r>  0.0000  0.1234  0.0202  0.0735  0.0000  0.0000  0.0000  0.0000  0.0000 </r>
        <r>  0.0000  0.1234  0.0202  0.0735  0.0000  0.0000  0.0000  0.0000  0.0000 </r>
       </set>
       <set comment="band 4">
        <r>  0.0000  0.0213  0.1245  0.0712  0.0000  0.0000  0.0000  0.0000  0.0000 </r>
        <r>  0.0000  0.0213  0.1245  0.0712  0.0000  0.0000  0.0000  0.0000  0.0000 </r>
       </set>
       <set comment="band 5">
        <r>  0.1797  0.0083  0.0083  0.0083  0.0000  0.0000  0.0000  0.0000  0.0000 </r>
        <r>  0.1797  0.0083  0.0083  0.0083  0.0000  0.0000  0.0000  0.0000  0.0000 </r>
       </set>
       <set comment="band 6">
        <r>  0.0000  0.0226  0.0126  0.0682  0.0000  0.0000  0.0000  0.0000  0.0000 </r>
        <r>  0.0000  0.0226  0.0126  0.0682  0.0000  0.0000  0.0000  0.0000  0.0000 </r>
       </set>
       <set comment="band 7">
        <r>  0.0000  0.0463  0.0564  0.0008  0.0000  0.0000  0.0000  0.0000  0.0000 </r>
        <r>  0.0000  0.0463  0.0564  0.0008  0.0000  0.0000  0.0000  0.0000  0.0000 </r>
       </set>
       <set comment="band 8">
        <r>  0.0037  0.0248  0.0252  0.0254  0.0000  0.0000  0.0000  0.0000  0.0000 </r>
        <r>  0.0036  0.0256  0.0251  0.0245  0.0000  0.0000  0.0000  0.0000  0.0000 </r>
       </set>
       <set comment="band 9">
        <r>  0.0000  0.0086  0.0273  0.0055  0.0000  0.0000  0.0000  0.0000  0.0000 </r>
        <r>  0.0000  0.0086  0.0273  0.0055  0.0000  0.0000  0.0000  0.0000  0.0000 </r>
       </set>
       <set comment="band 10">
        <r>  0.0908  0.0491  0.0351  0.0213  0.0000  0.0000  0.0000  0.0000  0.0000 </r>
        <r>  0.0898  0.0466  0.0376  0.0301  0.0000  0.0000  0.0000  0.0000  0.0000 </r>
       </set>
       <set comment="band 11">
        <r>  0.0790  0.0123  0.0177  0.0114  0.0000  0.0000  0.0000  0.0000  0.0000 </r>
        <r>  0.0442  0.0170  0.0102  0.0156  0.0000  0.0000  0.0000  0.0000  0.0000 </r>
       </set>
       <set comment="band 12">
        <r>  0.0001  0.0107  0.0085  0.0081  0.0000  0.0000  0.0000  0.0000  0.0000 </r>
        <r>  0.0005  0.0123  0.0085  0.0054  0.0000  0.0000  0.0000  0.0000  0.0000 </r>
       </set>
      </set>
      <set comment="kpoint 10">
       <set comment="band 1">
        <r>  0.2127  0.0047  0.0047  0.0047  0.0000  0.0000  0.0000  0.0000  0.0000 </r>
        <r>  0.2127  0.0047  0.0047  0.0047  0.0000  0.0000  0.0000  0.0000  0.0000 </r>
       </set>
       <set comment="band 2">
        <r>  0.1061  0.0329  0.0329  0.0329  0.0000  0.0000  0.0000  0.0000  0.0000 </r>
        <r>  0.1061  0.0329  0.0329  0.0329  0.0000  0.0000  0.0000  0.0000  0.0000 </r>
       </set>
       <set comment="band 3">
        <r>  0.0000  0.0808  0.1222  0.0137  0.0000  0.0000  0.0000  0.0000  0.0000 </r>
        <r>  0.0000  0.0808  0.1222  0.0137  0.0000  0.0000  0.0000  0.0000  0.0000 </r>
       </set>
       <set comment="band 4">
        <r>  0.0000  0.0637  0.0223  0.1308  0.0000  0.0000  0.0000  0.0000  0.0000 </r>
        <r>  0.0000  0.0637  0.0223  0.1308  0.0000  0.0000  0.0000  0.0000  0.0000 </r>
       </set>
       <set comment="band 5">
        <r>  0.1780  0.0089  0.0089  0.0089  0.0000  0.0000  0.0000  0.0000  0.0000 </r>
        <r>  0.1780  0.0089  0.0089  0.0089  0.0000  0.0000  0.0000  0.0000  0.0000 </r>
       </set>
       <set comment="band 6">
        <r>  0.0000  0.0033  0.0568  0.0459  0.0000  0.0000  0.0000  0.0000  0.0000 </r>
        <r>  0.0000  0.0033  0.0568  0.0459  0.0000  0.0000  0.0000  0.0000  0.0000 </r>
       </set>
       <set comment="band 7">
        <r>  0.0000  0.0674  0.0139  0.0248  0.0000  0.0000  0.0000  0.0000  0.0000 </r>
        <r>  0.0000  0.0674  0.0139  0.0248  0.0000  0.0000  0.0000  0.0000  0.0000 </r>
       </set>
       <set comment="band 8">
        <r>  0.0041  0.0282  0.0282  0.0282  0.0000  0.0000  0.0000  0.0000  0.0000 </r>
        <r>  0.0041  0.0282  0.0282  0.0282  0.0000  0.0000  0.0000  0.0000  0.0000 </r>
       </set>
       <set comment="band 9">
        <r>  0.0000  0.0145  0.0246  0.0014  0.0000  0.0000  0.0000  0.0000  0.0000 </r>
        <r>  0.0000  0.0145  0.0246  0.0014  0.0000  0.0000  0.0000  0.0000  0.0000 </r>
       </set>
       <set comment="band 10">
        <r>  0.0000  0.0125  0.0024  0.0256  0.0000  0.0000  0.0000  0.0000  0.0000 </r>
        <r>  0.0000  0.0125  0.0024  0.0256  0.0000  0.0000  0.0000  0.0000  0.0000 </r>
       </set>
       <set comment="band 11">
        <r>  0.1040  0.0344  0.0345  0.0345  0.0000  0.0000  0.0000  0.0000  0.0000 </r>
        <r>  0.1040  0.0345  0.0345  0.0345  0.0000  0.0000  0.0000  0.0000  0.0000 </r>
       </set>
       <set comment="band 12">
        <r>  0.0146  0.0039  0.0058  0.0054  0.0000  0.0000  0.0000  0.0000  0.0000 </r>
        <r>  0.0080  0.0064  0.0045  0.0293  0.0000  0.0000  0.0000  0.0000  0.0000 </r>
       </set>
      </set>
      <set comment="kpoint 11">
       <set comment="band 1">
        <r>  0.2118  0.0046  0.0046  0.0046  0.0000  0.0000  0.0000  0.0000  0.0000 </r>
        <r>  0.2118  0.0046  0.0046  0.0046  0.0000  0.0000  0.0000  0.0000  0.0000 </r>
       </set>
       <set comment="band 2">
        <r>  0.1059  0.0335  0.0335  0.0335  0.0000  0.0000  0.0000  0.0000  0.0000 </r>
        <r>  0.1059  0.0335  0.0335  0.0335  0.0000  0.0000  0.0000  0.0000  0.0000 </r>
       </set>
       <set comment="band 3">
        <r>  0.0000  0.0151  0.1377  0.0637  0.0000  0.0000  0.0000  0.0000  0.0000 </r>
        <r>  0.0000  0.0151  0.1377  0.0637  0.0000  0.0000  0.0000  0.0000  0.0000 </r>
       </set>
       <set comment="band 4">
        <r>  0.0000  0.1292  0.0066  0.0806  0.0000  0.0000  0.0000  0.0000  0.0000 </r>
        <r>  0.0000  0.1292  0.0066  0.0806  0.0000  0.0000  0.0000  0.0000  0.0000 </r>
       </set>
       <set comment="band 5">
        <r>  0.1761  0.0094  0.0094  0.0094  0.0000  0.0000  0.0000  0.0000  0.0000 </r>
        <r>  0.1761  0.0094  0.0094  0.0094  0.0000  0.0000  0.0000  0.0000  0.0000 </r>
       </set>
       <set comment="band 6">
        <r>  0.0000  0.0421  0.0277  0.0391  0.0000  0.0000  0.0000  0.0000  0.0000 </r>
        <r>  0.0000  0.0421  0.0277  0.0391  0.0000  0.0000  0.0000  0.0000  0.0000 </r>
       </set>
       <set comment="band 7">
        <r>  0.0000  0.0305  0.0449  0.0335  0.0000  0.0000  0.0000  0.0000  0.0000 </r>
        <r>  0.0000  0.0305  0.0449  0.0335  0.0000  0.0000  0.0000  0.0000  0.0000 </r>
       </set>
       <set comment="band 8">
        <r>  0.0060  0.0356  0.0283  0.0327  0.0000  0.0000  0.0000  0.0000  0.0000 </r>
        <r>  0.0058  0.0281  0.0378  0.0301  0.0000  0.0000  0.0000  0.0000  0.0000 </r>
       </set>
       <set comment="band 9">
        <r>  0.0000  0.0154  0.0021  0.0213  0.0000  0.0000  0.0000  0.0000  0.0000 </r>
        <r>  0.0000  0.0154  0.0021  0.0213  0.0000  0.0000  0.0000  0.0000  0.0000 </r>
       </set>
       <set comment="band 10">
        <r>  0.1032  0.0225  0.0391  0.0278  0.0000  0.0000  0.0000  0.0000  0.0000 </r>
        <r>  0.1022  0.0271  0.0275  0.0319  0.0000  0.0000  0.0000  0.0000  0.0000 </r>
       </set>
       <set comment="band 11">
        <r>  0.0024  0.0121  0.0524  0.0236  0.0000  0.0000  0.0000  0.0000  0.0000 </r>
        <r>  0.0031  0.0494  0.0195  0.0147  0.0000  0.0000  0.0000  0.0000  0.0000 </r>
       </set>
       <set comment="band 12">
        <r>  0.0008  0.0592  0.0153  0.0055  0.0000  0.0000  0.0000  0.0000  0.0000 </r>
        <r>  0.0034  0.0156  0.0523  0.0058  0.0000  0.0000  0.0000  0.0000  0.0000 </r>
       </set>
      </set>
      <set comment="kpoint 12">
       <set comment="band 1">
        <r>  0.2112  0.0044  0.0044  0.0044  0.0000  0.0000  0.0000  0.0000  0.0000 </r>
        <r>  0.2112  0.0044  0.0044  0.0044  0.0000  0.0000  0.0000  0.0000  0.0000 </r>
       </set>
       <set comment="band 2">
        <r>  0.1053  0.0342  0.0342  0.0342  0.0000  0.0000  0.0000  0.0000  0.0000 </r>
        <r>  0.1053  0.0342  0.0342  0.0342  0.0000  0.0000  0.0000  0.0000  0.0000 </r>
       </set>
       <set comment="band 3">
        <r>  0.0000  0.0184  0.1264  0.0713  0.0000  0.0000  0.0000  0.0000  0.0000 </r>
        <r>  0.0000  0.0184  0.1264  0.0713  0.0000  0.0000  0.0000  0.0000  0.0000 </r>
       </set>
       <set comment="band 4">
        <r>  0.0000  0.1257  0.0177  0.0727  0.0000  0.0000  0.0000  0.0000  0.0000 </r>
        <r>  0.0000  0.1257  0.0177  0.0727  0.0000  0.0000  0.0000  0.0000  0.0000 </r>
       </set>
       <set comment="band 5">
        <r>  0.1740  0.0101  0.0101  0.0101  0.0000  0.0000  0.0000  0.0000  0.0000 </r>
        <r>  0.1740  0.0101  0.0101  0.0101  0.0000  0.0000  0.0000  0.0000  0.0000 </r>
       </set>
       <set comment="band 6">
        <r>  0.0000  0.0223  0.0584  0.0315  0.0000  0.0000  0.0000  0.0000  0.0000 </r>
        <r>  0.0000  0.0223  0.0584  0.0315  0.0000  0.0000  0.0000  0.0000  0.0000 </r>
       </set>
       <set comment="band 7">
        <r>  0.0000  0.0525  0.0164  0.0433  0.0000  0.0000  0.0000  0.0000  0.0000 </r>
        <r>  0.0000  0.0525  0.0164  0.0433  0.0000  0.0000  0.0000  0.0000  0.0000 </r>
       </set>
       <set comment="band 8">
        <r>  0.0106  0.0374  0.0374  0.0375  0.0000  0.0000  0.0000  0.0000  0.0000 </r>
        <r>  0.0106  0.0375  0.0375  0.0374  0.0000  0.0000  0.0000  0.0000  0.0000 </r>
       </set>
       <set comment="band 9">
        <r>  0.0000  0.0102  0.0046  0.0220  0.0000  0.0000  0.0000  0.0000  0.0000 </r>
        <r>  0.0000  0.0102  0.0046  0.0220  0.0000  0.0000  0.0000  0.0000  0.0000 </r>
       </set>
       <set comment="band 10">
        <r>  0.0000  0.0143  0.0200  0.0026  0.0000  0.0000  0.0000  0.0000  0.0000 </r>
        <r>  0.0000  0.0143  0.0200  0.0026  0.0000  0.0000  0.0000  0.0000  0.0000 </r>
       </set>
       <set comment="band 11">
        <r>  0.1100  0.0235  0.0235  0.0235  0.0000  0.0000  0.0000  0.0000  0.0000 </r>
        <r>  0.1100  0.0235  0.0235  0.0235  0.0000  0.0000  0.0000  0.0000  0.0000 </r>
       </set>
       <set comment="band 12">
        <r>  0.0012  0.0295  0.0427  0.0015  0.0000  0.0000  0.0000  0.0000  0.0000 </r>
        <r>  0.0022  0.0099  0.0487  0.0152  0.0000  0.0000  0.0000  0.0000  0.0000 </r>
       </set>
      </set>
      <set comment="kpoint 13">
       <set comment="band 1">
        <r>  0.2108  0.0041  0.0041  0.0041  0.0000  0.0000  0.0000  0.0000  0.0000 </r>
        <r>  0.2108  0.0041  0.0041  0.0041  0.0000  0.0000  0.0000  0.0000  0.0000 </r>
       </set>
       <set comment="band 2">
        <r>  0.1045  0.0349  0.0349  0.0349  0.0000  0.0000  0.0000  0.0000  0.0000 </r>
        <r>  0.1045  0.0349  0.0349  0.0349  0.0000  0.0000  0.0000  0.0000  0.0000 </r>
       </set>
       <set comment="band 3">
        <r>  0.0000  0.0625  0.1369  0.0163  0.0000  0.0000  0.0000  0.0000  0.0000 </r>
        <r>  0.0000  0.0625  0.1369  0.0163  0.0000  0.0000  0.0000  0.0000  0.0000 </r>
       </set>
       <set comment="band 4">
        <r>  0.0000  0.0813  0.0069  0.1275  0.0000  0.0000  0.0000  0.0000  0.0000 </r>
        <r>  0.0000  0.0813  0.0069  0.1275  0.0000  0.0000  0.0000  0.0000  0.0000 </r>
       </set>
       <set comment="band 5">
        <r>  0.1717  0.0108  0.0108  0.0108  0.0000  0.0000  0.0000  0.0000  0.0000 </r>
        <r>  0.1717  0.0108  0.0108  0.0108  0.0000  0.0000  0.0000  0.0000  0.0000 </r>
       </set>
       <set comment="band 6">
        <r>  0.0000  0.0267  0.0662  0.0229  0.0000  0.0000  0.0000  0.0000  0.0000 </r>
        <r>  0.0000  0.0267  0.0662  0.0229  0.0000  0.0000  0.0000  0.0000  0.0000 </r>
       </set>
       <set comment="band 7">
        <r>  0.0000  0.0505  0.0110  0.0543  0.0000  0.0000  0.0000  0.0000  0.0000 </r>
        <r>  0.0000  0.0505  0.0110  0.0543  0.0000  0.0000  0.0000  0.0000  0.0000 </r>
       </set>
       <set comment="band 8">
        <r>  0.0075  0.0268  0.0180  0.0249  0.0000  0.0000  0.0000  0.0000  0.0000 </r>
        <r>  0.0076  0.0250  0.0225  0.0222  0.0000  0.0000  0.0000  0.0000  0.0000 </r>
       </set>
       <set comment="band 9">
        <r>  0.1070  0.0150  0.0176  0.0184  0.0000  0.0000  0.0000  0.0000  0.0000 </r>
        <r>  0.1080  0.0155  0.0185  0.0209  0.0000  0.0000  0.0000  0.0000  0.0000 </r>
       </set>
       <set comment="band 10">
        <r>  0.0243  0.0329  0.0388  0.0558  0.0000  0.0000  0.0000  0.0000  0.0000 </r>
        <r>  0.0253  0.0551  0.0343  0.0316  0.0000  0.0000  0.0000  0.0000  0.0000 </r>
       </set>
       <set comment="band 11">
        <r>  0.0013  0.0302  0.0233  0.0015  0.0000  0.0000  0.0000  0.0000  0.0000 </r>
        <r>  0.0021  0.0317  0.0260  0.0057  0.0000  0.0000  0.0000  0.0000  0.0000 </r>
       </set>
       <set comment="band 12">
        <r>  0.0036  0.0000  0.0049  0.0238  0.0000  0.0000  0.0000  0.0000  0.0000 </r>
        <r>  0.0015  0.0120  0.0214  0.0041  0.0000  0.0000  0.0000  0.0000  0.0000 </r>
       </set>
      </set>
      <set comment="kpoint 14">
       <set comment="band 1">
        <r>  0.2105  0.0039  0.0039  0.0039  0.0000  0.0000  0.0000  0.0000  0.0000 </r>
        <r>  0.2105  0.0039  0.0039  0.0039  0.0000  0.0000  0.0000  0.0000  0.0000 </r>
       </set>
       <set comment="band 2">
        <r>  0.1033  0.0357  0.0357  0.0357  0.0000  0.0000  0.0000  0.0000  0.0000 </r>
        <r>  0.1033  0.0357  0.0357  0.0357  0.0000  0.0000  0.0000  0.0000  0.0000 </r>
       </set>
       <set comment="band 3">
        <r>  0.0000  0.0938  0.1152  0.0063  0.0000  0.0000  0.0000  0.0000  0.0000 </r>
        <r>  0.0000  0.0938  0.1152  0.0063  0.0000  0.0000  0.0000  0.0000  0.0000 </r>
       </set>
       <set comment="band 4">
        <r>  0.0000  0.0497  0.0283  0.1373  0.0000  0.0000  0.0000  0.0000  0.0000 </r>
        <r>  0.0000  0.0497  0.0283  0.1373  0.0000  0.0000  0.0000  0.0000  0.0000 </r>
       </set>
       <set comment="band 5">
        <r>  0.1692  0.0116  0.0116  0.0116  0.0000  0.0000  0.0000  0.0000  0.0000 </r>
        <r>  0.1692  0.0116  0.0116  0.0116  0.0000  0.0000  0.0000  0.0000  0.0000 </r>
       </set>
       <set comment="band 6">
        <r>  0.0000  0.0762  0.0338  0.0097  0.0000  0.0000  0.0000  0.0000  0.0000 </r>
        <r>  0.0000  0.0762  0.0338  0.0097  0.0000  0.0000  0.0000  0.0000  0.0000 </r>
       </set>
       <set comment="band 7">
        <r>  0.0000  0.0036  0.0460  0.0701  0.0000  0.0000  0.0000  0.0000  0.0000 </r>
        <r>  0.0000  0.0036  0.0460  0.0701  0.0000  0.0000  0.0000  0.0000  0.0000 </r>
       </set>
       <set comment="band 8">
        <r>  0.0083  0.0202  0.0183  0.0183  0.0000  0.0000  0.0000  0.0000  0.0000 </r>
        <r>  0.0072  0.0236  0.0166  0.0142  0.0000  0.0000  0.0000  0.0000  0.0000 </r>
       </set>
       <set comment="band 9">
        <r>  0.0134  0.0287  0.0257  0.0231  0.0000  0.0000  0.0000  0.0000  0.0000 </r>
        <r>  0.0227  0.0173  0.0329  0.0461  0.0000  0.0000  0.0000  0.0000  0.0000 </r>
       </set>
       <set comment="band 10">
        <r>  0.0120  0.0427  0.0545  0.0244  0.0000  0.0000  0.0000  0.0000  0.0000 </r>
        <r>  0.0245  0.0304  0.0509  0.0612  0.0000  0.0000  0.0000  0.0000  0.0000 </r>
       </set>
       <set comment="band 11">
        <r>  0.0070  0.0014  0.0005  0.0644  0.0000  0.0000  0.0000  0.0000  0.0000 </r>
        <r>  0.0069  0.0006  0.0437  0.0150  0.0000  0.0000  0.0000  0.0000  0.0000 </r>
       </set>
       <set comment="band 12">
        <r>  0.0204  0.0164  0.0150  0.0172  0.0000  0.0000  0.0000  0.0000  0.0000 </r>
        <r>  0.0284  0.0552  0.0006  0.0108  0.0000  0.0000  0.0000  0.0000  0.0000 </r>
       </set>
      </set>
      <set comment="kpoint 15">
       <set comment="band 1">
        <r>  0.2104  0.0036  0.0036  0.0036  0.0000  0.0000  0.0000  0.0000  0.0000 </r>
        <r>  0.2104  0.0036  0.0036  0.0036  0.0000  0.0000  0.0000  0.0000  0.0000 </r>
       </set>
       <set comment="band 2">
        <r>  0.1019  0.0365  0.0365  0.0365  0.0000  0.0000  0.0000  0.0000  0.0000 </r>
        <r>  0.1019  0.0365  0.0365  0.0365  0.0000  0.0000  0.0000  0.0000  0.0000 </r>
       </set>
       <set comment="band 3">
        <r>  0.0000  0.1429  0.0397  0.0324  0.0000  0.0000  0.0000  0.0000  0.0000 </r>
        <r>  0.0000  0.1429  0.0397  0.0324  0.0000  0.0000  0.0000  0.0000  0.0000 </r>
       </set>
       <set comment="band 4">
        <r>  0.0000  0.0004  0.1037  0.1109  0.0000  0.0000  0.0000  0.0000  0.0000 </r>
        <r>  0.0000  0.0004  0.1037  0.1109  0.0000  0.0000  0.0000  0.0000  0.0000 </r>
       </set>
       <set comment="band 5">
        <r>  0.1664  0.0125  0.0125  0.0125  0.0000  0.0000  0.0000  0.0000  0.0000 </r>
        <r>  0.1664  0.0125  0.0125  0.0125  0.0000  0.0000  0.0000  0.0000  0.0000 </r>
       </set>
       <set comment="band 6">
        <r>  0.0000  0.0208  0.0820  0.0209  0.0000  0.0000  0.0000  0.0000  0.0000 </r>
        <r>  0.0000  0.0208  0.0820  0.0209  0.0000  0.0000  0.0000  0.0000  0.0000 </r>
       </set>
       <set comment="band 7">
        <r>  0.0000  0.0617  0.0005  0.0616  0.0000  0.0000  0.0000  0.0000  0.0000 </r>
        <r>  0.0000  0.0617  0.0005  0.0616  0.0000  0.0000  0.0000  0.0000  0.0000 </r>
       </set>
       <set comment="band 8">
        <r>  0.0000  0.0013  0.0094  0.0178  0.0000  0.0000  0.0000  0.0000  0.0000 </r>
        <r>  0.0000  0.0013  0.0094  0.0178  0.0000  0.0000  0.0000  0.0000  0.0000 </r>
       </set>
       <set comment="band 9">
        <r>  0.0254  0.0449  0.0213  0.0203  0.0000  0.0000  0.0000  0.0000  0.0000 </r>
        <r>  0.0255  0.0430  0.0209  0.0228  0.0000  0.0000  0.0000  0.0000  0.0000 </r>
       </set>
       <set comment="band 10">
        <r>  0.0610  0.0105  0.0062  0.0073  0.0000  0.0000  0.0000  0.0000  0.0000 </r>
        <r>  0.0585  0.0072  0.0022  0.0034  0.0000  0.0000  0.0000  0.0000  0.0000 </r>
       </set>
       <set comment="band 11">
        <r>  0.0010  0.0122  0.0072  0.0424  0.0000  0.0000  0.0000  0.0000  0.0000 </r>
        <r>  0.0027  0.0215  0.0445  0.0128  0.0000  0.0000  0.0000  0.0000  0.0000 </r>
       </set>
       <set comment="band 12">
        <r>  0.0032  0.0014  0.0120  0.0061  0.0000  0.0000  0.0000  0.0000  0.0000 </r>
        <r>  0.0024  0.0145  0.0335  0.0107  0.0000  0.0000  0.0000  0.0000  0.0000 </r>
       </set>
      </set>
      <set comment="kpoint 16">
       <set comment="band 1">
        <r>  0.2103  0.0034  0.0034  0.0034  0.0000  0.0000  0.0000  0.0000  0.0000 </r>
        <r>  0.2103  0.0034  0.0034  0.0034  0.0000  0.0000  0.0000  0.0000  0.0000 </r>
       </set>
       <set comment="band 2">
        <r>  0.1002  0.0374  0.0374  0.0374  0.0000  0.0000  0.0000  0.0000  0.0000 </r>
        <r>  0.1002  0.0374  0.0374  0.0374  0.0000  0.0000  0.0000  0.0000  0.0000 </r>
       </set>
       <set comment="band 3">
        <r>  0.0000  0.0599  0.1307  0.0241  0.0000  0.0000  0.0000  0.0000  0.0000 </r>
        <r>  0.0000  0.0599  0.1307  0.0241  0.0000  0.0000  0.0000  0.0000  0.0000 </r>
       </set>
       <set comment="band 4">
        <r>  0.0000  0.0832  0.0124  0.1190  0.0000  0.0000  0.0000  0.0000  0.0000 </r>
        <r>  0.0000  0.0832  0.0124  0.1190  0.0000  0.0000  0.0000  0.0000  0.0000 </r>
       </set>
       <set comment="band 5">
        <r>  0.1634  0.0134  0.0134  0.0134  0.0000  0.0000  0.0000  0.0000  0.0000 </r>
        <r>  0.1634  0.0134  0.0134  0.0134  0.0000  0.0000  0.0000  0.0000  0.0000 </r>
       </set>
       <set comment="band 6">
        <r>  0.0000  0.0534  0.0097  0.0649  0.0000  0.0000  0.0000  0.0000  0.0000 </r>
        <r>  0.0000  0.0534  0.0097  0.0649  0.0000  0.0000  0.0000  0.0000  0.0000 </r>
       </set>
       <set comment="band 7">
        <r>  0.0000  0.0319  0.0757  0.0204  0.0000  0.0000  0.0000  0.0000  0.0000 </r>
        <r>  0.0000  0.0319  0.0757  0.0204  0.0000  0.0000  0.0000  0.0000  0.0000 </r>
       </set>
       <set comment="band 8">
        <r>  0.0000  0.0029  0.0067  0.0155  0.0000  0.0000  0.0000  0.0000  0.0000 </r>
        <r>  0.0000  0.0029  0.0067  0.0155  0.0000  0.0000  0.0000  0.0000  0.0000 </r>
       </set>
       <set comment="band 9">
        <r>  0.0000  0.0139  0.0101  0.0013  0.0000  0.0000  0.0000  0.0000  0.0000 </r>
        <r>  0.0000  0.0139  0.0101  0.0013  0.0000  0.0000  0.0000  0.0000  0.0000 </r>
       </set>
       <set comment="band 10">
        <r>  0.0746  0.0530  0.0530  0.0530  0.0000  0.0000  0.0000  0.0000  0.0000 </r>
        <r>  0.0746  0.0530  0.0530  0.0530  0.0000  0.0000  0.0000  0.0000  0.0000 </r>
       </set>
       <set comment="band 11">
        <r>  0.0712  0.0051  0.0051  0.0051  0.0000  0.0000  0.0000  0.0000  0.0000 </r>
        <r>  0.0712  0.0051  0.0051  0.0051  0.0000  0.0000  0.0000  0.0000  0.0000 </r>
       </set>
       <set comment="band 12">
        <r>  0.0008  0.0247  0.0028  0.0076  0.0000  0.0000  0.0000  0.0000  0.0000 </r>
        <r>  0.0006  0.0426  0.0129  0.0105  0.0000  0.0000  0.0000  0.0000  0.0000 </r>
       </set>
      </set>
      <set comment="kpoint 17">
       <set comment="band 1">
        <r>  0.2103  0.0031  0.0031  0.0031  0.0000  0.0000  0.0000  0.0000  0.0000 </r>
        <r>  0.2103  0.0031  0.0031  0.0031  0.0000  0.0000  0.0000  0.0000  0.0000 </r>
       </set>
       <set comment="band 2">
        <r>  0.0982  0.0384  0.0384  0.0384  0.0000  0.0000  0.0000  0.0000  0.0000 </r>
        <r>  0.0982  0.0384  0.0384  0.0384  0.0000  0.0000  0.0000  0.0000  0.0000 </r>
       </set>
       <set comment="band 3">
        <r>  0.0000  0.0364  0.1421  0.0358  0.0000  0.0000  0.0000  0.0000  0.0000 </r>
        <r>  0.0000  0.0364  0.1421  0.0358  0.0000  0.0000  0.0000  0.0000  0.0000 </r>
       </set>
       <set comment="band 4">
        <r>  0.0000  0.1065  0.0008  0.1071  0.0000  0.0000  0.0000  0.0000  0.0000 </r>
        <r>  0.0000  0.1065  0.0008  0.1071  0.0000  0.0000  0.0000  0.0000  0.0000 </r>
       </set>
       <set comment="band 5">
        <r>  0.1602  0.0144  0.0144  0.0144  0.0000  0.0000  0.0000  0.0000  0.0000 </r>
        <r>  0.1602  0.0144  0.0144  0.0144  0.0000  0.0000  0.0000  0.0000  0.0000 </r>
       </set>
       <set comment="band 6">
        <r>  0.0000  0.0196  0.0273  0.0855  0.0000  0.0000  0.0000  0.0000  0.0000 </r>
        <r>  0.0000  0.0196  0.0273  0.0855  0.0000  0.0000  0.0000  0.0000  0.0000 </r>
       </set>
       <set comment="band 7">
        <r>  0.0000  0.0686  0.0610  0.0027  0.0000  0.0000  0.0000  0.0000  0.0000 </r>
        <r>  0.0000  0.0686  0.0610  0.0027  0.0000  0.0000  0.0000  0.0000  0.0000 </r>
       </set>
       <set comment="band 8">
        <r>  0.0914  0.0525  0.0525  0.0525  0.0000  0.0000  0.0000  0.0000  0.0000 </r>
        <r>  0.0914  0.0525  0.0525  0.0525  0.0000  0.0000  0.0000  0.0000  0.0000 </r>
       </set>
       <set comment="band 9">
        <r>  0.0000  0.0104  0.0001  0.0112  0.0000  0.0000  0.0000  0.0000  0.0000 </r>
        <r>  0.0000  0.0104  0.0001  0.0112  0.0000  0.0000  0.0000  0.0000  0.0000 </r>
       </set>
       <set comment="band 10">
        <r>  0.0000  0.0040  0.0144  0.0033  0.0000  0.0000  0.0000  0.0000  0.0000 </r>
        <r>  0.0000  0.0040  0.0144  0.0033  0.0000  0.0000  0.0000  0.0000  0.0000 </r>
       </set>
       <set comment="band 11">
        <r>  0.0612  0.0051  0.0051  0.0051  0.0000  0.0000  0.0000  0.0000  0.0000 </r>
        <r>  0.0611  0.0051  0.0051  0.0051  0.0000  0.0000  0.0000  0.0000  0.0000 </r>
       </set>
       <set comment="band 12">
        <r>  0.0340  0.0324  0.0306  0.0272  0.0000  0.0000  0.0000  0.0000  0.0000 </r>
        <r>  0.0340  0.0285  0.0291  0.0330  0.0000  0.0000  0.0000  0.0000  0.0000 </r>
       </set>
      </set>
      <set comment="kpoint 18">
       <set comment="band 1">
        <r>  0.2104  0.0028  0.0028  0.0028  0.0000  0.0000  0.0000  0.0000  0.0000 </r>
        <r>  0.2104  0.0028  0.0028  0.0028  0.0000  0.0000  0.0000  0.0000  0.0000 </r>
       </set>
       <set comment="band 2">
        <r>  0.0961  0.0395  0.0395  0.0395  0.0000  0.0000  0.0000  0.0000  0.0000 </r>
        <r>  0.0961  0.0395  0.0395  0.0395  0.0000  0.0000  0.0000  0.0000  0.0000 </r>
       </set>
       <set comment="band 3">
        <r>  0.0000  0.1051  0.0146  0.0943  0.0000  0.0000  0.0000  0.0000  0.0000 </r>
        <r>  0.0000  0.1051  0.0146  0.0943  0.0000  0.0000  0.0000  0.0000  0.0000 </r>
       </set>
       <set comment="band 4">
        <r>  0.0000  0.0376  0.1281  0.0483  0.0000  0.0000  0.0000  0.0000  0.0000 </r>
        <r>  0.0000  0.0376  0.1281  0.0483  0.0000  0.0000  0.0000  0.0000  0.0000 </r>
       </set>
       <set comment="band 5">
        <r>  0.1566  0.0155  0.0155  0.0155  0.0000  0.0000  0.0000  0.0000  0.0000 </r>
        <r>  0.1566  0.0155  0.0155  0.0155  0.0000  0.0000  0.0000  0.0000  0.0000 </r>
       </set>
       <set comment="band 6">
        <r>  0.0000  0.0858  0.0110  0.0398  0.0000  0.0000  0.0000  0.0000  0.0000 </r>
        <r>  0.0000  0.0858  0.0110  0.0398  0.0000  0.0000  0.0000  0.0000  0.0000 </r>
       </set>
       <set comment="band 7">
        <r>  0.0000  0.0053  0.0801  0.0512  0.0000  0.0000  0.0000  0.0000  0.0000 </r>
        <r>  0.0000  0.0053  0.0801  0.0512  0.0000  0.0000  0.0000  0.0000  0.0000 </r>
       </set>
       <set comment="band 8">
        <r>  0.0775  0.0418  0.0356  0.0398  0.0000  0.0000  0.0000  0.0000  0.0000 </r>
        <r>  0.0775  0.0392  0.0344  0.0436  0.0000  0.0000  0.0000  0.0000  0.0000 </r>
       </set>
       <set comment="band 9">
        <r>  0.0603  0.0010  0.0052  0.0046  0.0000  0.0000  0.0000  0.0000  0.0000 </r>
        <r>  0.0698  0.0036  0.0114  0.0058  0.0000  0.0000  0.0000  0.0000  0.0000 </r>
       </set>
       <set comment="band 10">
        <r>  0.0366  0.0273  0.0261  0.0226  0.0000  0.0000  0.0000  0.0000  0.0000 </r>
        <r>  0.0367  0.0246  0.0264  0.0295  0.0000  0.0000  0.0000  0.0000  0.0000 </r>
       </set>
       <set comment="band 11">
        <r>  0.0024  0.0077  0.0151  0.0626  0.0000  0.0000  0.0000  0.0000  0.0000 </r>
        <r>  0.0199  0.0028  0.0025  0.0336  0.0000  0.0000  0.0000  0.0000  0.0000 </r>
       </set>
       <set comment="band 12">
        <r>  0.0016  0.0202  0.0428  0.0270  0.0000  0.0000  0.0000  0.0000  0.0000 </r>
        <r>  0.0002  0.0621  0.0227  0.0028  0.0000  0.0000  0.0000  0.0000  0.0000 </r>
       </set>
      </set>
      <set comment="kpoint 19">
       <set comment="band 1">
        <r>  0.2106  0.0026  0.0026  0.0026  0.0000  0.0000  0.0000  0.0000  0.0000 </r>
        <r>  0.2106  0.0026  0.0026  0.0026  0.0000  0.0000  0.0000  0.0000  0.0000 </r>
       </set>
       <set comment="band 2">
        <r>  0.0936  0.0406  0.0406  0.0406  0.0000  0.0000  0.0000  0.0000  0.0000 </r>
        <r>  0.0936  0.0406  0.0406  0.0406  0.0000  0.0000  0.0000  0.0000  0.0000 </r>
       </set>
       <set comment="band 3">
        <r>  0.0000  0.0981  0.0934  0.0222  0.0000  0.0000  0.0000  0.0000  0.0000 </r>
        <r>  0.0000  0.0981  0.0934  0.0222  0.0000  0.0000  0.0000  0.0000  0.0000 </r>
       </set>
       <set comment="band 4">
        <r>  0.0000  0.0443  0.0491  0.1203  0.0000  0.0000  0.0000  0.0000  0.0000 </r>
        <r>  0.0000  0.0443  0.0491  0.1203  0.0000  0.0000  0.0000  0.0000  0.0000 </r>
       </set>
       <set comment="band 5">
        <r>  0.1528  0.0167  0.0167  0.0167  0.0000  0.0000  0.0000  0.0000  0.0000 </r>
        <r>  0.1528  0.0167  0.0167  0.0167  0.0000  0.0000  0.0000  0.0000  0.0000 </r>
       </set>
       <set comment="band 6">
        <r>  0.0000  0.0036  0.0816  0.0555  0.0000  0.0000  0.0000  0.0000  0.0000 </r>
        <r>  0.0000  0.0036  0.0816  0.0555  0.0000  0.0000  0.0000  0.0000  0.0000 </r>
       </set>
       <set comment="band 7">
        <r>  0.0000  0.0902  0.0122  0.0383  0.0000  0.0000  0.0000  0.0000  0.0000 </r>
        <r>  0.0000  0.0902  0.0122  0.0383  0.0000  0.0000  0.0000  0.0000  0.0000 </r>
       </set>
       <set comment="band 8">
        <r>  0.1173  0.0469  0.0493  0.0515  0.0000  0.0000  0.0000  0.0000  0.0000 </r>
        <r>  0.1173  0.0515  0.0488  0.0474  0.0000  0.0000  0.0000  0.0000  0.0000 </r>
       </set>
       <set comment="band 9">
        <r>  0.0000  0.0034  0.0089  0.0027  0.0000  0.0000  0.0000  0.0000  0.0000 </r>
        <r>  0.0000  0.0034  0.0089  0.0027  0.0000  0.0000  0.0000  0.0000  0.0000 </r>
       </set>
       <set comment="band 10">
        <r>  0.0495  0.0076  0.0077  0.0070  0.0000  0.0000  0.0000  0.0000  0.0000 </r>
        <r>  0.0494  0.0078  0.0071  0.0070  0.0000  0.0000  0.0000  0.0000  0.0000 </r>
       </set>
       <set comment="band 11">
        <r>  0.0383  0.0215  0.0215  0.0248  0.0000  0.0000  0.0000  0.0000  0.0000 </r>
        <r>  0.0387  0.0225  0.0236  0.0224  0.0000  0.0000  0.0000  0.0000  0.0000 </r>
       </set>
       <set comment="band 12">
        <r>  0.0209  0.0071  0.0148  0.0333  0.0000  0.0000  0.0000  0.0000  0.0000 </r>
        <r>  0.0191  0.0066  0.0156  0.0391  0.0000  0.0000  0.0000  0.0000  0.0000 </r>
       </set>
      </set>
      <set comment="kpoint 20">
       <set comment="band 1">
        <r>  0.2108  0.0023  0.0023  0.0023  0.0000  0.0000  0.0000  0.0000  0.0000 </r>
        <r>  0.2108  0.0023  0.0023  0.0023  0.0000  0.0000  0.0000  0.0000  0.0000 </r>
       </set>
       <set comment="band 2">
        <r>  0.0909  0.0417  0.0417  0.0417  0.0000  0.0000  0.0000  0.0000  0.0000 </r>
        <r>  0.0909  0.0417  0.0417  0.0417  0.0000  0.0000  0.0000  0.0000  0.0000 </r>
       </set>
       <set comment="band 3">
        <r>  0.0000  0.1124  0.0018  0.0993  0.0000  0.0000  0.0000  0.0000  0.0000 </r>
        <r>  0.0000  0.1124  0.0018  0.0993  0.0000  0.0000  0.0000  0.0000  0.0000 </r>
       </set>
       <set comment="band 4">
        <r>  0.0000  0.0299  0.1405  0.0430  0.0000  0.0000  0.0000  0.0000  0.0000 </r>
        <r>  0.0000  0.0299  0.1405  0.0430  0.0000  0.0000  0.0000  0.0000  0.0000 </r>
       </set>
       <set comment="band 5">
        <r>  0.1486  0.0179  0.0179  0.0179  0.0000  0.0000  0.0000  0.0000  0.0000 </r>
        <r>  0.1486  0.0179  0.0179  0.0179  0.0000  0.0000  0.0000  0.0000  0.0000 </r>
       </set>
       <set comment="band 6">
        <r>  0.0000  0.0863  0.0040  0.0539  0.0000  0.0000  0.0000  0.0000  0.0000 </r>
        <r>  0.0000  0.0863  0.0040  0.0539  0.0000  0.0000  0.0000  0.0000  0.0000 </r>
       </set>
       <set comment="band 7">
        <r>  0.0000  0.0098  0.0921  0.0423  0.0000  0.0000  0.0000  0.0000  0.0000 </r>
        <r>  0.0000  0.0098  0.0921  0.0423  0.0000  0.0000  0.0000  0.0000  0.0000 </r>
       </set>
       <set comment="band 8">
        <r>  0.1288  0.0479  0.0475  0.0475  0.0000  0.0000  0.0000  0.0000  0.0000 </r>
        <r>  0.1288  0.0474  0.0477  0.0478  0.0000  0.0000  0.0000  0.0000  0.0000 </r>
       </set>
       <set comment="band 9">
        <r>  0.0000  0.0000  0.0062  0.0057  0.0000  0.0000  0.0000  0.0000  0.0000 </r>
        <r>  0.0000  0.0000  0.0062  0.0057  0.0000  0.0000  0.0000  0.0000  0.0000 </r>
       </set>
       <set comment="band 10">
        <r>  0.0467  0.0094  0.0084  0.0087  0.0000  0.0000  0.0000  0.0000  0.0000 </r>
        <r>  0.0470  0.0087  0.0092  0.0086  0.0000  0.0000  0.0000  0.0000  0.0000 </r>
       </set>
       <set comment="band 11">
        <r>  0.0405  0.0199  0.0198  0.0189  0.0000  0.0000  0.0000  0.0000  0.0000 </r>
        <r>  0.0401  0.0192  0.0192  0.0202  0.0000  0.0000  0.0000  0.0000  0.0000 </r>
       </set>
       <set comment="band 12">
        <r>  0.0000  0.0176  0.0051  0.0128  0.0000  0.0000  0.0000  0.0000  0.0000 </r>
        <r>  0.0000  0.0168  0.0039  0.0116  0.0000  0.0000  0.0000  0.0000  0.0000 </r>
       </set>
      </set>
      <set comment="kpoint 21">
       <set comment="band 1">
        <r>  0.2110  0.0021  0.0021  0.0021  0.0000  0.0000  0.0000  0.0000  0.0000 </r>
        <r>  0.2110  0.0021  0.0021  0.0021  0.0000  0.0000  0.0000  0.0000  0.0000 </r>
       </set>
       <set comment="band 2">
        <r>  0.0879  0.0430  0.0430  0.0430  0.0000  0.0000  0.0000  0.0000  0.0000 </r>
        <r>  0.0879  0.0430  0.0430  0.0430  0.0000  0.0000  0.0000  0.0000  0.0000 </r>
       </set>
       <set comment="band 3">
        <r>  0.0000  0.1128  0.0005  0.1000  0.0000  0.0000  0.0000  0.0000  0.0000 </r>
        <r>  0.0000  0.1128  0.0005  0.1000  0.0000  0.0000  0.0000  0.0000  0.0000 </r>
       </set>
       <set comment="band 4">
        <r>  0.0000  0.0293  0.1417  0.0422  0.0000  0.0000  0.0000  0.0000  0.0000 </r>
        <r>  0.0000  0.0293  0.1417  0.0422  0.0000  0.0000  0.0000  0.0000  0.0000 </r>
       </set>
       <set comment="band 5">
        <r>  0.1441  0.0193  0.0193  0.0193  0.0000  0.0000  0.0000  0.0000  0.0000 </r>
        <r>  0.1441  0.0193  0.0193  0.0193  0.0000  0.0000  0.0000  0.0000  0.0000 </r>
       </set>
       <set comment="band 6">
        <r>  0.0000  0.0430  0.0696  0.0348  0.0000  0.0000  0.0000  0.0000  0.0000 </r>
        <r>  0.0000  0.0430  0.0696  0.0348  0.0000  0.0000  0.0000  0.0000  0.0000 </r>
       </set>
       <set comment="band 7">
        <r>  0.0000  0.0553  0.0286  0.0635  0.0000  0.0000  0.0000  0.0000  0.0000 </r>
        <r>  0.0000  0.0553  0.0286  0.0635  0.0000  0.0000  0.0000  0.0000  0.0000 </r>
       </set>
       <set comment="band 8">
        <r>  0.1389  0.0455  0.0460  0.0457  0.0000  0.0000  0.0000  0.0000  0.0000 </r>
        <r>  0.1387  0.0459  0.0455  0.0458  0.0000  0.0000  0.0000  0.0000  0.0000 </r>
       </set>
       <set comment="band 9">
        <r>  0.0432  0.0097  0.0109  0.0081  0.0000  0.0000  0.0000  0.0000  0.0000 </r>
        <r>  0.0443  0.0060  0.0150  0.0099  0.0000  0.0000  0.0000  0.0000  0.0000 </r>
       </set>
       <set comment="band 10">
        <r>  0.0406  0.0155  0.0164  0.0174  0.0000  0.0000  0.0000  0.0000  0.0000 </r>
        <r>  0.0403  0.0180  0.0156  0.0155  0.0000  0.0000  0.0000  0.0000  0.0000 </r>
       </set>
       <set comment="band 11">
        <r>  0.0123  0.0171  0.0075  0.0273  0.0000  0.0000  0.0000  0.0000  0.0000 </r>
        <r>  0.0104  0.0334  0.0183  0.0027  0.0000  0.0000  0.0000  0.0000  0.0000 </r>
       </set>
       <set comment="band 12">
        <r>  0.0245  0.0207  0.0243  0.0303  0.0000  0.0000  0.0000  0.0000  0.0000 </r>
        <r>  0.0203  0.0246  0.0337  0.0276  0.0000  0.0000  0.0000  0.0000  0.0000 </r>
       </set>
      </set>
      <set comment="kpoint 22">
       <set comment="band 1">
        <r>  0.2112  0.0018  0.0018  0.0018  0.0000  0.0000  0.0000  0.0000  0.0000 </r>
        <r>  0.2112  0.0018  0.0018  0.0018  0.0000  0.0000  0.0000  0.0000  0.0000 </r>
       </set>
       <set comment="band 2">
        <r>  0.0847  0.0443  0.0443  0.0443  0.0000  0.0000  0.0000  0.0000  0.0000 </r>
        <r>  0.0847  0.0443  0.0443  0.0443  0.0000  0.0000  0.0000  0.0000  0.0000 </r>
       </set>
       <set comment="band 3">
        <r>  0.0000  0.0009  0.1139  0.0983  0.0000  0.0000  0.0000  0.0000  0.0000 </r>
        <r>  0.0000  0.0009  0.1139  0.0983  0.0000  0.0000  0.0000  0.0000  0.0000 </r>
       </set>
       <set comment="band 4">
        <r>  0.0000  0.1412  0.0281  0.0438  0.0000  0.0000  0.0000  0.0000  0.0000 </r>
        <r>  0.0000  0.1412  0.0281  0.0438  0.0000  0.0000  0.0000  0.0000  0.0000 </r>
       </set>
       <set comment="band 5">
        <r>  0.1391  0.0207  0.0207  0.0207  0.0000  0.0000  0.0000  0.0000  0.0000 </r>
        <r>  0.1391  0.0207  0.0207  0.0207  0.0000  0.0000  0.0000  0.0000  0.0000 </r>
       </set>
       <set comment="band 6">
        <r>  0.0000  0.0666  0.0812  0.0022  0.0000  0.0000  0.0000  0.0000  0.0000 </r>
        <r>  0.0000  0.0666  0.0812  0.0022  0.0000  0.0000  0.0000  0.0000  0.0000 </r>
       </set>
       <set comment="band 7">
        <r>  0.0000  0.0334  0.0188  0.0978  0.0000  0.0000  0.0000  0.0000  0.0000 </r>
        <r>  0.0000  0.0334  0.0188  0.0978  0.0000  0.0000  0.0000  0.0000  0.0000 </r>
       </set>
       <set comment="band 8">
        <r>  0.0189  0.0046  0.0120  0.0064  0.0000  0.0000  0.0000  0.0000  0.0000 </r>
        <r>  0.0190  0.0072  0.0093  0.0063  0.0000  0.0000  0.0000  0.0000  0.0000 </r>
       </set>
       <set comment="band 9">
        <r>  0.0480  0.0124  0.0120  0.0119  0.0000  0.0000  0.0000  0.0000  0.0000 </r>
        <r>  0.0482  0.0121  0.0121  0.0119  0.0000  0.0000  0.0000  0.0000  0.0000 </r>
       </set>
       <set comment="band 10">
        <r>  0.0386  0.0131  0.0136  0.0119  0.0000  0.0000  0.0000  0.0000  0.0000 </r>
        <r>  0.0395  0.0136  0.0124  0.0139  0.0000  0.0000  0.0000  0.0000  0.0000 </r>
       </set>
       <set comment="band 11">
        <r>  0.0124  0.0208  0.0143  0.0040  0.0000  0.0000  0.0000  0.0000  0.0000 </r>
        <r>  0.0160  0.0023  0.0131  0.0158  0.0000  0.0000  0.0000  0.0000  0.0000 </r>
       </set>
       <set comment="band 12">
        <r>  0.0104  0.0169  0.0279  0.0297  0.0000  0.0000  0.0000  0.0000  0.0000 </r>
        <r>  0.0138  0.0026  0.0312  0.0340  0.0000  0.0000  0.0000  0.0000  0.0000 </r>
       </set>
      </set>
      <set comment="kpoint 23">
       <set comment="band 1">
        <r>  0.2114  0.0016  0.0016  0.0016  0.0000  0.0000  0.0000  0.0000  0.0000 </r>
        <r>  0.2114  0.0016  0.0016  0.0016  0.0000  0.0000  0.0000  0.0000  0.0000 </r>
       </set>
       <set comment="band 2">
        <r>  0.0811  0.0457  0.0457  0.0457  0.0000  0.0000  0.0000  0.0000  0.0000 </r>
        <r>  0.0811  0.0457  0.0457  0.0457  0.0000  0.0000  0.0000  0.0000  0.0000 </r>
       </set>
       <set comment="band 3">
        <r>  0.0000  0.0139  0.0631  0.1360  0.0000  0.0000  0.0000  0.0000  0.0000 </r>
        <r>  0.0000  0.0139  0.0631  0.1360  0.0000  0.0000  0.0000  0.0000  0.0000 </r>
       </set>
       <set comment="band 4">
        <r>  0.0000  0.1281  0.0789  0.0060  0.0000  0.0000  0.0000  0.0000  0.0000 </r>
        <r>  0.0000  0.1281  0.0789  0.0060  0.0000  0.0000  0.0000  0.0000  0.0000 </r>
       </set>
       <set comment="band 5">
        <r>  0.1336  0.0223  0.0223  0.0223  0.0000  0.0000  0.0000  0.0000  0.0000 </r>
        <r>  0.1336  0.0223  0.0223  0.0223  0.0000  0.0000  0.0000  0.0000  0.0000 </r>
       </set>
       <set comment="band 6">
        <r>  0.0000  0.1012  0.0238  0.0270  0.0000  0.0000  0.0000  0.0000  0.0000 </r>
        <r>  0.0000  0.1012  0.0238  0.0270  0.0000  0.0000  0.0000  0.0000  0.0000 </r>
       </set>
       <set comment="band 7">
        <r>  0.0000  0.0001  0.0775  0.0744  0.0000  0.0000  0.0000  0.0000  0.0000 </r>
        <r>  0.0000  0.0001  0.0775  0.0744  0.0000  0.0000  0.0000  0.0000  0.0000 </r>
       </set>
       <set comment="band 8">
        <r>  0.1587  0.0419  0.0419  0.0419  0.0000  0.0000  0.0000  0.0000  0.0000 </r>
        <r>  0.1587  0.0419  0.0419  0.0419  0.0000  0.0000  0.0000  0.0000  0.0000 </r>
       </set>
       <set comment="band 9">
        <r>  0.0000  0.0014  0.0035  0.0005  0.0000  0.0000  0.0000  0.0000  0.0000 </r>
        <r>  0.0000  0.0014  0.0035  0.0005  0.0000  0.0000  0.0000  0.0000  0.0000 </r>
       </set>
       <set comment="band 10">
        <r>  0.0520  0.0135  0.0131  0.0136  0.0000  0.0000  0.0000  0.0000  0.0000 </r>
        <r>  0.0518  0.0131  0.0135  0.0138  0.0000  0.0000  0.0000  0.0000  0.0000 </r>
       </set>
       <set comment="band 11">
        <r>  0.0361  0.0118  0.0099  0.0093  0.0000  0.0000  0.0000  0.0000  0.0000 </r>
        <r>  0.0362  0.0097  0.0106  0.0103  0.0000  0.0000  0.0000  0.0000  0.0000 </r>
       </set>
       <set comment="band 12">
        <r>  0.0116  0.0181  0.0286  0.0086  0.0000  0.0000  0.0000  0.0000  0.0000 </r>
        <r>  0.0061  0.0460  0.0219  0.0059  0.0000  0.0000  0.0000  0.0000  0.0000 </r>
       </set>
      </set>
      <set comment="kpoint 24">
       <set comment="band 1">
        <r>  0.2117  0.0014  0.0014  0.0014  0.0000  0.0000  0.0000  0.0000  0.0000 </r>
        <r>  0.2117  0.0014  0.0014  0.0014  0.0000  0.0000  0.0000  0.0000  0.0000 </r>
       </set>
       <set comment="band 2">
        <r>  0.0771  0.0472  0.0472  0.0472  0.0000  0.0000  0.0000  0.0000  0.0000 </r>
        <r>  0.0771  0.0472  0.0472  0.0472  0.0000  0.0000  0.0000  0.0000  0.0000 </r>
       </set>
       <set comment="band 3">
        <r>  0.0000  0.0032  0.0965  0.1132  0.0000  0.0000  0.0000  0.0000  0.0000 </r>
        <r>  0.0000  0.0032  0.0965  0.1132  0.0000  0.0000  0.0000  0.0000  0.0000 </r>
       </set>
       <set comment="band 4">
        <r>  0.0000  0.1388  0.0455  0.0287  0.0000  0.0000  0.0000  0.0000  0.0000 </r>
        <r>  0.0000  0.1388  0.0455  0.0287  0.0000  0.0000  0.0000  0.0000  0.0000 </r>
       </set>
       <set comment="band 5">
        <r>  0.1276  0.0240  0.0240  0.0240  0.0000  0.0000  0.0000  0.0000  0.0000 </r>
        <r>  0.1276  0.0240  0.0240  0.0240  0.0000  0.0000  0.0000  0.0000  0.0000 </r>
       </set>
       <set comment="band 6">
        <r>  0.0000  0.0575  0.0251  0.0709  0.0000  0.0000  0.0000  0.0000  0.0000 </r>
        <r>  0.0000  0.0575  0.0251  0.0709  0.0000  0.0000  0.0000  0.0000  0.0000 </r>
       </set>
       <set comment="band 7">
        <r>  0.0000  0.0448  0.0772  0.0314  0.0000  0.0000  0.0000  0.0000  0.0000 </r>
        <r>  0.0000  0.0448  0.0772  0.0314  0.0000  0.0000  0.0000  0.0000  0.0000 </r>
       </set>
       <set comment="band 8">
        <r>  0.1688  0.0398  0.0398  0.0398  0.0000  0.0000  0.0000  0.0000  0.0000 </r>
        <r>  0.1688  0.0398  0.0398  0.0398  0.0000  0.0000  0.0000  0.0000  0.0000 </r>
       </set>
       <set comment="band 9">
        <r>  0.0000  0.0002  0.0016  0.0023  0.0000  0.0000  0.0000  0.0000  0.0000 </r>
        <r>  0.0000  0.0002  0.0016  0.0023  0.0000  0.0000  0.0000  0.0000  0.0000 </r>
       </set>
       <set comment="band 10">
        <r>  0.0618  0.0147  0.0177  0.0175  0.0000  0.0000  0.0000  0.0000  0.0000 </r>
        <r>  0.0644  0.0139  0.0171  0.0170  0.0000  0.0000  0.0000  0.0000  0.0000 </r>
       </set>
       <set comment="band 11">
        <r>  0.0153  0.0119  0.0094  0.0016  0.0000  0.0000  0.0000  0.0000  0.0000 </r>
        <r>  0.0127  0.0118  0.0215  0.0006  0.0000  0.0000  0.0000  0.0000  0.0000 </r>
       </set>
       <set comment="band 12">
        <r>  0.0019  0.0262  0.0081  0.0183  0.0000  0.0000  0.0000  0.0000  0.0000 </r>
        <r>  0.0015  0.0234  0.0182  0.0056  0.0000  0.0000  0.0000  0.0000  0.0000 </r>
       </set>
      </set>
      <set comment="kpoint 25">
       <set comment="band 1">
        <r>  0.2119  0.0011  0.0011  0.0011  0.0000  0.0000  0.0000  0.0000  0.0000 </r>
        <r>  0.2119  0.0011  0.0011  0.0011  0.0000  0.0000  0.0000  0.0000  0.0000 </r>
       </set>
       <set comment="band 2">
        <r>  0.0728  0.0488  0.0488  0.0488  0.0000  0.0000  0.0000  0.0000  0.0000 </r>
        <r>  0.0728  0.0488  0.0488  0.0488  0.0000  0.0000  0.0000  0.0000  0.0000 </r>
       </set>
       <set comment="band 3">
        <r>  0.0000  0.1058  0.0000  0.1072  0.0000  0.0000  0.0000  0.0000  0.0000 </r>
        <r>  0.0000  0.1058  0.0000  0.1072  0.0000  0.0000  0.0000  0.0000  0.0000 </r>
       </set>
       <set comment="band 4">
        <r>  0.0000  0.0362  0.1420  0.0348  0.0000  0.0000  0.0000  0.0000  0.0000 </r>
        <r>  0.0000  0.0362  0.1420  0.0348  0.0000  0.0000  0.0000  0.0000  0.0000 </r>
       </set>
       <set comment="band 5">
        <r>  0.1207  0.0258  0.0258  0.0258  0.0000  0.0000  0.0000  0.0000  0.0000 </r>
        <r>  0.1207  0.0258  0.0258  0.0258  0.0000  0.0000  0.0000  0.0000  0.0000 </r>
       </set>
       <set comment="band 6">
        <r>  0.0000  0.0506  0.0550  0.0488  0.0000  0.0000  0.0000  0.0000  0.0000 </r>
        <r>  0.0000  0.0506  0.0550  0.0488  0.0000  0.0000  0.0000  0.0000  0.0000 </r>
       </set>
       <set comment="band 7">
        <r>  0.0000  0.0523  0.0479  0.0541  0.0000  0.0000  0.0000  0.0000  0.0000 </r>
        <r>  0.0000  0.0523  0.0479  0.0541  0.0000  0.0000  0.0000  0.0000  0.0000 </r>
       </set>
       <set comment="band 8">
        <r>  0.1795  0.0375  0.0375  0.0375  0.0000  0.0000  0.0000  0.0000  0.0000 </r>
        <r>  0.1795  0.0375  0.0375  0.0375  0.0000  0.0000  0.0000  0.0000  0.0000 </r>
       </set>
       <set comment="band 9">
        <r>  0.0000  0.0004  0.0019  0.0008  0.0000  0.0000  0.0000  0.0000  0.0000 </r>
        <r>  0.0000  0.0004  0.0019  0.0008  0.0000  0.0000  0.0000  0.0000  0.0000 </r>
       </set>
       <set comment="band 10">
        <r>  0.0000  0.0016  0.0002  0.0013  0.0000  0.0000  0.0000  0.0000  0.0000 </r>
        <r>  0.0000  0.0016  0.0002  0.0013  0.0000  0.0000  0.0000  0.0000  0.0000 </r>
       </set>
       <set comment="band 11">
        <r>  0.0652  0.0139  0.0139  0.0139  0.0000  0.0000  0.0000  0.0000  0.0000 </r>
        <r>  0.0644  0.0141  0.0141  0.0141  0.0000  0.0000  0.0000  0.0000  0.0000 </r>
       </set>
       <set comment="band 12">
        <r>  0.0037  0.0083  0.0269  0.0122  0.0000  0.0000  0.0000  0.0000  0.0000 </r>
        <r>  0.0044  0.0013  0.0392  0.0065  0.0000  0.0000  0.0000  0.0000  0.0000 </r>
       </set>
      </set>
      <set comment="kpoint 26">
       <set comment="band 1">
        <r>  0.2122  0.0010  0.0010  0.0010  0.0000  0.0000  0.0000  0.0000  0.0000 </r>
        <r>  0.2122  0.0010  0.0010  0.0010  0.0000  0.0000  0.0000  0.0000  0.0000 </r>
       </set>
       <set comment="band 2">
        <r>  0.0680  0.0506  0.0506  0.0506  0.0000  0.0000  0.0000  0.0000  0.0000 </r>
        <r>  0.0680  0.0506  0.0506  0.0506  0.0000  0.0000  0.0000  0.0000  0.0000 </r>
       </set>
       <set comment="band 3">
        <r>  0.0000  0.0488  0.1366  0.0278  0.0000  0.0000  0.0000  0.0000  0.0000 </r>
        <r>  0.0000  0.0488  0.1366  0.0278  0.0000  0.0000  0.0000  0.0000  0.0000 </r>
       </set>
       <set comment="band 4">
        <r>  0.0000  0.0933  0.0055  0.1143  0.0000  0.0000  0.0000  0.0000  0.0000 </r>
        <r>  0.0000  0.0933  0.0055  0.1143  0.0000  0.0000  0.0000  0.0000  0.0000 </r>
       </set>
       <set comment="band 5">
        <r>  0.1129  0.0278  0.0278  0.0278  0.0000  0.0000  0.0000  0.0000  0.0000 </r>
        <r>  0.1129  0.0278  0.0278  0.0278  0.0000  0.0000  0.0000  0.0000  0.0000 </r>
       </set>
       <set comment="band 6">
        <r>  0.0000  0.0809  0.0033  0.0707  0.0000  0.0000  0.0000  0.0000  0.0000 </r>
        <r>  0.0000  0.0809  0.0033  0.0707  0.0000  0.0000  0.0000  0.0000  0.0000 </r>
       </set>
       <set comment="band 7">
        <r>  0.0000  0.0224  0.1000  0.0325  0.0000  0.0000  0.0000  0.0000  0.0000 </r>
        <r>  0.0000  0.0224  0.1000  0.0325  0.0000  0.0000  0.0000  0.0000  0.0000 </r>
       </set>
       <set comment="band 8">
        <r>  0.1911  0.0350  0.0350  0.0350  0.0000  0.0000  0.0000  0.0000  0.0000 </r>
        <r>  0.1911  0.0350  0.0350  0.0350  0.0000  0.0000  0.0000  0.0000  0.0000 </r>
       </set>
       <set comment="band 9">
        <r>  0.0000  0.0008  0.0002  0.0014  0.0000  0.0000  0.0000  0.0000  0.0000 </r>
        <r>  0.0000  0.0008  0.0002  0.0014  0.0000  0.0000  0.0000  0.0000  0.0000 </r>
       </set>
       <set comment="band 10">
        <r>  0.0000  0.0008  0.0014  0.0002  0.0000  0.0000  0.0000  0.0000  0.0000 </r>
        <r>  0.0000  0.0008  0.0014  0.0002  0.0000  0.0000  0.0000  0.0000  0.0000 </r>
       </set>
       <set comment="band 11">
        <r>  0.0711  0.0129  0.0129  0.0129  0.0000  0.0000  0.0000  0.0000  0.0000 </r>
        <r>  0.0711  0.0129  0.0129  0.0129  0.0000  0.0000  0.0000  0.0000  0.0000 </r>
       </set>
       <set comment="band 12">
        <r>  0.0214  0.0068  0.0067  0.0067  0.0000  0.0000  0.0000  0.0000  0.0000 </r>
        <r>  0.0214  0.0068  0.0067  0.0068  0.0000  0.0000  0.0000  0.0000  0.0000 </r>
       </set>
      </set>
      <set comment="kpoint 27">
       <set comment="band 1">
        <r>  0.2124  0.0008  0.0008  0.0008  0.0000  0.0000  0.0000  0.0000  0.0000 </r>
        <r>  0.2124  0.0008  0.0008  0.0008  0.0000  0.0000  0.0000  0.0000  0.0000 </r>
       </set>
       <set comment="band 2">
        <r>  0.0626  0.0524  0.0524  0.0524  0.0000  0.0000  0.0000  0.0000  0.0000 </r>
        <r>  0.0626  0.0524  0.0524  0.0524  0.0000  0.0000  0.0000  0.0000  0.0000 </r>
       </set>
       <set comment="band 3">
        <r>  0.0000  0.0666  0.1188  0.0279  0.0000  0.0000  0.0000  0.0000  0.0000 </r>
        <r>  0.0000  0.0666  0.1188  0.0279  0.0000  0.0000  0.0000  0.0000  0.0000 </r>
       </set>
       <set comment="band 4">
        <r>  0.0000  0.0756  0.0235  0.1143  0.0000  0.0000  0.0000  0.0000  0.0000 </r>
        <r>  0.0000  0.0756  0.0235  0.1143  0.0000  0.0000  0.0000  0.0000  0.0000 </r>
       </set>
       <set comment="band 5">
        <r>  0.1039  0.0301  0.0301  0.0301  0.0000  0.0000  0.0000  0.0000  0.0000 </r>
        <r>  0.1039  0.0301  0.0301  0.0301  0.0000  0.0000  0.0000  0.0000  0.0000 </r>
       </set>
       <set comment="band 6">
        <r>  0.0000  0.0279  0.0317  0.0953  0.0000  0.0000  0.0000  0.0000  0.0000 </r>
        <r>  0.0000  0.0279  0.0317  0.0953  0.0000  0.0000  0.0000  0.0000  0.0000 </r>
       </set>
       <set comment="band 7">
        <r>  0.0000  0.0754  0.0716  0.0080  0.0000  0.0000  0.0000  0.0000  0.0000 </r>
        <r>  0.0000  0.0754  0.0716  0.0080  0.0000  0.0000  0.0000  0.0000  0.0000 </r>
       </set>
       <set comment="band 8">
        <r>  0.2042  0.0322  0.0322  0.0322  0.0000  0.0000  0.0000  0.0000  0.0000 </r>
        <r>  0.2042  0.0322  0.0322  0.0322  0.0000  0.0000  0.0000  0.0000  0.0000 </r>
       </set>
       <set comment="band 9">
        <r>  0.0000  0.0008  0.0001  0.0011  0.0000  0.0000  0.0000  0.0000  0.0000 </r>
        <r>  0.0000  0.0008  0.0001  0.0011  0.0000  0.0000  0.0000  0.0000  0.0000 </r>
       </set>
       <set comment="band 10">
        <r>  0.0770  0.0111  0.0111  0.0112  0.0000  0.0000  0.0000  0.0000  0.0000 </r>
        <r>  0.0765  0.0113  0.0111  0.0115  0.0000  0.0000  0.0000  0.0000  0.0000 </r>
       </set>
       <set comment="band 11">
        <r>  0.0165  0.0069  0.0101  0.0054  0.0000  0.0000  0.0000  0.0000  0.0000 </r>
        <r>  0.0168  0.0107  0.0074  0.0040  0.0000  0.0000  0.0000  0.0000  0.0000 </r>
       </set>
       <set comment="band 12">
        <r>  0.0022  0.0028  0.0253  0.0128  0.0000  0.0000  0.0000  0.0000  0.0000 </r>
        <r>  0.0003  0.0007  0.0220  0.0209  0.0000  0.0000  0.0000  0.0000  0.0000 </r>
       </set>
      </set>
      <set comment="kpoint 28">
       <set comment="band 1">
        <r>  0.2126  0.0006  0.0006  0.0006  0.0000  0.0000  0.0000  0.0000  0.0000 </r>
        <r>  0.2126  0.0006  0.0006  0.0006  0.0000  0.0000  0.0000  0.0000  0.0000 </r>
       </set>
       <set comment="band 2">
        <r>  0.0566  0.0544  0.0544  0.0544  0.0000  0.0000  0.0000  0.0000  0.0000 </r>
        <r>  0.0566  0.0544  0.0544  0.0544  0.0000  0.0000  0.0000  0.0000  0.0000 </r>
       </set>
       <set comment="band 3">
        <r>  0.0000  0.0739  0.1248  0.0150  0.0000  0.0000  0.0000  0.0000  0.0000 </r>
        <r>  0.0000  0.0739  0.1248  0.0150  0.0000  0.0000  0.0000  0.0000  0.0000 </r>
       </set>
       <set comment="band 4">
        <r>  0.0000  0.0686  0.0176  0.1274  0.0000  0.0000  0.0000  0.0000  0.0000 </r>
        <r>  0.0000  0.0686  0.0176  0.1274  0.0000  0.0000  0.0000  0.0000  0.0000 </r>
       </set>
       <set comment="band 5">
        <r>  0.0933  0.0325  0.0325  0.0325  0.0000  0.0000  0.0000  0.0000  0.0000 </r>
        <r>  0.0933  0.0325  0.0325  0.0325  0.0000  0.0000  0.0000  0.0000  0.0000 </r>
       </set>
       <set comment="band 6">
        <r>  0.0000  0.0033  0.0851  0.0664  0.0000  0.0000  0.0000  0.0000  0.0000 </r>
        <r>  0.0000  0.0033  0.0851  0.0664  0.0000  0.0000  0.0000  0.0000  0.0000 </r>
       </set>
       <set comment="band 7">
        <r>  0.0000  0.0999  0.0181  0.0368  0.0000  0.0000  0.0000  0.0000  0.0000 </r>
        <r>  0.0000  0.0999  0.0181  0.0368  0.0000  0.0000  0.0000  0.0000  0.0000 </r>
       </set>
       <set comment="band 8">
        <r>  0.2192  0.0291  0.0291  0.0291  0.0000  0.0000  0.0000  0.0000  0.0000 </r>
        <r>  0.2192  0.0291  0.0291  0.0291  0.0000  0.0000  0.0000  0.0000  0.0000 </r>
       </set>
       <set comment="band 9">
        <r>  0.0000  0.0001  0.0006  0.0010  0.0000  0.0000  0.0000  0.0000  0.0000 </r>
        <r>  0.0000  0.0001  0.0006  0.0010  0.0000  0.0000  0.0000  0.0000  0.0000 </r>
       </set>
       <set comment="band 10">
        <r>  0.0000  0.0010  0.0005  0.0001  0.0000  0.0000  0.0000  0.0000  0.0000 </r>
        <r>  0.0000  0.0010  0.0005  0.0001  0.0000  0.0000  0.0000  0.0000  0.0000 </r>
       </set>
       <set comment="band 11">
        <r>  0.0819  0.0094  0.0094  0.0094  0.0000  0.0000  0.0000  0.0000  0.0000 </r>
        <r>  0.0819  0.0094  0.0094  0.0094  0.0000  0.0000  0.0000  0.0000  0.0000 </r>
       </set>
       <set comment="band 12">
        <r>  0.0001  0.0032  0.0101  0.0229  0.0000  0.0000  0.0000  0.0000  0.0000 </r>
        <r>  0.0001  0.0035  0.0110  0.0216  0.0000  0.0000  0.0000  0.0000  0.0000 </r>
       </set>
      </set>
      <set comment="kpoint 29">
       <set comment="band 1">
        <r>  0.2128  0.0005  0.0005  0.0005  0.0000  0.0000  0.0000  0.0000  0.0000 </r>
        <r>  0.2128  0.0005  0.0005  0.0005  0.0000  0.0000  0.0000  0.0000  0.0000 </r>
       </set>
       <set comment="band 2">
        <r>  0.0499  0.0566  0.0566  0.0566  0.0000  0.0000  0.0000  0.0000  0.0000 </r>
        <r>  0.0499  0.0566  0.0566  0.0566  0.0000  0.0000  0.0000  0.0000  0.0000 </r>
       </set>
       <set comment="band 3">
        <r>  0.0000  0.0986  0.1122  0.0031  0.0000  0.0000  0.0000  0.0000  0.0000 </r>
        <r>  0.0000  0.0986  0.1122  0.0031  0.0000  0.0000  0.0000  0.0000  0.0000 </r>
       </set>
       <set comment="band 4">
        <r>  0.0000  0.0440  0.0304  0.1395  0.0000  0.0000  0.0000  0.0000  0.0000 </r>
        <r>  0.0000  0.0440  0.0304  0.1395  0.0000  0.0000  0.0000  0.0000  0.0000 </r>
       </set>
       <set comment="band 5">
        <r>  0.0806  0.0353  0.0353  0.0353  0.0000  0.0000  0.0000  0.0000  0.0000 </r>
        <r>  0.0806  0.0353  0.0353  0.0353  0.0000  0.0000  0.0000  0.0000  0.0000 </r>
       </set>
       <set comment="band 6">
        <r>  0.0000  0.0141  0.0740  0.0664  0.0000  0.0000  0.0000  0.0000  0.0000 </r>
        <r>  0.0000  0.0141  0.0740  0.0664  0.0000  0.0000  0.0000  0.0000  0.0000 </r>
       </set>
       <set comment="band 7">
        <r>  0.0000  0.0889  0.0290  0.0366  0.0000  0.0000  0.0000  0.0000  0.0000 </r>
        <r>  0.0000  0.0889  0.0290  0.0366  0.0000  0.0000  0.0000  0.0000  0.0000 </r>
       </set>
       <set comment="band 8">
        <r>  0.2367  0.0254  0.0254  0.0254  0.0000  0.0000  0.0000  0.0000  0.0000 </r>
        <r>  0.2367  0.0254  0.0254  0.0254  0.0000  0.0000  0.0000  0.0000  0.0000 </r>
       </set>
       <set comment="band 9">
        <r>  0.0000  0.0004  0.0005  0.0005  0.0000  0.0000  0.0000  0.0000  0.0000 </r>
        <r>  0.0000  0.0004  0.0005  0.0005  0.0000  0.0000  0.0000  0.0000  0.0000 </r>
       </set>
       <set comment="band 10">
        <r>  0.0000  0.0005  0.0005  0.0004  0.0000  0.0000  0.0000  0.0000  0.0000 </r>
        <r>  0.0000  0.0005  0.0005  0.0004  0.0000  0.0000  0.0000  0.0000  0.0000 </r>
       </set>
       <set comment="band 11">
        <r>  0.0863  0.0075  0.0075  0.0075  0.0000  0.0000  0.0000  0.0000  0.0000 </r>
        <r>  0.0863  0.0075  0.0075  0.0075  0.0000  0.0000  0.0000  0.0000  0.0000 </r>
       </set>
       <set comment="band 12">
        <r>  0.0007  0.0094  0.0153  0.0110  0.0000  0.0000  0.0000  0.0000  0.0000 </r>
        <r>  0.0002  0.0279  0.0082  0.0100  0.0000  0.0000  0.0000  0.0000  0.0000 </r>
       </set>
      </set>
      <set comment="kpoint 30">
       <set comment="band 1">
        <r>  0.2130  0.0004  0.0004  0.0004  0.0000  0.0000  0.0000  0.0000  0.0000 </r>
        <r>  0.2130  0.0004  0.0004  0.0004  0.0000  0.0000  0.0000  0.0000  0.0000 </r>
       </set>
       <set comment="band 2">
        <r>  0.0425  0.0590  0.0590  0.0590  0.0000  0.0000  0.0000  0.0000  0.0000 </r>
        <r>  0.0425  0.0590  0.0590  0.0590  0.0000  0.0000  0.0000  0.0000  0.0000 </r>
       </set>
       <set comment="band 3">
        <r>  0.0000  0.0934  0.0652  0.0557  0.0000  0.0000  0.0000  0.0000  0.0000 </r>
        <r>  0.0000  0.0934  0.0652  0.0557  0.0000  0.0000  0.0000  0.0000  0.0000 </r>
       </set>
       <set comment="band 4">
        <r>  0.0000  0.0495  0.0776  0.0872  0.0000  0.0000  0.0000  0.0000  0.0000 </r>
        <r>  0.0000  0.0495  0.0776  0.0872  0.0000  0.0000  0.0000  0.0000  0.0000 </r>
       </set>
       <set comment="band 5">
        <r>  0.0656  0.0384  0.0384  0.0384  0.0000  0.0000  0.0000  0.0000  0.0000 </r>
        <r>  0.0656  0.0384  0.0384  0.0384  0.0000  0.0000  0.0000  0.0000  0.0000 </r>
       </set>
       <set comment="band 6">
        <r>  0.0000  0.0131  0.0426  0.0982  0.0000  0.0000  0.0000  0.0000  0.0000 </r>
        <r>  0.0000  0.0131  0.0426  0.0982  0.0000  0.0000  0.0000  0.0000  0.0000 </r>
       </set>
       <set comment="band 7">
        <r>  0.0000  0.0895  0.0600  0.0044  0.0000  0.0000  0.0000  0.0000  0.0000 </r>
        <r>  0.0000  0.0895  0.0600  0.0044  0.0000  0.0000  0.0000  0.0000  0.0000 </r>
       </set>
       <set comment="band 8">
        <r>  0.2573  0.0211  0.0211  0.0211  0.0000  0.0000  0.0000  0.0000  0.0000 </r>
        <r>  0.2573  0.0211  0.0211  0.0211  0.0000  0.0000  0.0000  0.0000  0.0000 </r>
       </set>
       <set comment="band 9">
        <r>  0.0000  0.0001  0.0004  0.0007  0.0000  0.0000  0.0000  0.0000  0.0000 </r>
        <r>  0.0000  0.0001  0.0004  0.0007  0.0000  0.0000  0.0000  0.0000  0.0000 </r>
       </set>
       <set comment="band 10">
        <r>  0.0901  0.0057  0.0056  0.0057  0.0000  0.0000  0.0000  0.0000  0.0000 </r>
        <r>  0.0901  0.0056  0.0057  0.0057  0.0000  0.0000  0.0000  0.0000  0.0000 </r>
       </set>
       <set comment="band 11">
        <r>  0.0074  0.0032  0.0063  0.0213  0.0000  0.0000  0.0000  0.0000  0.0000 </r>
        <r>  0.0074  0.0045  0.0051  0.0208  0.0000  0.0000  0.0000  0.0000  0.0000 </r>
       </set>
       <set comment="band 12">
        <r>  0.0319  0.0023  0.0033  0.0029  0.0000  0.0000  0.0000  0.0000  0.0000 </r>
        <r>  0.0320  0.0026  0.0026  0.0034  0.0000  0.0000  0.0000  0.0000  0.0000 </r>
       </set>
      </set>
      <set comment="kpoint 31">
       <set comment="band 1">
        <r>  0.2131  0.0002  0.0002  0.0002  0.0000  0.0000  0.0000  0.0000  0.0000 </r>
        <r>  0.2131  0.0002  0.0002  0.0002  0.0000  0.0000  0.0000  0.0000  0.0000 </r>
       </set>
       <set comment="band 2">
        <r>  0.0343  0.0616  0.0616  0.0616  0.0000  0.0000  0.0000  0.0000  0.0000 </r>
        <r>  0.0343  0.0616  0.0616  0.0616  0.0000  0.0000  0.0000  0.0000  0.0000 </r>
       </set>
       <set comment="band 3">
        <r>  0.0000  0.1086  0.0772  0.0290  0.0000  0.0000  0.0000  0.0000  0.0000 </r>
        <r>  0.0000  0.1086  0.0772  0.0290  0.0000  0.0000  0.0000  0.0000  0.0000 </r>
       </set>
       <set comment="band 4">
        <r>  0.0000  0.0346  0.0660  0.1142  0.0000  0.0000  0.0000  0.0000  0.0000 </r>
        <r>  0.0000  0.0346  0.0660  0.1142  0.0000  0.0000  0.0000  0.0000  0.0000 </r>
       </set>
       <set comment="band 5">
        <r>  0.0484  0.0417  0.0417  0.0417  0.0000  0.0000  0.0000  0.0000  0.0000 </r>
        <r>  0.0484  0.0417  0.0417  0.0417  0.0000  0.0000  0.0000  0.0000  0.0000 </r>
       </set>
       <set comment="band 6">
        <r>  0.0000  0.0505  0.0330  0.0698  0.0000  0.0000  0.0000  0.0000  0.0000 </r>
        <r>  0.0000  0.0505  0.0330  0.0698  0.0000  0.0000  0.0000  0.0000  0.0000 </r>
       </set>
       <set comment="band 7">
        <r>  0.0000  0.0517  0.0692  0.0324  0.0000  0.0000  0.0000  0.0000  0.0000 </r>
        <r>  0.0000  0.0517  0.0692  0.0324  0.0000  0.0000  0.0000  0.0000  0.0000 </r>
       </set>
       <set comment="band 8">
        <r>  0.2810  0.0163  0.0163  0.0163  0.0000  0.0000  0.0000  0.0000  0.0000 </r>
        <r>  0.2810  0.0163  0.0163  0.0163  0.0000  0.0000  0.0000  0.0000  0.0000 </r>
       </set>
       <set comment="band 9">
        <r>  0.0000  0.0003  0.0005  0.0002  0.0000  0.0000  0.0000  0.0000  0.0000 </r>
        <r>  0.0000  0.0003  0.0005  0.0002  0.0000  0.0000  0.0000  0.0000  0.0000 </r>
       </set>
       <set comment="band 10">
        <r>  0.0935  0.0040  0.0040  0.0040  0.0000  0.0000  0.0000  0.0000  0.0000 </r>
        <r>  0.0934  0.0040  0.0041  0.0041  0.0000  0.0000  0.0000  0.0000  0.0000 </r>
       </set>
       <set comment="band 11">
        <r>  0.0012  0.0093  0.0135  0.0139  0.0000  0.0000  0.0000  0.0000  0.0000 </r>
        <r>  0.0012  0.0098  0.0113  0.0159  0.0000  0.0000  0.0000  0.0000  0.0000 </r>
       </set>
       <set comment="band 12">
        <r>  0.0007  0.0019  0.0220  0.0114  0.0000  0.0000  0.0000  0.0000  0.0000 </r>
        <r>  0.0003  0.0055  0.0083  0.0161  0.0000  0.0000  0.0000  0.0000  0.0000 </r>
       </set>
      </set>
      <set comment="kpoint 32">
       <set comment="band 1">
        <r>  0.2132  0.0002  0.0002  0.0002  0.0000  0.0000  0.0000  0.0000  0.0000 </r>
        <r>  0.2132  0.0002  0.0002  0.0002  0.0000  0.0000  0.0000  0.0000  0.0000 </r>
       </set>
       <set comment="band 2">
        <r>  0.0255  0.0644  0.0644  0.0644  0.0000  0.0000  0.0000  0.0000  0.0000 </r>
        <r>  0.0255  0.0644  0.0644  0.0644  0.0000  0.0000  0.0000  0.0000  0.0000 </r>
       </set>
       <set comment="band 3">
        <r>  0.0000  0.0230  0.0507  0.1415  0.0000  0.0000  0.0000  0.0000  0.0000 </r>
        <r>  0.0000  0.0230  0.0507  0.1415  0.0000  0.0000  0.0000  0.0000  0.0000 </r>
       </set>
       <set comment="band 4">
        <r>  0.0000  0.1205  0.0928  0.0020  0.0000  0.0000  0.0000  0.0000  0.0000 </r>
        <r>  0.0000  0.1205  0.0928  0.0020  0.0000  0.0000  0.0000  0.0000  0.0000 </r>
       </set>
       <set comment="band 5">
        <r>  0.0302  0.0452  0.0452  0.0452  0.0000  0.0000  0.0000  0.0000  0.0000 </r>
        <r>  0.0302  0.0452  0.0452  0.0452  0.0000  0.0000  0.0000  0.0000  0.0000 </r>
       </set>
       <set comment="band 6">
        <r>  0.0000  0.0223  0.0480  0.0825  0.0000  0.0000  0.0000  0.0000  0.0000 </r>
        <r>  0.0000  0.0223  0.0480  0.0825  0.0000  0.0000  0.0000  0.0000  0.0000 </r>
       </set>
       <set comment="band 7">
        <r>  0.0000  0.0795  0.0539  0.0194  0.0000  0.0000  0.0000  0.0000  0.0000 </r>
        <r>  0.0000  0.0795  0.0539  0.0194  0.0000  0.0000  0.0000  0.0000  0.0000 </r>
       </set>
       <set comment="band 8">
        <r>  0.3064  0.0111  0.0111  0.0111  0.0000  0.0000  0.0000  0.0000  0.0000 </r>
        <r>  0.3064  0.0111  0.0111  0.0111  0.0000  0.0000  0.0000  0.0000  0.0000 </r>
       </set>
       <set comment="band 9">
        <r>  0.0000  0.0000  0.0003  0.0004  0.0000  0.0000  0.0000  0.0000  0.0000 </r>
        <r>  0.0000  0.0000  0.0003  0.0004  0.0000  0.0000  0.0000  0.0000  0.0000 </r>
       </set>
       <set comment="band 10">
        <r>  0.0957  0.0027  0.0027  0.0026  0.0000  0.0000  0.0000  0.0000  0.0000 </r>
        <r>  0.0958  0.0027  0.0025  0.0026  0.0000  0.0000  0.0000  0.0000  0.0000 </r>
       </set>
       <set comment="band 11">
        <r>  0.0001  0.0010  0.0155  0.0220  0.0000  0.0000  0.0000  0.0000  0.0000 </r>
        <r>  0.0001  0.0009  0.0146  0.0230  0.0000  0.0000  0.0000  0.0000  0.0000 </r>
       </set>
       <set comment="band 12">
        <r>  0.0003  0.0085  0.0114  0.0090  0.0000  0.0000  0.0000  0.0000  0.0000 </r>
        <r>  0.0002  0.0025  0.0021  0.0313  0.0000  0.0000  0.0000  0.0000  0.0000 </r>
       </set>
      </set>
      <set comment="kpoint 33">
       <set comment="band 1">
        <r>  0.2133  0.0001  0.0001  0.0001  0.0000  0.0000  0.0000  0.0000  0.0000 </r>
        <r>  0.2133  0.0001  0.0001  0.0001  0.0000  0.0000  0.0000  0.0000  0.0000 </r>
       </set>
       <set comment="band 2">
        <r>  0.0165  0.0671  0.0671  0.0671  0.0000  0.0000  0.0000  0.0000  0.0000 </r>
        <r>  0.0165  0.0671  0.0671  0.0671  0.0000  0.0000  0.0000  0.0000  0.0000 </r>
       </set>
       <set comment="band 3">
        <r>  0.0000  0.1194  0.0943  0.0018  0.0000  0.0000  0.0000  0.0000  0.0000 </r>
        <r>  0.0000  0.1194  0.0943  0.0018  0.0000  0.0000  0.0000  0.0000  0.0000 </r>
       </set>
       <set comment="band 4">
        <r>  0.0000  0.0243  0.0494  0.1419  0.0000  0.0000  0.0000  0.0000  0.0000 </r>
        <r>  0.0000  0.0243  0.0494  0.1419  0.0000  0.0000  0.0000  0.0000  0.0000 </r>
       </set>
       <set comment="band 5">
        <r>  0.0142  0.0481  0.0481  0.0481  0.0000  0.0000  0.0000  0.0000  0.0000 </r>
        <r>  0.0142  0.0481  0.0481  0.0481  0.0000  0.0000  0.0000  0.0000  0.0000 </r>
       </set>
       <set comment="band 6">
        <r>  0.0000  0.0469  0.0187  0.0866  0.0000  0.0000  0.0000  0.0000  0.0000 </r>
        <r>  0.0000  0.0469  0.0187  0.0866  0.0000  0.0000  0.0000  0.0000  0.0000 </r>
       </set>
       <set comment="band 7">
        <r>  0.0000  0.0546  0.0828  0.0148  0.0000  0.0000  0.0000  0.0000  0.0000 </r>
        <r>  0.0000  0.0546  0.0828  0.0148  0.0000  0.0000  0.0000  0.0000  0.0000 </r>
       </set>
       <set comment="band 8">
        <r>  0.3300  0.0062  0.0062  0.0062  0.0000  0.0000  0.0000  0.0000  0.0000 </r>
        <r>  0.3300  0.0062  0.0062  0.0062  0.0000  0.0000  0.0000  0.0000  0.0000 </r>
       </set>
       <set comment="band 9">
        <r>  0.0000  0.0001  0.0002  0.0002  0.0000  0.0000  0.0000  0.0000  0.0000 </r>
        <r>  0.0000  0.0001  0.0002  0.0002  0.0000  0.0000  0.0000  0.0000  0.0000 </r>
       </set>
       <set comment="band 10">
        <r>  0.0000  0.0002  0.0001  0.0001  0.0000  0.0000  0.0000  0.0000  0.0000 </r>
        <r>  0.0000  0.0002  0.0001  0.0001  0.0000  0.0000  0.0000  0.0000  0.0000 </r>
       </set>
       <set comment="band 11">
        <r>  0.0986  0.0015  0.0015  0.0015  0.0000  0.0000  0.0000  0.0000  0.0000 </r>
        <r>  0.0986  0.0015  0.0015  0.0015  0.0000  0.0000  0.0000  0.0000  0.0000 </r>
       </set>
       <set comment="band 12">
        <r>  0.0004  0.0007  0.0018  0.0344  0.0000  0.0000  0.0000  0.0000  0.0000 </r>
        <r>  0.0001  0.0119  0.0102  0.0220  0.0000  0.0000  0.0000  0.0000  0.0000 </r>
       </set>
      </set>
      <set comment="kpoint 34">
       <set comment="band 1">
        <r>  0.2134  0.0000  0.0000  0.0000  0.0000  0.0000  0.0000  0.0000  0.0000 </r>
        <r>  0.2134  0.0000  0.0000  0.0000  0.0000  0.0000  0.0000  0.0000  0.0000 </r>
       </set>
       <set comment="band 2">
        <r>  0.0082  0.0696  0.0696  0.0696  0.0000  0.0000  0.0000  0.0000  0.0000 </r>
        <r>  0.0082  0.0696  0.0696  0.0696  0.0000  0.0000  0.0000  0.0000  0.0000 </r>
       </set>
       <set comment="band 3">
        <r>  0.0000  0.1117  0.0776  0.0266  0.0000  0.0000  0.0000  0.0000  0.0000 </r>
        <r>  0.0000  0.1117  0.0776  0.0266  0.0000  0.0000  0.0000  0.0000  0.0000 </r>
       </set>
       <set comment="band 4">
        <r>  0.0000  0.0322  0.0664  0.1173  0.0000  0.0000  0.0000  0.0000  0.0000 </r>
        <r>  0.0000  0.0322  0.0664  0.1173  0.0000  0.0000  0.0000  0.0000  0.0000 </r>
       </set>
       <set comment="band 5">
        <r>  0.0000  0.0773  0.0357  0.0388  0.0000  0.0000  0.0000  0.0000  0.0000 </r>
        <r>  0.0000  0.0773  0.0357  0.0388  0.0000  0.0000  0.0000  0.0000  0.0000 </r>
       </set>
       <set comment="band 6">
        <r>  0.0000  0.0239  0.0655  0.0624  0.0000  0.0000  0.0000  0.0000  0.0000 </r>
        <r>  0.0000  0.0239  0.0655  0.0624  0.0000  0.0000  0.0000  0.0000  0.0000 </r>
       </set>
       <set comment="band 7">
        <r>  0.0042  0.0498  0.0498  0.0498  0.0000  0.0000  0.0000  0.0000  0.0000 </r>
        <r>  0.0042  0.0498  0.0498  0.0498  0.0000  0.0000  0.0000  0.0000  0.0000 </r>
       </set>
       <set comment="band 8">
        <r>  0.3472  0.0026  0.0026  0.0026  0.0000  0.0000  0.0000  0.0000  0.0000 </r>
        <r>  0.3472  0.0026  0.0026  0.0026  0.0000  0.0000  0.0000  0.0000  0.0000 </r>
       </set>
       <set comment="band 9">
        <r>  0.0000  0.0000  0.0001  0.0001  0.0000  0.0000  0.0000  0.0000  0.0000 </r>
        <r>  0.0000  0.0000  0.0001  0.0001  0.0000  0.0000  0.0000  0.0000  0.0000 </r>
       </set>
       <set comment="band 10">
        <r>  0.0999  0.0007  0.0007  0.0006  0.0000  0.0000  0.0000  0.0000  0.0000 </r>
        <r>  0.0999  0.0006  0.0007  0.0007  0.0000  0.0000  0.0000  0.0000  0.0000 </r>
       </set>
       <set comment="band 11">
        <r>  0.0004  0.0030  0.0299  0.0064  0.0000  0.0000  0.0000  0.0000  0.0000 </r>
        <r>  0.0004  0.0032  0.0307  0.0054  0.0000  0.0000  0.0000  0.0000  0.0000 </r>
       </set>
       <set comment="band 12">
        <r>  0.0001  0.0144  0.0042  0.0277  0.0000  0.0000  0.0000  0.0000  0.0000 </r>
        <r>  0.0001  0.0165  0.0096  0.0072  0.0000  0.0000  0.0000  0.0000  0.0000 </r>
       </set>
      </set>
      <set comment="kpoint 35">
       <set comment="band 1">
        <r>  0.2134  0.0000  0.0000  0.0000  0.0000  0.0000  0.0000  0.0000  0.0000 </r>
        <r>  0.2134  0.0000  0.0000  0.0000  0.0000  0.0000  0.0000  0.0000  0.0000 </r>
       </set>
       <set comment="band 2">
        <r>  0.0022  0.0714  0.0714  0.0714  0.0000  0.0000  0.0000  0.0000  0.0000 </r>
        <r>  0.0022  0.0714  0.0714  0.0714  0.0000  0.0000  0.0000  0.0000  0.0000 </r>
       </set>
       <set comment="band 3">
        <r>  0.0000  0.0610  0.1390  0.0161  0.0000  0.0000  0.0000  0.0000  0.0000 </r>
        <r>  0.0000  0.0610  0.1390  0.0161  0.0000  0.0000  0.0000  0.0000  0.0000 </r>
       </set>
       <set comment="band 4">
        <r>  0.0000  0.0831  0.0051  0.1279  0.0000  0.0000  0.0000  0.0000  0.0000 </r>
        <r>  0.0000  0.0831  0.0051  0.1279  0.0000  0.0000  0.0000  0.0000  0.0000 </r>
       </set>
       <set comment="band 5">
        <r>  0.0000  0.0061  0.0518  0.0935  0.0000  0.0000  0.0000  0.0000  0.0000 </r>
        <r>  0.0000  0.0061  0.0518  0.0936  0.0000  0.0000  0.0000  0.0000  0.0000 </r>
       </set>
       <set comment="band 6">
        <r>  0.0000  0.0948  0.0492  0.0074  0.0000  0.0000  0.0000  0.0000  0.0000 </r>
        <r>  0.0000  0.0948  0.0492  0.0075  0.0000  0.0000  0.0000  0.0000  0.0000 </r>
       </set>
       <set comment="band 7">
        <r>  0.0005  0.0504  0.0504  0.0504  0.0000  0.0000  0.0000  0.0000  0.0000 </r>
        <r>  0.0005  0.0504  0.0504  0.0504  0.0000  0.0000  0.0000  0.0000  0.0000 </r>
       </set>
       <set comment="band 8">
        <r>  0.3562  0.0006  0.0006  0.0006  0.0000  0.0000  0.0000  0.0000  0.0000 </r>
        <r>  0.3562  0.0006  0.0006  0.0006  0.0000  0.0000  0.0000  0.0000  0.0000 </r>
       </set>
       <set comment="band 9">
        <r>  0.0000  0.0000  0.0000  0.0000  0.0000  0.0000  0.0000  0.0000  0.0000 </r>
        <r>  0.0000  0.0000  0.0000  0.0000  0.0000  0.0000  0.0000  0.0000  0.0000 </r>
       </set>
       <set comment="band 10">
        <r>  0.0000  0.0000  0.0000  0.0000  0.0000  0.0000  0.0000  0.0000  0.0000 </r>
        <r>  0.0000  0.0000  0.0000  0.0000  0.0000  0.0000  0.0000  0.0000  0.0000 </r>
       </set>
       <set comment="band 11">
        <r>  0.1013  0.0002  0.0002  0.0002  0.0000  0.0000  0.0000  0.0000  0.0000 </r>
        <r>  0.1013  0.0002  0.0002  0.0002  0.0000  0.0000  0.0000  0.0000  0.0000 </r>
       </set>
       <set comment="band 12">
        <r>  0.0000  0.0169  0.0169  0.0061  0.0000  0.0000  0.0000  0.0000  0.0000 </r>
        <r>  0.0000  0.0168  0.0170  0.0061  0.0000  0.0000  0.0000  0.0000  0.0000 </r>
       </set>
      </set>
      <set comment="kpoint 36">
       <set comment="band 1">
        <r>  0.2135  0.0000  0.0000  0.0000  0.0000  0.0000  0.0000  0.0000  0.0000 </r>
        <r>  0.2135  0.0000  0.0000  0.0000  0.0000  0.0000  0.0000  0.0000  0.0000 </r>
       </set>
       <set comment="band 2">
        <r>  0.0000  0.0590  0.0764  0.0807  0.0000  0.0000  0.0000  0.0000  0.0000 </r>
        <r>  0.0000  0.0590  0.0764  0.0807  0.0000  0.0000  0.0000  0.0000  0.0000 </r>
       </set>
       <set comment="band 3">
        <r>  0.0000  0.1096  0.1000  0.0066  0.0000  0.0000  0.0000  0.0000  0.0000 </r>
        <r>  0.0000  0.1096  0.1000  0.0066  0.0000  0.0000  0.0000  0.0000  0.0000 </r>
       </set>
       <set comment="band 4">
        <r>  0.0000  0.0476  0.0397  0.1288  0.0000  0.0000  0.0000  0.0000  0.0000 </r>
        <r>  0.0000  0.0476  0.0397  0.1288  0.0000  0.0000  0.0000  0.0000  0.0000 </r>
       </set>
       <set comment="band 5">
        <r>  0.0000  0.0659  0.0550  0.0304  0.0000  0.0000  0.0000  0.0000  0.0000 </r>
        <r>  0.0000  0.0659  0.0550  0.0304  0.0000  0.0000  0.0000  0.0000  0.0000 </r>
       </set>
       <set comment="band 6">
        <r>  0.0000  0.0481  0.0080  0.0953  0.0000  0.0000  0.0000  0.0000  0.0000 </r>
        <r>  0.0000  0.0481  0.0080  0.0953  0.0000  0.0000  0.0000  0.0000  0.0000 </r>
       </set>
       <set comment="band 7">
        <r>  0.0000  0.0373  0.0884  0.0257  0.0000  0.0000  0.0000  0.0000  0.0000 </r>
        <r>  0.0000  0.0373  0.0884  0.0257  0.0000  0.0000  0.0000  0.0000  0.0000 </r>
       </set>
       <set comment="band 8">
        <r>  0.3587  0.0000  0.0000  0.0000  0.0000  0.0000  0.0000  0.0000  0.0000 </r>
        <r>  0.3587  0.0000  0.0000  0.0000  0.0000  0.0000  0.0000  0.0000  0.0000 </r>
       </set>
       <set comment="band 9">
        <r>  0.0000  0.0000  0.0000  0.0000  0.0000  0.0000  0.0000  0.0000  0.0000 </r>
        <r>  0.0000  0.0000  0.0000  0.0000  0.0000  0.0000  0.0000  0.0000  0.0000 </r>
       </set>
       <set comment="band 10">
        <r>  0.1015  0.0000  0.0000  0.0000  0.0000  0.0000  0.0000  0.0000  0.0000 </r>
        <r>  0.1015  0.0000  0.0000  0.0000  0.0000  0.0000  0.0000  0.0000  0.0000 </r>
       </set>
       <set comment="band 11">
        <r>  0.0000  0.0279  0.0112  0.0010  0.0000  0.0000  0.0000  0.0000  0.0000 </r>
        <r>  0.0000  0.0280  0.0112  0.0010  0.0000  0.0000  0.0000  0.0000  0.0000 </r>
       </set>
       <set comment="band 12">
        <r>  0.0001  0.0112  0.0033  0.0016  0.0000  0.0000  0.0000  0.0000  0.0000 </r>
        <r>  0.0001  0.0006  0.0024  0.0080  0.0000  0.0000  0.0000  0.0000  0.0000 </r>
       </set>
      </set>
      <set comment="kpoint 37">
       <set comment="band 1">
        <r>  0.2135  0.0000  0.0000  0.0000  0.0000  0.0000  0.0000  0.0000  0.0000 </r>
        <r>  0.2135  0.0000  0.0000  0.0000  0.0000  0.0000  0.0000  0.0000  0.0000 </r>
       </set>
       <set comment="band 2">
        <r>  0.0000  0.0887  0.0945  0.0330  0.0000  0.0000  0.0000  0.0000  0.0000 </r>
        <r>  0.0000  0.0887  0.0945  0.0330  0.0000  0.0000  0.0000  0.0000  0.0000 </r>
       </set>
       <set comment="band 3">
        <r>  0.0000  0.1142  0.0593  0.0426  0.0000  0.0000  0.0000  0.0000  0.0000 </r>
        <r>  0.0000  0.1142  0.0593  0.0426  0.0000  0.0000  0.0000  0.0000  0.0000 </r>
       </set>
       <set comment="band 4">
        <r>  0.0000  0.0132  0.0624  0.1406  0.0000  0.0000  0.0000  0.0000  0.0000 </r>
        <r>  0.0000  0.0132  0.0624  0.1406  0.0000  0.0000  0.0000  0.0000  0.0000 </r>
       </set>
       <set comment="band 5">
        <r>  0.0000  0.0575  0.0422  0.0517  0.0000  0.0000  0.0000  0.0000  0.0000 </r>
        <r>  0.0000  0.0575  0.0422  0.0517  0.0000  0.0000  0.0000  0.0000  0.0000 </r>
       </set>
       <set comment="band 6">
        <r>  0.0000  0.0856  0.0215  0.0443  0.0000  0.0000  0.0000  0.0000  0.0000 </r>
        <r>  0.0000  0.0856  0.0215  0.0443  0.0000  0.0000  0.0000  0.0000  0.0000 </r>
       </set>
       <set comment="band 7">
        <r>  0.0000  0.0083  0.0877  0.0554  0.0000  0.0000  0.0000  0.0000  0.0000 </r>
        <r>  0.0000  0.0083  0.0877  0.0554  0.0000  0.0000  0.0000  0.0000  0.0000 </r>
       </set>
       <set comment="band 8">
        <r>  0.3587  0.0000  0.0000  0.0000  0.0000  0.0000  0.0000  0.0000  0.0000 </r>
        <r>  0.3587  0.0000  0.0000  0.0000  0.0000  0.0000  0.0000  0.0000  0.0000 </r>
       </set>
       <set comment="band 9">
        <r>  0.0000  0.0000  0.0000  0.0000  0.0000  0.0000  0.0000  0.0000  0.0000 </r>
        <r>  0.0000  0.0000  0.0000  0.0000  0.0000  0.0000  0.0000  0.0000  0.0000 </r>
       </set>
       <set comment="band 10">
        <r>  0.1015  0.0000  0.0000  0.0000  0.0000  0.0000  0.0000  0.0000  0.0000 </r>
        <r>  0.1015  0.0000  0.0000  0.0000  0.0000  0.0000  0.0000  0.0000  0.0000 </r>
       </set>
       <set comment="band 11">
        <r>  0.0000  0.0170  0.0010  0.0220  0.0000  0.0000  0.0000  0.0000  0.0000 </r>
        <r>  0.0000  0.0170  0.0010  0.0221  0.0000  0.0000  0.0000  0.0000  0.0000 </r>
       </set>
       <set comment="band 12">
        <r>  0.0001  0.0129  0.0230  0.0181  0.0000  0.0000  0.0000  0.0000  0.0000 </r>
        <r>  0.0001  0.0002  0.0370  0.0095  0.0000  0.0000  0.0000  0.0000  0.0000 </r>
       </set>
      </set>
      <set comment="kpoint 38">
       <set comment="band 1">
        <r>  0.2134  0.0000  0.0000  0.0000  0.0000  0.0000  0.0000  0.0000  0.0000 </r>
        <r>  0.2134  0.0000  0.0000  0.0000  0.0000  0.0000  0.0000  0.0000  0.0000 </r>
       </set>
       <set comment="band 2">
        <r>  0.0030  0.2141  0.0000  0.0000  0.0000  0.0000  0.0000  0.0000  0.0000 </r>
        <r>  0.0030  0.2141  0.0000  0.0000  0.0000  0.0000  0.0000  0.0000  0.0000 </r>
       </set>
       <set comment="band 3">
        <r>  0.0000  0.0000  0.0928  0.1230  0.0000  0.0000  0.0000  0.0000  0.0000 </r>
        <r>  0.0000  0.0000  0.1222  0.0936  0.0000  0.0000  0.0000  0.0000  0.0000 </r>
       </set>
       <set comment="band 4">
        <r>  0.0000  0.0000  0.1230  0.0928  0.0000  0.0000  0.0000  0.0000  0.0000 </r>
        <r>  0.0000  0.0000  0.0936  0.1222  0.0000  0.0000  0.0000  0.0000  0.0000 </r>
       </set>
       <set comment="band 5">
        <r>  0.0004  0.1508  0.0000  0.0000  0.0000  0.0000  0.0000  0.0000  0.0000 </r>
        <r>  0.0004  0.1508  0.0000  0.0000  0.0000  0.0000  0.0000  0.0000  0.0000 </r>
       </set>
       <set comment="band 6">
        <r>  0.0000  0.0000  0.0769  0.0748  0.0000  0.0000  0.0000  0.0000  0.0000 </r>
        <r>  0.0000  0.0000  0.0755  0.0763  0.0000  0.0000  0.0000  0.0000  0.0000 </r>
       </set>
       <set comment="band 7">
        <r>  0.0000  0.0000  0.0748  0.0769  0.0000  0.0000  0.0000  0.0000  0.0000 </r>
        <r>  0.0000  0.0000  0.0763  0.0755  0.0000  0.0000  0.0000  0.0000  0.0000 </r>
       </set>
       <set comment="band 8">
        <r>  0.3556  0.0023  0.0000  0.0000  0.0000  0.0000  0.0000  0.0000  0.0000 </r>
        <r>  0.3556  0.0023  0.0000  0.0000  0.0000  0.0000  0.0000  0.0000  0.0000 </r>
       </set>
       <set comment="band 9">
        <r>  0.0000  0.0001  0.0000  0.0000  0.0000  0.0000  0.0000  0.0000  0.0000 </r>
        <r>  0.0000  0.0001  0.0000  0.0000  0.0000  0.0000  0.0000  0.0000  0.0000 </r>
       </set>
       <set comment="band 10">
        <r>  0.1010  0.0007  0.0000  0.0000  0.0000  0.0000  0.0000  0.0000  0.0000 </r>
        <r>  0.1011  0.0007  0.0000  0.0000  0.0000  0.0000  0.0000  0.0000  0.0000 </r>
       </set>
       <set comment="band 11">
        <r>  0.0000  0.0028  0.0350  0.0021  0.0000  0.0000  0.0000  0.0000  0.0000 </r>
        <r>  0.0000  0.0029  0.0355  0.0016  0.0000  0.0000  0.0000  0.0000  0.0000 </r>
       </set>
       <set comment="band 12">
        <r>  0.0001  0.0039  0.0250  0.0117  0.0000  0.0000  0.0000  0.0000  0.0000 </r>
        <r>  0.0001  0.0073  0.0216  0.0110  0.0000  0.0000  0.0000  0.0000  0.0000 </r>
       </set>
      </set>
      <set comment="kpoint 39">
       <set comment="band 1">
        <r>  0.2134  0.0002  0.0000  0.0000  0.0000  0.0000  0.0000  0.0000  0.0000 </r>
        <r>  0.2134  0.0002  0.0000  0.0000  0.0000  0.0000  0.0000  0.0000  0.0000 </r>
       </set>
       <set comment="band 2">
        <r>  0.0113  0.2083  0.0000  0.0000  0.0000  0.0000  0.0000  0.0000  0.0000 </r>
        <r>  0.0113  0.2083  0.0000  0.0000  0.0000  0.0000  0.0000  0.0000  0.0000 </r>
       </set>
       <set comment="band 3">
        <r>  0.0000  0.0000  0.1337  0.0809  0.0000  0.0000  0.0000  0.0000  0.0000 </r>
        <r>  0.0000  0.0000  0.1621  0.0525  0.0000  0.0000  0.0000  0.0000  0.0000 </r>
       </set>
       <set comment="band 4">
        <r>  0.0000  0.0000  0.0809  0.1337  0.0000  0.0000  0.0000  0.0000  0.0000 </r>
        <r>  0.0000  0.0000  0.0525  0.1621  0.0000  0.0000  0.0000  0.0000  0.0000 </r>
       </set>
       <set comment="band 5">
        <r>  0.0015  0.1489  0.0000  0.0000  0.0000  0.0000  0.0000  0.0000  0.0000 </r>
        <r>  0.0015  0.1489  0.0000  0.0000  0.0000  0.0000  0.0000  0.0000  0.0000 </r>
       </set>
       <set comment="band 6">
        <r>  0.0000  0.0000  0.0609  0.0920  0.0000  0.0000  0.0000  0.0000  0.0000 </r>
        <r>  0.0000  0.0000  0.0862  0.0667  0.0000  0.0000  0.0000  0.0000  0.0000 </r>
       </set>
       <set comment="band 7">
        <r>  0.0000  0.0000  0.0920  0.0609  0.0000  0.0000  0.0000  0.0000  0.0000 </r>
        <r>  0.0000  0.0000  0.0667  0.0862  0.0000  0.0000  0.0000  0.0000  0.0000 </r>
       </set>
       <set comment="band 8">
        <r>  0.3470  0.0086  0.0000  0.0000  0.0000  0.0000  0.0000  0.0000  0.0000 </r>
        <r>  0.3470  0.0086  0.0000  0.0000  0.0000  0.0000  0.0000  0.0000  0.0000 </r>
       </set>
       <set comment="band 9">
        <r>  0.0001  0.0005  0.0000  0.0000  0.0000  0.0000  0.0000  0.0000  0.0000 </r>
        <r>  0.0001  0.0005  0.0000  0.0000  0.0000  0.0000  0.0000  0.0000  0.0000 </r>
       </set>
       <set comment="band 10">
        <r>  0.0000  0.0000  0.0000  0.0000  0.0000  0.0000  0.0000  0.0000  0.0000 </r>
        <r>  0.0000  0.0000  0.0000  0.0000  0.0000  0.0000  0.0000  0.0000  0.0000 </r>
       </set>
       <set comment="band 11">
        <r>  0.0998  0.0027  0.0000  0.0000  0.0000  0.0000  0.0000  0.0000  0.0000 </r>
        <r>  0.0998  0.0027  0.0000  0.0000  0.0000  0.0000  0.0000  0.0000  0.0000 </r>
       </set>
       <set comment="band 12">
        <r>  0.0008  0.0201  0.0173  0.0012  0.0000  0.0000  0.0000  0.0000  0.0000 </r>
        <r>  0.0008  0.0201  0.0172  0.0013  0.0000  0.0000  0.0000  0.0000  0.0000 </r>
       </set>
      </set>
      <set comment="kpoint 40">
       <set comment="band 1">
        <r>  0.2133  0.0004  0.0000  0.0000  0.0000  0.0000  0.0000  0.0000  0.0000 </r>
        <r>  0.2133  0.0004  0.0000  0.0000  0.0000  0.0000  0.0000  0.0000  0.0000 </r>
       </set>
       <set comment="band 2">
        <r>  0.0232  0.2001  0.0000  0.0000  0.0000  0.0000  0.0000  0.0000  0.0000 </r>
        <r>  0.0232  0.2001  0.0000  0.0000  0.0000  0.0000  0.0000  0.0000  0.0000 </r>
       </set>
       <set comment="band 3">
        <r>  0.0000  0.0000  0.1462  0.0669  0.0000  0.0000  0.0000  0.0000  0.0000 </r>
        <r>  0.0000  0.0000  0.1547  0.0584  0.0000  0.0000  0.0000  0.0000  0.0000 </r>
       </set>
       <set comment="band 4">
        <r>  0.0000  0.0000  0.0669  0.1462  0.0000  0.0000  0.0000  0.0000  0.0000 </r>
        <r>  0.0000  0.0000  0.0584  0.1547  0.0000  0.0000  0.0000  0.0000  0.0000 </r>
       </set>
       <set comment="band 5">
        <r>  0.0033  0.1460  0.0000  0.0000  0.0000  0.0000  0.0000  0.0000  0.0000 </r>
        <r>  0.0033  0.1460  0.0000  0.0000  0.0000  0.0000  0.0000  0.0000  0.0000 </r>
       </set>
       <set comment="band 6">
        <r>  0.0000  0.0000  0.0489  0.1056  0.0000  0.0000  0.0000  0.0000  0.0000 </r>
        <r>  0.0000  0.0000  0.0444  0.1101  0.0000  0.0000  0.0000  0.0000  0.0000 </r>
       </set>
       <set comment="band 7">
        <r>  0.0000  0.0000  0.1056  0.0489  0.0000  0.0000  0.0000  0.0000  0.0000 </r>
        <r>  0.0000  0.0000  0.1101  0.0444  0.0000  0.0000  0.0000  0.0000  0.0000 </r>
       </set>
       <set comment="band 8">
        <r>  0.3344  0.0178  0.0000  0.0000  0.0000  0.0000  0.0000  0.0000  0.0000 </r>
        <r>  0.3344  0.0178  0.0000  0.0000  0.0000  0.0000  0.0000  0.0000  0.0000 </r>
       </set>
       <set comment="band 9">
        <r>  0.0004  0.0008  0.0000  0.0000  0.0000  0.0000  0.0000  0.0000  0.0000 </r>
        <r>  0.0004  0.0008  0.0000  0.0000  0.0000  0.0000  0.0000  0.0000  0.0000 </r>
       </set>
       <set comment="band 10">
        <r>  0.0976  0.0059  0.0000  0.0000  0.0000  0.0000  0.0000  0.0000  0.0000 </r>
        <r>  0.0976  0.0059  0.0000  0.0000  0.0000  0.0000  0.0000  0.0000  0.0000 </r>
       </set>
       <set comment="band 11">
        <r>  0.0019  0.0206  0.0021  0.0139  0.0000  0.0000  0.0000  0.0000  0.0000 </r>
        <r>  0.0020  0.0206  0.0027  0.0133  0.0000  0.0000  0.0000  0.0000  0.0000 </r>
       </set>
       <set comment="band 12">
        <r>  0.0000  0.0072  0.0139  0.0018  0.0000  0.0000  0.0000  0.0000  0.0000 </r>
        <r>  0.0002  0.0042  0.0045  0.0103  0.0000  0.0000  0.0000  0.0000  0.0000 </r>
       </set>
      </set>
      <set comment="kpoint 41">
       <set comment="band 1">
        <r>  0.2132  0.0006  0.0000  0.0000  0.0000  0.0000  0.0000  0.0000  0.0000 </r>
        <r>  0.2132  0.0006  0.0000  0.0000  0.0000  0.0000  0.0000  0.0000  0.0000 </r>
       </set>
       <set comment="band 2">
        <r>  0.0369  0.1905  0.0000  0.0000  0.0000  0.0000  0.0000  0.0000  0.0000 </r>
        <r>  0.0369  0.1905  0.0000  0.0000  0.0000  0.0000  0.0000  0.0000  0.0000 </r>
       </set>
       <set comment="band 3">
        <r>  0.0000  0.0000  0.1320  0.0792  0.0000  0.0000  0.0000  0.0000  0.0000 </r>
        <r>  0.0000  0.0000  0.1582  0.0531  0.0000  0.0000  0.0000  0.0000  0.0000 </r>
       </set>
       <set comment="band 4">
        <r>  0.0000  0.0000  0.0792  0.1320  0.0000  0.0000  0.0000  0.0000  0.0000 </r>
        <r>  0.0000  0.0000  0.0531  0.1582  0.0000  0.0000  0.0000  0.0000  0.0000 </r>
       </set>
       <set comment="band 5">
        <r>  0.0057  0.1423  0.0000  0.0000  0.0000  0.0000  0.0000  0.0000  0.0000 </r>
        <r>  0.0057  0.1423  0.0000  0.0000  0.0000  0.0000  0.0000  0.0000  0.0000 </r>
       </set>
       <set comment="band 6">
        <r>  0.0000  0.0000  0.0699  0.0864  0.0000  0.0000  0.0000  0.0000  0.0000 </r>
        <r>  0.0000  0.0000  0.0676  0.0888  0.0000  0.0000  0.0000  0.0000  0.0000 </r>
       </set>
       <set comment="band 7">
        <r>  0.0000  0.0000  0.0864  0.0699  0.0000  0.0000  0.0000  0.0000  0.0000 </r>
        <r>  0.0000  0.0000  0.0888  0.0676  0.0000  0.0000  0.0000  0.0000  0.0000 </r>
       </set>
       <set comment="band 8">
        <r>  0.3195  0.0286  0.0000  0.0000  0.0000  0.0000  0.0000  0.0000  0.0000 </r>
        <r>  0.3195  0.0286  0.0000  0.0000  0.0000  0.0000  0.0000  0.0000  0.0000 </r>
       </set>
       <set comment="band 9">
        <r>  0.0013  0.0009  0.0000  0.0000  0.0000  0.0000  0.0000  0.0000  0.0000 </r>
        <r>  0.0014  0.0009  0.0000  0.0000  0.0000  0.0000  0.0000  0.0000  0.0000 </r>
       </set>
       <set comment="band 10">
        <r>  0.0944  0.0102  0.0000  0.0000  0.0000  0.0000  0.0000  0.0000  0.0000 </r>
        <r>  0.0945  0.0101  0.0000  0.0000  0.0000  0.0000  0.0000  0.0000  0.0000 </r>
       </set>
       <set comment="band 11">
        <r>  0.0020  0.0131  0.0205  0.0025  0.0000  0.0000  0.0000  0.0000  0.0000 </r>
        <r>  0.0020  0.0131  0.0186  0.0044  0.0000  0.0000  0.0000  0.0000  0.0000 </r>
       </set>
       <set comment="band 12">
        <r>  0.0007  0.0212  0.0046  0.0086  0.0000  0.0000  0.0000  0.0000  0.0000 </r>
        <r>  0.0002  0.0059  0.0102  0.0018  0.0000  0.0000  0.0000  0.0000  0.0000 </r>
       </set>
      </set>
      <set comment="kpoint 42">
       <set comment="band 1">
        <r>  0.2130  0.0010  0.0000  0.0000  0.0000  0.0000  0.0000  0.0000  0.0000 </r>
        <r>  0.2130  0.0010  0.0000  0.0000  0.0000  0.0000  0.0000  0.0000  0.0000 </r>
       </set>
       <set comment="band 2">
        <r>  0.0510  0.1806  0.0000  0.0000  0.0000  0.0000  0.0000  0.0000  0.0000 </r>
        <r>  0.0510  0.1806  0.0000  0.0000  0.0000  0.0000  0.0000  0.0000  0.0000 </r>
       </set>
       <set comment="band 3">
        <r>  0.0000  0.0000  0.1566  0.0528  0.0000  0.0000  0.0000  0.0000  0.0000 </r>
        <r>  0.0000  0.0000  0.1605  0.0489  0.0000  0.0000  0.0000  0.0000  0.0000 </r>
       </set>
       <set comment="band 4">
        <r>  0.0000  0.0000  0.0528  0.1566  0.0000  0.0000  0.0000  0.0000  0.0000 </r>
        <r>  0.0000  0.0000  0.0490  0.1605  0.0000  0.0000  0.0000  0.0000  0.0000 </r>
       </set>
       <set comment="band 5">
        <r>  0.0085  0.1378  0.0000  0.0000  0.0000  0.0000  0.0000  0.0000  0.0000 </r>
        <r>  0.0085  0.1378  0.0000  0.0000  0.0000  0.0000  0.0000  0.0000  0.0000 </r>
       </set>
       <set comment="band 6">
        <r>  0.0000  0.0000  0.1483  0.0098  0.0000  0.0000  0.0000  0.0000  0.0000 </r>
        <r>  0.0000  0.0000  0.1025  0.0557  0.0000  0.0000  0.0000  0.0000  0.0000 </r>
       </set>
       <set comment="band 7">
        <r>  0.0000  0.0000  0.0098  0.1483  0.0000  0.0000  0.0000  0.0000  0.0000 </r>
        <r>  0.0000  0.0000  0.0557  0.1025  0.0000  0.0000  0.0000  0.0000  0.0000 </r>
       </set>
       <set comment="band 8">
        <r>  0.3033  0.0401  0.0000  0.0000  0.0000  0.0000  0.0000  0.0000  0.0000 </r>
        <r>  0.3033  0.0401  0.0000  0.0000  0.0000  0.0000  0.0000  0.0000  0.0000 </r>
       </set>
       <set comment="band 9">
        <r>  0.0033  0.0007  0.0000  0.0000  0.0000  0.0000  0.0000  0.0000  0.0000 </r>
        <r>  0.0033  0.0007  0.0000  0.0000  0.0000  0.0000  0.0000  0.0000  0.0000 </r>
       </set>
       <set comment="band 10">
        <r>  0.0000  0.0000  0.0000  0.0000  0.0000  0.0000  0.0000  0.0000  0.0000 </r>
        <r>  0.0000  0.0000  0.0000  0.0000  0.0000  0.0000  0.0000  0.0000  0.0000 </r>
       </set>
       <set comment="band 11">
        <r>  0.0914  0.0153  0.0000  0.0000  0.0000  0.0000  0.0000  0.0000  0.0000 </r>
        <r>  0.0914  0.0153  0.0000  0.0000  0.0000  0.0000  0.0000  0.0000  0.0000 </r>
       </set>
       <set comment="band 12">
        <r>  0.0004  0.0182  0.0164  0.0076  0.0000  0.0000  0.0000  0.0000  0.0000 </r>
        <r>  0.0020  0.0281  0.0145  0.0013  0.0000  0.0000  0.0000  0.0000  0.0000 </r>
       </set>
      </set>
      <set comment="kpoint 43">
       <set comment="band 1">
        <r>  0.2128  0.0014  0.0000  0.0000  0.0000  0.0000  0.0000  0.0000  0.0000 </r>
        <r>  0.2128  0.0014  0.0000  0.0000  0.0000  0.0000  0.0000  0.0000  0.0000 </r>
       </set>
       <set comment="band 2">
        <r>  0.0645  0.1710  0.0000  0.0000  0.0000  0.0000  0.0000  0.0000  0.0000 </r>
        <r>  0.0645  0.1710  0.0000  0.0000  0.0000  0.0000  0.0000  0.0000  0.0000 </r>
       </set>
       <set comment="band 3">
        <r>  0.0000  0.0000  0.1483  0.0594  0.0000  0.0000  0.0000  0.0000  0.0000 </r>
        <r>  0.0000  0.0000  0.1283  0.0794  0.0000  0.0000  0.0000  0.0000  0.0000 </r>
       </set>
       <set comment="band 4">
        <r>  0.0000  0.0000  0.0594  0.1483  0.0000  0.0000  0.0000  0.0000  0.0000 </r>
        <r>  0.0000  0.0000  0.0794  0.1283  0.0000  0.0000  0.0000  0.0000  0.0000 </r>
       </set>
       <set comment="band 5">
        <r>  0.0115  0.1329  0.0000  0.0000  0.0000  0.0000  0.0000  0.0000  0.0000 </r>
        <r>  0.0115  0.1329  0.0000  0.0000  0.0000  0.0000  0.0000  0.0000  0.0000 </r>
       </set>
       <set comment="band 6">
        <r>  0.0000  0.0000  0.0848  0.0750  0.0000  0.0000  0.0000  0.0000  0.0000 </r>
        <r>  0.0000  0.0000  0.0765  0.0833  0.0000  0.0000  0.0000  0.0000  0.0000 </r>
       </set>
       <set comment="band 7">
        <r>  0.0000  0.0000  0.0750  0.0848  0.0000  0.0000  0.0000  0.0000  0.0000 </r>
        <r>  0.0000  0.0000  0.0833  0.0765  0.0000  0.0000  0.0000  0.0000  0.0000 </r>
       </set>
       <set comment="band 8">
        <r>  0.2857  0.0514  0.0000  0.0000  0.0000  0.0000  0.0000  0.0000  0.0000 </r>
        <r>  0.2857  0.0514  0.0000  0.0000  0.0000  0.0000  0.0000  0.0000  0.0000 </r>
       </set>
       <set comment="band 9">
        <r>  0.0073  0.0003  0.0000  0.0000  0.0000  0.0000  0.0000  0.0000  0.0000 </r>
        <r>  0.0073  0.0003  0.0000  0.0000  0.0000  0.0000  0.0000  0.0000  0.0000 </r>
       </set>
       <set comment="band 10">
        <r>  0.0875  0.0210  0.0000  0.0000  0.0000  0.0000  0.0000  0.0000  0.0000 </r>
        <r>  0.0876  0.0210  0.0000  0.0000  0.0000  0.0000  0.0000  0.0000  0.0000 </r>
       </set>
       <set comment="band 11">
        <r>  0.0024  0.0058  0.0109  0.0180  0.0000  0.0000  0.0000  0.0000  0.0000 </r>
        <r>  0.0024  0.0058  0.0117  0.0173  0.0000  0.0000  0.0000  0.0000  0.0000 </r>
       </set>
       <set comment="band 12">
        <r>  0.0007  0.0199  0.0329  0.0186  0.0000  0.0000  0.0000  0.0000  0.0000 </r>
        <r>  0.0005  0.0080  0.0215  0.0253  0.0000  0.0000  0.0000  0.0000  0.0000 </r>
       </set>
      </set>
      <set comment="kpoint 44">
       <set comment="band 1">
        <r>  0.2125  0.0019  0.0000  0.0000  0.0000  0.0000  0.0000  0.0000  0.0000 </r>
        <r>  0.2125  0.0019  0.0000  0.0000  0.0000  0.0000  0.0000  0.0000  0.0000 </r>
       </set>
       <set comment="band 2">
        <r>  0.0770  0.1620  0.0000  0.0000  0.0000  0.0000  0.0000  0.0000  0.0000 </r>
        <r>  0.0770  0.1620  0.0000  0.0000  0.0000  0.0000  0.0000  0.0000  0.0000 </r>
       </set>
       <set comment="band 3">
        <r>  0.0000  0.0000  0.0998  0.1063  0.0000  0.0000  0.0000  0.0000  0.0000 </r>
        <r>  0.0000  0.0000  0.0147  0.1915  0.0000  0.0000  0.0000  0.0000  0.0000 </r>
       </set>
       <set comment="band 4">
        <r>  0.0000  0.0000  0.1063  0.0998  0.0000  0.0000  0.0000  0.0000  0.0000 </r>
        <r>  0.0000  0.0000  0.1915  0.0147  0.0000  0.0000  0.0000  0.0000  0.0000 </r>
       </set>
       <set comment="band 5">
        <r>  0.0147  0.1276  0.0000  0.0000  0.0000  0.0000  0.0000  0.0000  0.0000 </r>
        <r>  0.0147  0.1276  0.0000  0.0000  0.0000  0.0000  0.0000  0.0000  0.0000 </r>
       </set>
       <set comment="band 6">
        <r>  0.0000  0.0000  0.1368  0.0246  0.0000  0.0000  0.0000  0.0000  0.0000 </r>
        <r>  0.0000  0.0000  0.0937  0.0677  0.0000  0.0000  0.0000  0.0000  0.0000 </r>
       </set>
       <set comment="band 7">
        <r>  0.0000  0.0000  0.0246  0.1368  0.0000  0.0000  0.0000  0.0000  0.0000 </r>
        <r>  0.0000  0.0000  0.0677  0.0937  0.0000  0.0000  0.0000  0.0000  0.0000 </r>
       </set>
       <set comment="band 8">
        <r>  0.2658  0.0618  0.0000  0.0000  0.0000  0.0000  0.0000  0.0000  0.0000 </r>
        <r>  0.2658  0.0618  0.0000  0.0000  0.0000  0.0000  0.0000  0.0000  0.0000 </r>
       </set>
       <set comment="band 9">
        <r>  0.0146  0.0000  0.0000  0.0000  0.0000  0.0000  0.0000  0.0000  0.0000 </r>
        <r>  0.0146  0.0000  0.0000  0.0000  0.0000  0.0000  0.0000  0.0000  0.0000 </r>
       </set>
       <set comment="band 10">
        <r>  0.0000  0.0000  0.0000  0.0000  0.0000  0.0000  0.0000  0.0000  0.0000 </r>
        <r>  0.0000  0.0000  0.0000  0.0000  0.0000  0.0000  0.0000  0.0000  0.0000 </r>
       </set>
       <set comment="band 11">
        <r>  0.0834  0.0271  0.0000  0.0000  0.0000  0.0000  0.0000  0.0000  0.0000 </r>
        <r>  0.0834  0.0271  0.0000  0.0000  0.0000  0.0000  0.0000  0.0000  0.0000 </r>
       </set>
       <set comment="band 12">
        <r>  0.0019  0.0036  0.0182  0.0131  0.0000  0.0000  0.0000  0.0000  0.0000 </r>
        <r>  0.0019  0.0036  0.0210  0.0104  0.0000  0.0000  0.0000  0.0000  0.0000 </r>
       </set>
      </set>
      <set comment="kpoint 45">
       <set comment="band 1">
        <r>  0.2123  0.0025  0.0000  0.0000  0.0000  0.0000  0.0000  0.0000  0.0000 </r>
        <r>  0.2123  0.0025  0.0000  0.0000  0.0000  0.0000  0.0000  0.0000  0.0000 </r>
       </set>
       <set comment="band 2">
        <r>  0.0885  0.1537  0.0000  0.0000  0.0000  0.0000  0.0000  0.0000  0.0000 </r>
        <r>  0.0885  0.1537  0.0000  0.0000  0.0000  0.0000  0.0000  0.0000  0.0000 </r>
       </set>
       <set comment="band 3">
        <r>  0.0000  0.0000  0.1543  0.0505  0.0000  0.0000  0.0000  0.0000  0.0000 </r>
        <r>  0.0000  0.0000  0.1694  0.0354  0.0000  0.0000  0.0000  0.0000  0.0000 </r>
       </set>
       <set comment="band 4">
        <r>  0.0000  0.0000  0.0505  0.1543  0.0000  0.0000  0.0000  0.0000  0.0000 </r>
        <r>  0.0000  0.0000  0.0354  0.1694  0.0000  0.0000  0.0000  0.0000  0.0000 </r>
       </set>
       <set comment="band 5">
        <r>  0.0179  0.1223  0.0000  0.0000  0.0000  0.0000  0.0000  0.0000  0.0000 </r>
        <r>  0.0179  0.1223  0.0000  0.0000  0.0000  0.0000  0.0000  0.0000  0.0000 </r>
       </set>
       <set comment="band 6">
        <r>  0.0000  0.0000  0.0814  0.0813  0.0000  0.0000  0.0000  0.0000  0.0000 </r>
        <r>  0.0000  0.0000  0.0794  0.0834  0.0000  0.0000  0.0000  0.0000  0.0000 </r>
       </set>
       <set comment="band 7">
        <r>  0.0000  0.0000  0.0813  0.0814  0.0000  0.0000  0.0000  0.0000  0.0000 </r>
        <r>  0.0000  0.0000  0.0834  0.0794  0.0000  0.0000  0.0000  0.0000  0.0000 </r>
       </set>
       <set comment="band 8">
        <r>  0.2413  0.0702  0.0000  0.0000  0.0000  0.0000  0.0000  0.0000  0.0000 </r>
        <r>  0.2413  0.0702  0.0000  0.0000  0.0000  0.0000  0.0000  0.0000  0.0000 </r>
       </set>
       <set comment="band 9">
        <r>  0.0276  0.0010  0.0000  0.0000  0.0000  0.0000  0.0000  0.0000  0.0000 </r>
        <r>  0.0276  0.0010  0.0000  0.0000  0.0000  0.0000  0.0000  0.0000  0.0000 </r>
       </set>
       <set comment="band 10">
        <r>  0.0000  0.0000  0.0000  0.0000  0.0000  0.0000  0.0000  0.0000  0.0000 </r>
        <r>  0.0000  0.0000  0.0000  0.0000  0.0000  0.0000  0.0000  0.0000  0.0000 </r>
       </set>
       <set comment="band 11">
        <r>  0.0791  0.0336  0.0000  0.0000  0.0000  0.0000  0.0000  0.0000  0.0000 </r>
        <r>  0.0791  0.0336  0.0000  0.0000  0.0000  0.0000  0.0000  0.0000  0.0000 </r>
       </set>
       <set comment="band 12">
        <r>  0.0052  0.0337  0.0612  0.0170  0.0000  0.0000  0.0000  0.0000  0.0000 </r>
        <r>  0.0062  0.0408  0.0558  0.0234  0.0000  0.0000  0.0000  0.0000  0.0000 </r>
       </set>
      </set>
      <set comment="kpoint 46">
       <set comment="band 1">
        <r>  0.2119  0.0032  0.0000  0.0000  0.0000  0.0000  0.0000  0.0000  0.0000 </r>
        <r>  0.2119  0.0032  0.0000  0.0000  0.0000  0.0000  0.0000  0.0000  0.0000 </r>
       </set>
       <set comment="band 2">
        <r>  0.0989  0.1461  0.0000  0.0000  0.0000  0.0000  0.0000  0.0000  0.0000 </r>
        <r>  0.0989  0.1461  0.0000  0.0000  0.0000  0.0000  0.0000  0.0000  0.0000 </r>
       </set>
       <set comment="band 3">
        <r>  0.0000  0.0000  0.0610  0.1426  0.0000  0.0000  0.0000  0.0000  0.0000 </r>
        <r>  0.0000  0.0000  0.0327  0.1709  0.0000  0.0000  0.0000  0.0000  0.0000 </r>
       </set>
       <set comment="band 4">
        <r>  0.0000  0.0000  0.1426  0.0610  0.0000  0.0000  0.0000  0.0000  0.0000 </r>
        <r>  0.0000  0.0000  0.1709  0.0327  0.0000  0.0000  0.0000  0.0000  0.0000 </r>
       </set>
       <set comment="band 5">
        <r>  0.0212  0.1169  0.0000  0.0000  0.0000  0.0000  0.0000  0.0000  0.0000 </r>
        <r>  0.0212  0.1169  0.0000  0.0000  0.0000  0.0000  0.0000  0.0000  0.0000 </r>
       </set>
       <set comment="band 6">
        <r>  0.0000  0.0000  0.0065  0.1574  0.0000  0.0000  0.0000  0.0000  0.0000 </r>
        <r>  0.0000  0.0000  0.1250  0.0389  0.0000  0.0000  0.0000  0.0000  0.0000 </r>
       </set>
       <set comment="band 7">
        <r>  0.0000  0.0000  0.1574  0.0065  0.0000  0.0000  0.0000  0.0000  0.0000 </r>
        <r>  0.0000  0.0000  0.0389  0.1250  0.0000  0.0000  0.0000  0.0000  0.0000 </r>
       </set>
       <set comment="band 8">
        <r>  0.2102  0.0749  0.0000  0.0000  0.0000  0.0000  0.0000  0.0000  0.0000 </r>
        <r>  0.2102  0.0749  0.0000  0.0000  0.0000  0.0000  0.0000  0.0000  0.0000 </r>
       </set>
       <set comment="band 9">
        <r>  0.0484  0.0050  0.0000  0.0000  0.0000  0.0000  0.0000  0.0000  0.0000 </r>
        <r>  0.0484  0.0050  0.0000  0.0000  0.0000  0.0000  0.0000  0.0000  0.0000 </r>
       </set>
       <set comment="band 10">
        <r>  0.0000  0.0000  0.0000  0.0000  0.0000  0.0000  0.0000  0.0000  0.0000 </r>
        <r>  0.0000  0.0000  0.0000  0.0000  0.0000  0.0000  0.0000  0.0000  0.0000 </r>
       </set>
       <set comment="band 11">
        <r>  0.0746  0.0403  0.0000  0.0000  0.0000  0.0000  0.0000  0.0000  0.0000 </r>
        <r>  0.0746  0.0403  0.0000  0.0000  0.0000  0.0000  0.0000  0.0000  0.0000 </r>
       </set>
       <set comment="band 12">
        <r>  0.0110  0.0109  0.0002  0.0083  0.0000  0.0000  0.0000  0.0000  0.0000 </r>
        <r>  0.0110  0.0109  0.0003  0.0082  0.0000  0.0000  0.0000  0.0000  0.0000 </r>
       </set>
      </set>
      <set comment="kpoint 47">
       <set comment="band 1">
        <r>  0.2116  0.0039  0.0000  0.0000  0.0000  0.0000  0.0000  0.0000  0.0000 </r>
        <r>  0.2116  0.0039  0.0000  0.0000  0.0000  0.0000  0.0000  0.0000  0.0000 </r>
       </set>
       <set comment="band 2">
        <r>  0.1082  0.1391  0.0000  0.0000  0.0000  0.0000  0.0000  0.0000  0.0000 </r>
        <r>  0.1082  0.1391  0.0000  0.0000  0.0000  0.0000  0.0000  0.0000  0.0000 </r>
       </set>
       <set comment="band 3">
        <r>  0.0000  0.0000  0.1231  0.0795  0.0000  0.0000  0.0000  0.0000  0.0000 </r>
        <r>  0.0000  0.0000  0.1303  0.0723  0.0000  0.0000  0.0000  0.0000  0.0000 </r>
       </set>
       <set comment="band 4">
        <r>  0.0000  0.0000  0.0795  0.1231  0.0000  0.0000  0.0000  0.0000  0.0000 </r>
        <r>  0.0000  0.0000  0.0723  0.1303  0.0000  0.0000  0.0000  0.0000  0.0000 </r>
       </set>
       <set comment="band 5">
        <r>  0.0243  0.1115  0.0000  0.0000  0.0000  0.0000  0.0000  0.0000  0.0000 </r>
        <r>  0.0243  0.1115  0.0000  0.0000  0.0000  0.0000  0.0000  0.0000  0.0000 </r>
       </set>
       <set comment="band 6">
        <r>  0.0000  0.0000  0.0416  0.1231  0.0000  0.0000  0.0000  0.0000  0.0000 </r>
        <r>  0.0000  0.0000  0.1500  0.0148  0.0000  0.0000  0.0000  0.0000  0.0000 </r>
       </set>
       <set comment="band 7">
        <r>  0.0000  0.0000  0.1231  0.0416  0.0000  0.0000  0.0000  0.0000  0.0000 </r>
        <r>  0.0000  0.0000  0.0148  0.1500  0.0000  0.0000  0.0000  0.0000  0.0000 </r>
       </set>
       <set comment="band 8">
        <r>  0.1735  0.0743  0.0000  0.0000  0.0000  0.0000  0.0000  0.0000  0.0000 </r>
        <r>  0.1735  0.0743  0.0000  0.0000  0.0000  0.0000  0.0000  0.0000  0.0000 </r>
       </set>
       <set comment="band 9">
        <r>  0.0760  0.0136  0.0000  0.0000  0.0000  0.0000  0.0000  0.0000  0.0000 </r>
        <r>  0.0760  0.0136  0.0000  0.0000  0.0000  0.0000  0.0000  0.0000  0.0000 </r>
       </set>
       <set comment="band 10">
        <r>  0.0000  0.0000  0.0000  0.0000  0.0000  0.0000  0.0000  0.0000  0.0000 </r>
        <r>  0.0000  0.0000  0.0000  0.0000  0.0000  0.0000  0.0000  0.0000  0.0000 </r>
       </set>
       <set comment="band 11">
        <r>  0.0700  0.0472  0.0000  0.0000  0.0000  0.0000  0.0000  0.0000  0.0000 </r>
        <r>  0.0700  0.0472  0.0000  0.0000  0.0000  0.0000  0.0000  0.0000  0.0000 </r>
       </set>
       <set comment="band 12">
        <r>  0.0003  0.0002  0.0238  0.0113  0.0000  0.0000  0.0000  0.0000  0.0000 </r>
        <r>  0.0003  0.0002  0.0165  0.0186  0.0000  0.0000  0.0000  0.0000  0.0000 </r>
       </set>
      </set>
      <set comment="kpoint 48">
       <set comment="band 1">
        <r>  0.2112  0.0047  0.0000  0.0000  0.0000  0.0000  0.0000  0.0000  0.0000 </r>
        <r>  0.2112  0.0047  0.0000  0.0000  0.0000  0.0000  0.0000  0.0000  0.0000 </r>
       </set>
       <set comment="band 2">
        <r>  0.1167  0.1326  0.0000  0.0000  0.0000  0.0000  0.0000  0.0000  0.0000 </r>
        <r>  0.1167  0.1326  0.0000  0.0000  0.0000  0.0000  0.0000  0.0000  0.0000 </r>
       </set>
       <set comment="band 3">
        <r>  0.0000  0.0000  0.0967  0.1050  0.0000  0.0000  0.0000  0.0000  0.0000 </r>
        <r>  0.0000  0.0000  0.0783  0.1235  0.0000  0.0000  0.0000  0.0000  0.0000 </r>
       </set>
       <set comment="band 4">
        <r>  0.0000  0.0000  0.1050  0.0967  0.0000  0.0000  0.0000  0.0000  0.0000 </r>
        <r>  0.0000  0.0000  0.1235  0.0783  0.0000  0.0000  0.0000  0.0000  0.0000 </r>
       </set>
       <set comment="band 5">
        <r>  0.0273  0.1063  0.0000  0.0000  0.0000  0.0000  0.0000  0.0000  0.0000 </r>
        <r>  0.0273  0.1063  0.0000  0.0000  0.0000  0.0000  0.0000  0.0000  0.0000 </r>
       </set>
       <set comment="band 6">
        <r>  0.0000  0.0000  0.1187  0.0468  0.0000  0.0000  0.0000  0.0000  0.0000 </r>
        <r>  0.0000  0.0000  0.0587  0.1068  0.0000  0.0000  0.0000  0.0000  0.0000 </r>
       </set>
       <set comment="band 7">
        <r>  0.0000  0.0000  0.0468  0.1187  0.0000  0.0000  0.0000  0.0000  0.0000 </r>
        <r>  0.0000  0.0000  0.1068  0.0587  0.0000  0.0000  0.0000  0.0000  0.0000 </r>
       </set>
       <set comment="band 8">
        <r>  0.1371  0.0691  0.0000  0.0000  0.0000  0.0000  0.0000  0.0000  0.0000 </r>
        <r>  0.1371  0.0691  0.0000  0.0000  0.0000  0.0000  0.0000  0.0000  0.0000 </r>
       </set>
       <set comment="band 9">
        <r>  0.1041  0.0261  0.0000  0.0000  0.0000  0.0000  0.0000  0.0000  0.0000 </r>
        <r>  0.1041  0.0261  0.0000  0.0000  0.0000  0.0000  0.0000  0.0000  0.0000 </r>
       </set>
       <set comment="band 10">
        <r>  0.0000  0.0000  0.0000  0.0000  0.0000  0.0000  0.0000  0.0000  0.0000 </r>
        <r>  0.0000  0.0000  0.0000  0.0000  0.0000  0.0000  0.0000  0.0000  0.0000 </r>
       </set>
       <set comment="band 11">
        <r>  0.0654  0.0542  0.0000  0.0000  0.0000  0.0000  0.0000  0.0000  0.0000 </r>
        <r>  0.0654  0.0542  0.0000  0.0000  0.0000  0.0000  0.0000  0.0000  0.0000 </r>
       </set>
       <set comment="band 12">
        <r>  0.0118  0.0076  0.0047  0.0037  0.0000  0.0000  0.0000  0.0000  0.0000 </r>
        <r>  0.0118  0.0075  0.0021  0.0066  0.0000  0.0000  0.0000  0.0000  0.0000 </r>
       </set>
      </set>
      <set comment="kpoint 49">
       <set comment="band 1">
        <r>  0.2108  0.0056  0.0000  0.0000  0.0000  0.0000  0.0000  0.0000  0.0000 </r>
        <r>  0.2108  0.0056  0.0000  0.0000  0.0000  0.0000  0.0000  0.0000  0.0000 </r>
       </set>
       <set comment="band 2">
        <r>  0.1243  0.1267  0.0000  0.0000  0.0000  0.0000  0.0000  0.0000  0.0000 </r>
        <r>  0.1243  0.1267  0.0000  0.0000  0.0000  0.0000  0.0000  0.0000  0.0000 </r>
       </set>
       <set comment="band 3">
        <r>  0.0000  0.0000  0.0274  0.1736  0.0000  0.0000  0.0000  0.0000  0.0000 </r>
        <r>  0.0000  0.0000  0.1979  0.0030  0.0000  0.0000  0.0000  0.0000  0.0000 </r>
       </set>
       <set comment="band 4">
        <r>  0.0000  0.0000  0.1736  0.0274  0.0000  0.0000  0.0000  0.0000  0.0000 </r>
        <r>  0.0000  0.0000  0.0030  0.1979  0.0000  0.0000  0.0000  0.0000  0.0000 </r>
       </set>
       <set comment="band 5">
        <r>  0.0302  0.1013  0.0000  0.0000  0.0000  0.0000  0.0000  0.0000  0.0000 </r>
        <r>  0.0302  0.1013  0.0000  0.0000  0.0000  0.0000  0.0000  0.0000  0.0000 </r>
       </set>
       <set comment="band 6">
        <r>  0.1073  0.0621  0.0000  0.0000  0.0000  0.0000  0.0000  0.0000  0.0000 </r>
        <r>  0.1073  0.0621  0.0000  0.0000  0.0000  0.0000  0.0000  0.0000  0.0000 </r>
       </set>
       <set comment="band 7">
        <r>  0.0000  0.0000  0.1155  0.0506  0.0000  0.0000  0.0000  0.0000  0.0000 </r>
        <r>  0.0000  0.0000  0.0444  0.1218  0.0000  0.0000  0.0000  0.0000  0.0000 </r>
       </set>
       <set comment="band 8">
        <r>  0.0000  0.0000  0.0506  0.1155  0.0000  0.0000  0.0000  0.0000  0.0000 </r>
        <r>  0.0000  0.0000  0.1218  0.0444  0.0000  0.0000  0.0000  0.0000  0.0000 </r>
       </set>
       <set comment="band 9">
        <r>  0.1264  0.0401  0.0000  0.0000  0.0000  0.0000  0.0000  0.0000  0.0000 </r>
        <r>  0.1264  0.0401  0.0000  0.0000  0.0000  0.0000  0.0000  0.0000  0.0000 </r>
       </set>
       <set comment="band 10">
        <r>  0.0000  0.0000  0.0000  0.0000  0.0000  0.0000  0.0000  0.0000  0.0000 </r>
        <r>  0.0000  0.0000  0.0000  0.0000  0.0000  0.0000  0.0000  0.0000  0.0000 </r>
       </set>
       <set comment="band 11">
        <r>  0.0607  0.0613  0.0000  0.0000  0.0000  0.0000  0.0000  0.0000  0.0000 </r>
        <r>  0.0607  0.0613  0.0000  0.0000  0.0000  0.0000  0.0000  0.0000  0.0000 </r>
       </set>
       <set comment="band 12">
        <r>  0.0004  0.0002  0.0290  0.0042  0.0000  0.0000  0.0000  0.0000  0.0000 </r>
        <r>  0.0004  0.0002  0.0325  0.0006  0.0000  0.0000  0.0000  0.0000  0.0000 </r>
       </set>
      </set>
      <set comment="kpoint 50">
       <set comment="band 1">
        <r>  0.2103  0.0066  0.0000  0.0000  0.0000  0.0000  0.0000  0.0000  0.0000 </r>
        <r>  0.2103  0.0066  0.0000  0.0000  0.0000  0.0000  0.0000  0.0000  0.0000 </r>
       </set>
       <set comment="band 2">
        <r>  0.1311  0.1212  0.0000  0.0000  0.0000  0.0000  0.0000  0.0000  0.0000 </r>
        <r>  0.1311  0.1212  0.0000  0.0000  0.0000  0.0000  0.0000  0.0000  0.0000 </r>
       </set>
       <set comment="band 3">
        <r>  0.0000  0.0000  0.0698  0.1305  0.0000  0.0000  0.0000  0.0000  0.0000 </r>
        <r>  0.0000  0.0000  0.1021  0.0983  0.0000  0.0000  0.0000  0.0000  0.0000 </r>
       </set>
       <set comment="band 4">
        <r>  0.0000  0.0000  0.1305  0.0698  0.0000  0.0000  0.0000  0.0000  0.0000 </r>
        <r>  0.0000  0.0000  0.0983  0.1021  0.0000  0.0000  0.0000  0.0000  0.0000 </r>
       </set>
       <set comment="band 5">
        <r>  0.0329  0.0964  0.0000  0.0000  0.0000  0.0000  0.0000  0.0000  0.0000 </r>
        <r>  0.0329  0.0964  0.0000  0.0000  0.0000  0.0000  0.0000  0.0000  0.0000 </r>
       </set>
       <set comment="band 6">
        <r>  0.0859  0.0553  0.0000  0.0000  0.0000  0.0000  0.0000  0.0000  0.0000 </r>
        <r>  0.0859  0.0553  0.0000  0.0000  0.0000  0.0000  0.0000  0.0000  0.0000 </r>
       </set>
       <set comment="band 7">
        <r>  0.0000  0.0000  0.1264  0.0402  0.0000  0.0000  0.0000  0.0000  0.0000 </r>
        <r>  0.0000  0.0000  0.0326  0.1340  0.0000  0.0000  0.0000  0.0000  0.0000 </r>
       </set>
       <set comment="band 8">
        <r>  0.0000  0.0000  0.0402  0.1264  0.0000  0.0000  0.0000  0.0000  0.0000 </r>
        <r>  0.0000  0.0000  0.1340  0.0326  0.0000  0.0000  0.0000  0.0000  0.0000 </r>
       </set>
       <set comment="band 9">
        <r>  0.1411  0.0535  0.0000  0.0000  0.0000  0.0000  0.0000  0.0000  0.0000 </r>
        <r>  0.1411  0.0535  0.0000  0.0000  0.0000  0.0000  0.0000  0.0000  0.0000 </r>
       </set>
       <set comment="band 10">
        <r>  0.0000  0.0000  0.0000  0.0000  0.0000  0.0000  0.0000  0.0000  0.0000 </r>
        <r>  0.0000  0.0000  0.0000  0.0000  0.0000  0.0000  0.0000  0.0000  0.0000 </r>
       </set>
       <set comment="band 11">
        <r>  0.0560  0.0685  0.0000  0.0000  0.0000  0.0000  0.0000  0.0000  0.0000 </r>
        <r>  0.0560  0.0685  0.0000  0.0000  0.0000  0.0000  0.0000  0.0000  0.0000 </r>
       </set>
       <set comment="band 12">
        <r>  0.0000  0.0000  0.0291  0.0040  0.0000  0.0000  0.0000  0.0000  0.0000 </r>
        <r>  0.0000  0.0000  0.0324  0.0007  0.0000  0.0000  0.0000  0.0000  0.0000 </r>
       </set>
      </set>
      <set comment="kpoint 51">
       <set comment="band 1">
        <r>  0.2099  0.0076  0.0000  0.0000  0.0000  0.0000  0.0000  0.0000  0.0000 </r>
        <r>  0.2099  0.0076  0.0000  0.0000  0.0000  0.0000  0.0000  0.0000  0.0000 </r>
       </set>
       <set comment="band 2">
        <r>  0.1374  0.1160  0.0000  0.0000  0.0000  0.0000  0.0000  0.0000  0.0000 </r>
        <r>  0.1374  0.1160  0.0000  0.0000  0.0000  0.0000  0.0000  0.0000  0.0000 </r>
       </set>
       <set comment="band 3">
        <r>  0.0000  0.0000  0.0400  0.1598  0.0000  0.0000  0.0000  0.0000  0.0000 </r>
        <r>  0.0000  0.0000  0.1938  0.0061  0.0000  0.0000  0.0000  0.0000  0.0000 </r>
       </set>
       <set comment="band 4">
        <r>  0.0000  0.0000  0.1598  0.0400  0.0000  0.0000  0.0000  0.0000  0.0000 </r>
        <r>  0.0000  0.0000  0.0061  0.1938  0.0000  0.0000  0.0000  0.0000  0.0000 </r>
       </set>
       <set comment="band 5">
        <r>  0.0354  0.0917  0.0000  0.0000  0.0000  0.0000  0.0000  0.0000  0.0000 </r>
        <r>  0.0354  0.0917  0.0000  0.0000  0.0000  0.0000  0.0000  0.0000  0.0000 </r>
       </set>
       <set comment="band 6">
        <r>  0.0713  0.0497  0.0000  0.0000  0.0000  0.0000  0.0000  0.0000  0.0000 </r>
        <r>  0.0713  0.0497  0.0000  0.0000  0.0000  0.0000  0.0000  0.0000  0.0000 </r>
       </set>
       <set comment="band 7">
        <r>  0.0000  0.0000  0.0859  0.0810  0.0000  0.0000  0.0000  0.0000  0.0000 </r>
        <r>  0.0000  0.0000  0.0808  0.0860  0.0000  0.0000  0.0000  0.0000  0.0000 </r>
       </set>
       <set comment="band 8">
        <r>  0.0000  0.0000  0.0810  0.0859  0.0000  0.0000  0.0000  0.0000  0.0000 </r>
        <r>  0.0000  0.0000  0.0860  0.0808  0.0000  0.0000  0.0000  0.0000  0.0000 </r>
       </set>
       <set comment="band 9">
        <r>  0.1495  0.0654  0.0000  0.0000  0.0000  0.0000  0.0000  0.0000  0.0000 </r>
        <r>  0.1495  0.0654  0.0000  0.0000  0.0000  0.0000  0.0000  0.0000  0.0000 </r>
       </set>
       <set comment="band 10">
        <r>  0.0000  0.0000  0.0000  0.0000  0.0000  0.0000  0.0000  0.0000  0.0000 </r>
        <r>  0.0000  0.0000  0.0000  0.0000  0.0000  0.0000  0.0000  0.0000  0.0000 </r>
       </set>
       <set comment="band 11">
        <r>  0.0513  0.0759  0.0000  0.0000  0.0000  0.0000  0.0000  0.0000  0.0000 </r>
        <r>  0.0513  0.0759  0.0000  0.0000  0.0000  0.0000  0.0000  0.0000  0.0000 </r>
       </set>
       <set comment="band 12">
        <r>  0.0027  0.0312  0.0371  0.0016  0.0000  0.0000  0.0000  0.0000  0.0000 </r>
        <r>  0.0082  0.0086  0.0327  0.0079  0.0000  0.0000  0.0000  0.0000  0.0000 </r>
       </set>
      </set>
      <set comment="kpoint 52">
       <set comment="band 1">
        <r>  0.2093  0.0088  0.0000  0.0000  0.0000  0.0000  0.0000  0.0000  0.0000 </r>
        <r>  0.2093  0.0088  0.0000  0.0000  0.0000  0.0000  0.0000  0.0000  0.0000 </r>
       </set>
       <set comment="band 2">
        <r>  0.1430  0.1112  0.0000  0.0000  0.0000  0.0000  0.0000  0.0000  0.0000 </r>
        <r>  0.1430  0.1112  0.0000  0.0000  0.0000  0.0000  0.0000  0.0000  0.0000 </r>
       </set>
       <set comment="band 3">
        <r>  0.0000  0.0000  0.1419  0.0576  0.0000  0.0000  0.0000  0.0000  0.0000 </r>
        <r>  0.0000  0.0000  0.0833  0.1161  0.0000  0.0000  0.0000  0.0000  0.0000 </r>
       </set>
       <set comment="band 4">
        <r>  0.0000  0.0000  0.0576  0.1419  0.0000  0.0000  0.0000  0.0000  0.0000 </r>
        <r>  0.0000  0.0000  0.1161  0.0833  0.0000  0.0000  0.0000  0.0000  0.0000 </r>
       </set>
       <set comment="band 5">
        <r>  0.0378  0.0873  0.0000  0.0000  0.0000  0.0000  0.0000  0.0000  0.0000 </r>
        <r>  0.0378  0.0873  0.0000  0.0000  0.0000  0.0000  0.0000  0.0000  0.0000 </r>
       </set>
       <set comment="band 6">
        <r>  0.0615  0.0452  0.0000  0.0000  0.0000  0.0000  0.0000  0.0000  0.0000 </r>
        <r>  0.0615  0.0452  0.0000  0.0000  0.0000  0.0000  0.0000  0.0000  0.0000 </r>
       </set>
       <set comment="band 7">
        <r>  0.0000  0.0000  0.0816  0.0854  0.0000  0.0000  0.0000  0.0000  0.0000 </r>
        <r>  0.0000  0.0000  0.0854  0.0816  0.0000  0.0000  0.0000  0.0000  0.0000 </r>
       </set>
       <set comment="band 8">
        <r>  0.0000  0.0000  0.0855  0.0816  0.0000  0.0000  0.0000  0.0000  0.0000 </r>
        <r>  0.0000  0.0000  0.0816  0.0854  0.0000  0.0000  0.0000  0.0000  0.0000 </r>
       </set>
       <set comment="band 9">
        <r>  0.1537  0.0759  0.0000  0.0000  0.0000  0.0000  0.0000  0.0000  0.0000 </r>
        <r>  0.1537  0.0759  0.0000  0.0000  0.0000  0.0000  0.0000  0.0000  0.0000 </r>
       </set>
       <set comment="band 10">
        <r>  0.0000  0.0000  0.0000  0.0000  0.0000  0.0000  0.0000  0.0000  0.0000 </r>
        <r>  0.0000  0.0000  0.0000  0.0000  0.0000  0.0000  0.0000  0.0000  0.0000 </r>
       </set>
       <set comment="band 11">
        <r>  0.0466  0.0834  0.0000  0.0000  0.0000  0.0000  0.0000  0.0000  0.0000 </r>
        <r>  0.0466  0.0834  0.0000  0.0000  0.0000  0.0000  0.0000  0.0000  0.0000 </r>
       </set>
       <set comment="band 12">
        <r>  0.0010  0.0127  0.0424  0.0103  0.0000  0.0000  0.0000  0.0000  0.0000 </r>
        <r>  0.0035  0.0037  0.0219  0.0320  0.0000  0.0000  0.0000  0.0000  0.0000 </r>
       </set>
      </set>
      <set comment="kpoint 53">
       <set comment="band 1">
        <r>  0.2088  0.0099  0.0000  0.0000  0.0000  0.0000  0.0000  0.0000  0.0000 </r>
        <r>  0.2088  0.0099  0.0000  0.0000  0.0000  0.0000  0.0000  0.0000  0.0000 </r>
       </set>
       <set comment="band 2">
        <r>  0.1481  0.1067  0.0000  0.0000  0.0000  0.0000  0.0000  0.0000  0.0000 </r>
        <r>  0.1481  0.1067  0.0000  0.0000  0.0000  0.0000  0.0000  0.0000  0.0000 </r>
       </set>
       <set comment="band 3">
        <r>  0.0000  0.0000  0.0589  0.1402  0.0000  0.0000  0.0000  0.0000  0.0000 </r>
        <r>  0.0000  0.0000  0.0932  0.1059  0.0000  0.0000  0.0000  0.0000  0.0000 </r>
       </set>
       <set comment="band 4">
        <r>  0.0000  0.0000  0.1402  0.0589  0.0000  0.0000  0.0000  0.0000  0.0000 </r>
        <r>  0.0000  0.0000  0.1059  0.0932  0.0000  0.0000  0.0000  0.0000  0.0000 </r>
       </set>
       <set comment="band 5">
        <r>  0.0399  0.0830  0.0000  0.0000  0.0000  0.0000  0.0000  0.0000  0.0000 </r>
        <r>  0.0399  0.0830  0.0000  0.0000  0.0000  0.0000  0.0000  0.0000  0.0000 </r>
       </set>
       <set comment="band 6">
        <r>  0.0549  0.0418  0.0000  0.0000  0.0000  0.0000  0.0000  0.0000  0.0000 </r>
        <r>  0.0549  0.0418  0.0000  0.0000  0.0000  0.0000  0.0000  0.0000  0.0000 </r>
       </set>
       <set comment="band 7">
        <r>  0.0000  0.0000  0.0785  0.0885  0.0000  0.0000  0.0000  0.0000  0.0000 </r>
        <r>  0.0000  0.0000  0.0901  0.0769  0.0000  0.0000  0.0000  0.0000  0.0000 </r>
       </set>
       <set comment="band 8">
        <r>  0.0000  0.0000  0.0885  0.0785  0.0000  0.0000  0.0000  0.0000  0.0000 </r>
        <r>  0.0000  0.0000  0.0769  0.0901  0.0000  0.0000  0.0000  0.0000  0.0000 </r>
       </set>
       <set comment="band 9">
        <r>  0.1551  0.0854  0.0000  0.0000  0.0000  0.0000  0.0000  0.0000  0.0000 </r>
        <r>  0.1551  0.0854  0.0000  0.0000  0.0000  0.0000  0.0000  0.0000  0.0000 </r>
       </set>
       <set comment="band 10">
        <r>  0.0000  0.0000  0.0000  0.0000  0.0000  0.0000  0.0000  0.0000  0.0000 </r>
        <r>  0.0000  0.0000  0.0000  0.0000  0.0000  0.0000  0.0000  0.0000  0.0000 </r>
       </set>
       <set comment="band 11">
        <r>  0.0418  0.0912  0.0000  0.0000  0.0000  0.0000  0.0000  0.0000  0.0000 </r>
        <r>  0.0418  0.0912  0.0000  0.0000  0.0000  0.0000  0.0000  0.0000  0.0000 </r>
       </set>
       <set comment="band 12">
        <r>  0.0001  0.0000  0.0257  0.0045  0.0000  0.0000  0.0000  0.0000  0.0000 </r>
        <r>  0.0001  0.0000  0.0245  0.0056  0.0000  0.0000  0.0000  0.0000  0.0000 </r>
       </set>
      </set>
      <set comment="kpoint 54">
       <set comment="band 1">
        <r>  0.2082  0.0112  0.0000  0.0000  0.0000  0.0000  0.0000  0.0000  0.0000 </r>
        <r>  0.2082  0.0112  0.0000  0.0000  0.0000  0.0000  0.0000  0.0000  0.0000 </r>
       </set>
       <set comment="band 2">
        <r>  0.1528  0.1024  0.0000  0.0000  0.0000  0.0000  0.0000  0.0000  0.0000 </r>
        <r>  0.1528  0.1024  0.0000  0.0000  0.0000  0.0000  0.0000  0.0000  0.0000 </r>
       </set>
       <set comment="band 3">
        <r>  0.0000  0.0000  0.1102  0.0885  0.0000  0.0000  0.0000  0.0000  0.0000 </r>
        <r>  0.0000  0.0000  0.1081  0.0907  0.0000  0.0000  0.0000  0.0000  0.0000 </r>
       </set>
       <set comment="band 4">
        <r>  0.0000  0.0000  0.0885  0.1102  0.0000  0.0000  0.0000  0.0000  0.0000 </r>
        <r>  0.0000  0.0000  0.0907  0.1081  0.0000  0.0000  0.0000  0.0000  0.0000 </r>
       </set>
       <set comment="band 5">
        <r>  0.0419  0.0789  0.0000  0.0000  0.0000  0.0000  0.0000  0.0000  0.0000 </r>
        <r>  0.0419  0.0789  0.0000  0.0000  0.0000  0.0000  0.0000  0.0000  0.0000 </r>
       </set>
       <set comment="band 6">
        <r>  0.0504  0.0390  0.0000  0.0000  0.0000  0.0000  0.0000  0.0000  0.0000 </r>
        <r>  0.0504  0.0390  0.0000  0.0000  0.0000  0.0000  0.0000  0.0000  0.0000 </r>
       </set>
       <set comment="band 7">
        <r>  0.0000  0.0000  0.0752  0.0918  0.0000  0.0000  0.0000  0.0000  0.0000 </r>
        <r>  0.0000  0.0000  0.0908  0.0762  0.0000  0.0000  0.0000  0.0000  0.0000 </r>
       </set>
       <set comment="band 8">
        <r>  0.0000  0.0000  0.0918  0.0752  0.0000  0.0000  0.0000  0.0000  0.0000 </r>
        <r>  0.0000  0.0000  0.0762  0.0908  0.0000  0.0000  0.0000  0.0000  0.0000 </r>
       </set>
       <set comment="band 9">
        <r>  0.1547  0.0939  0.0000  0.0000  0.0000  0.0000  0.0000  0.0000  0.0000 </r>
        <r>  0.1547  0.0939  0.0000  0.0000  0.0000  0.0000  0.0000  0.0000  0.0000 </r>
       </set>
       <set comment="band 10">
        <r>  0.0000  0.0000  0.0000  0.0000  0.0000  0.0000  0.0000  0.0000  0.0000 </r>
        <r>  0.0000  0.0000  0.0000  0.0000  0.0000  0.0000  0.0000  0.0000  0.0000 </r>
       </set>
       <set comment="band 11">
        <r>  0.0370  0.0994  0.0000  0.0000  0.0000  0.0000  0.0000  0.0000  0.0000 </r>
        <r>  0.0370  0.0994  0.0000  0.0000  0.0000  0.0000  0.0000  0.0000  0.0000 </r>
       </set>
       <set comment="band 12">
        <r>  0.0000  0.0000  0.0192  0.0104  0.0000  0.0000  0.0000  0.0000  0.0000 </r>
        <r>  0.0000  0.0000  0.0178  0.0117  0.0000  0.0000  0.0000  0.0000  0.0000 </r>
       </set>
      </set>
      <set comment="kpoint 55">
       <set comment="band 1">
        <r>  0.2076  0.0125  0.0000  0.0000  0.0000  0.0000  0.0000  0.0000  0.0000 </r>
        <r>  0.2076  0.0125  0.0000  0.0000  0.0000  0.0000  0.0000  0.0000  0.0000 </r>
       </set>
       <set comment="band 2">
        <r>  0.1570  0.0983  0.0000  0.0000  0.0000  0.0000  0.0000  0.0000  0.0000 </r>
        <r>  0.1570  0.0983  0.0000  0.0000  0.0000  0.0000  0.0000  0.0000  0.0000 </r>
       </set>
       <set comment="band 3">
        <r>  0.0000  0.0000  0.0445  0.1540  0.0000  0.0000  0.0000  0.0000  0.0000 </r>
        <r>  0.0000  0.0000  0.1727  0.0258  0.0000  0.0000  0.0000  0.0000  0.0000 </r>
       </set>
       <set comment="band 4">
        <r>  0.0000  0.0000  0.1540  0.0445  0.0000  0.0000  0.0000  0.0000  0.0000 </r>
        <r>  0.0000  0.0000  0.0258  0.1727  0.0000  0.0000  0.0000  0.0000  0.0000 </r>
       </set>
       <set comment="band 5">
        <r>  0.0437  0.0751  0.0000  0.0000  0.0000  0.0000  0.0000  0.0000  0.0000 </r>
        <r>  0.0437  0.0751  0.0000  0.0000  0.0000  0.0000  0.0000  0.0000  0.0000 </r>
       </set>
       <set comment="band 6">
        <r>  0.0474  0.0368  0.0000  0.0000  0.0000  0.0000  0.0000  0.0000  0.0000 </r>
        <r>  0.0474  0.0368  0.0000  0.0000  0.0000  0.0000  0.0000  0.0000  0.0000 </r>
       </set>
       <set comment="band 7">
        <r>  0.0000  0.0000  0.0919  0.0749  0.0000  0.0000  0.0000  0.0000  0.0000 </r>
        <r>  0.0000  0.0000  0.0757  0.0912  0.0000  0.0000  0.0000  0.0000  0.0000 </r>
       </set>
       <set comment="band 8">
        <r>  0.0000  0.0000  0.0749  0.0919  0.0000  0.0000  0.0000  0.0000  0.0000 </r>
        <r>  0.0000  0.0000  0.0912  0.0757  0.0000  0.0000  0.0000  0.0000  0.0000 </r>
       </set>
       <set comment="band 9">
        <r>  0.1531  0.1019  0.0000  0.0000  0.0000  0.0000  0.0000  0.0000  0.0000 </r>
        <r>  0.1531  0.1019  0.0000  0.0000  0.0000  0.0000  0.0000  0.0000  0.0000 </r>
       </set>
       <set comment="band 10">
        <r>  0.0000  0.0000  0.0000  0.0000  0.0000  0.0000  0.0000  0.0000  0.0000 </r>
        <r>  0.0000  0.0000  0.0000  0.0000  0.0000  0.0000  0.0000  0.0000  0.0000 </r>
       </set>
       <set comment="band 11">
        <r>  0.0321  0.1080  0.0000  0.0000  0.0000  0.0000  0.0000  0.0000  0.0000 </r>
        <r>  0.0321  0.1080  0.0000  0.0000  0.0000  0.0000  0.0000  0.0000  0.0000 </r>
       </set>
       <set comment="band 12">
        <r>  0.0000  0.0000  0.0225  0.0066  0.0000  0.0000  0.0000  0.0000  0.0000 </r>
        <r>  0.0000  0.0000  0.0224  0.0067  0.0000  0.0000  0.0000  0.0000  0.0000 </r>
       </set>
      </set>
      <set comment="kpoint 56">
       <set comment="band 1">
        <r>  0.2070  0.0139  0.0000  0.0000  0.0000  0.0000  0.0000  0.0000  0.0000 </r>
        <r>  0.2070  0.0139  0.0000  0.0000  0.0000  0.0000  0.0000  0.0000  0.0000 </r>
       </set>
       <set comment="band 2">
        <r>  0.1609  0.0943  0.0000  0.0000  0.0000  0.0000  0.0000  0.0000  0.0000 </r>
        <r>  0.1609  0.0943  0.0000  0.0000  0.0000  0.0000  0.0000  0.0000  0.0000 </r>
       </set>
       <set comment="band 3">
        <r>  0.0000  0.0000  0.1686  0.0297  0.0000  0.0000  0.0000  0.0000  0.0000 </r>
        <r>  0.0000  0.0000  0.0049  0.1934  0.0000  0.0000  0.0000  0.0000  0.0000 </r>
       </set>
       <set comment="band 4">
        <r>  0.0000  0.0000  0.0297  0.1686  0.0000  0.0000  0.0000  0.0000  0.0000 </r>
        <r>  0.0000  0.0000  0.1934  0.0049  0.0000  0.0000  0.0000  0.0000  0.0000 </r>
       </set>
       <set comment="band 5">
        <r>  0.0454  0.0714  0.0000  0.0000  0.0000  0.0000  0.0000  0.0000  0.0000 </r>
        <r>  0.0454  0.0714  0.0000  0.0000  0.0000  0.0000  0.0000  0.0000  0.0000 </r>
       </set>
       <set comment="band 6">
        <r>  0.0455  0.0350  0.0000  0.0000  0.0000  0.0000  0.0000  0.0000  0.0000 </r>
        <r>  0.0455  0.0350  0.0000  0.0000  0.0000  0.0000  0.0000  0.0000  0.0000 </r>
       </set>
       <set comment="band 7">
        <r>  0.0000  0.0000  0.0893  0.0773  0.0000  0.0000  0.0000  0.0000  0.0000 </r>
        <r>  0.0000  0.0000  0.0764  0.0902  0.0000  0.0000  0.0000  0.0000  0.0000 </r>
       </set>
       <set comment="band 8">
        <r>  0.0000  0.0000  0.0773  0.0893  0.0000  0.0000  0.0000  0.0000  0.0000 </r>
        <r>  0.0000  0.0000  0.0902  0.0764  0.0000  0.0000  0.0000  0.0000  0.0000 </r>
       </set>
       <set comment="band 9">
        <r>  0.1506  0.1094  0.0000  0.0000  0.0000  0.0000  0.0000  0.0000  0.0000 </r>
        <r>  0.1506  0.1094  0.0000  0.0000  0.0000  0.0000  0.0000  0.0000  0.0000 </r>
       </set>
       <set comment="band 10">
        <r>  0.0000  0.0000  0.0000  0.0000  0.0000  0.0000  0.0000  0.0000  0.0000 </r>
        <r>  0.0000  0.0000  0.0000  0.0000  0.0000  0.0000  0.0000  0.0000  0.0000 </r>
       </set>
       <set comment="band 11">
        <r>  0.0272  0.1171  0.0000  0.0000  0.0000  0.0000  0.0000  0.0000  0.0000 </r>
        <r>  0.0272  0.1171  0.0000  0.0000  0.0000  0.0000  0.0000  0.0000  0.0000 </r>
       </set>
       <set comment="band 12">
        <r>  0.0004  0.0001  0.0280  0.0001  0.0000  0.0000  0.0000  0.0000  0.0000 </r>
        <r>  0.0004  0.0001  0.0273  0.0008  0.0000  0.0000  0.0000  0.0000  0.0000 </r>
       </set>
      </set>
      <set comment="kpoint 57">
       <set comment="band 1">
        <r>  0.2063  0.0154  0.0000  0.0000  0.0000  0.0000  0.0000  0.0000  0.0000 </r>
        <r>  0.2063  0.0154  0.0000  0.0000  0.0000  0.0000  0.0000  0.0000  0.0000 </r>
       </set>
       <set comment="band 2">
        <r>  0.1644  0.0906  0.0000  0.0000  0.0000  0.0000  0.0000  0.0000  0.0000 </r>
        <r>  0.1644  0.0906  0.0000  0.0000  0.0000  0.0000  0.0000  0.0000  0.0000 </r>
       </set>
       <set comment="band 3">
        <r>  0.0000  0.0000  0.1582  0.0399  0.0000  0.0000  0.0000  0.0000  0.0000 </r>
        <r>  0.0000  0.0000  0.0591  0.1390  0.0000  0.0000  0.0000  0.0000  0.0000 </r>
       </set>
       <set comment="band 4">
        <r>  0.0000  0.0000  0.0399  0.1582  0.0000  0.0000  0.0000  0.0000  0.0000 </r>
        <r>  0.0000  0.0000  0.1390  0.0591  0.0000  0.0000  0.0000  0.0000  0.0000 </r>
       </set>
       <set comment="band 5">
        <r>  0.0469  0.0679  0.0000  0.0000  0.0000  0.0000  0.0000  0.0000  0.0000 </r>
        <r>  0.0469  0.0679  0.0000  0.0000  0.0000  0.0000  0.0000  0.0000  0.0000 </r>
       </set>
       <set comment="band 6">
        <r>  0.0443  0.0336  0.0000  0.0000  0.0000  0.0000  0.0000  0.0000  0.0000 </r>
        <r>  0.0443  0.0336  0.0000  0.0000  0.0000  0.0000  0.0000  0.0000  0.0000 </r>
       </set>
       <set comment="band 7">
        <r>  0.0000  0.0000  0.0842  0.0822  0.0000  0.0000  0.0000  0.0000  0.0000 </r>
        <r>  0.0000  0.0000  0.0823  0.0840  0.0000  0.0000  0.0000  0.0000  0.0000 </r>
       </set>
       <set comment="band 8">
        <r>  0.0000  0.0000  0.0822  0.0842  0.0000  0.0000  0.0000  0.0000  0.0000 </r>
        <r>  0.0000  0.0000  0.0840  0.0823  0.0000  0.0000  0.0000  0.0000  0.0000 </r>
       </set>
       <set comment="band 9">
        <r>  0.1475  0.1165  0.0000  0.0000  0.0000  0.0000  0.0000  0.0000  0.0000 </r>
        <r>  0.1475  0.1165  0.0000  0.0000  0.0000  0.0000  0.0000  0.0000  0.0000 </r>
       </set>
       <set comment="band 10">
        <r>  0.0000  0.0000  0.0000  0.0000  0.0000  0.0000  0.0000  0.0000  0.0000 </r>
        <r>  0.0000  0.0000  0.0000  0.0000  0.0000  0.0000  0.0000  0.0000  0.0000 </r>
       </set>
       <set comment="band 11">
        <r>  0.0222  0.1269  0.0000  0.0000  0.0000  0.0000  0.0000  0.0000  0.0000 </r>
        <r>  0.0223  0.1268  0.0000  0.0000  0.0000  0.0000  0.0000  0.0000  0.0000 </r>
       </set>
       <set comment="band 12">
        <r>  0.0000  0.0000  0.0227  0.0073  0.0000  0.0000  0.0000  0.0000  0.0000 </r>
        <r>  0.0000  0.0000  0.0118  0.0183  0.0000  0.0000  0.0000  0.0000  0.0000 </r>
       </set>
      </set>
      <set comment="kpoint 58">
       <set comment="band 1">
        <r>  0.2056  0.0170  0.0000  0.0000  0.0000  0.0000  0.0000  0.0000  0.0000 </r>
        <r>  0.2056  0.0170  0.0000  0.0000  0.0000  0.0000  0.0000  0.0000  0.0000 </r>
       </set>
       <set comment="band 2">
        <r>  0.1676  0.0869  0.0000  0.0000  0.0000  0.0000  0.0000  0.0000  0.0000 </r>
        <r>  0.1676  0.0869  0.0000  0.0000  0.0000  0.0000  0.0000  0.0000  0.0000 </r>
       </set>
       <set comment="band 3">
        <r>  0.0000  0.0000  0.0531  0.1449  0.0000  0.0000  0.0000  0.0000  0.0000 </r>
        <r>  0.0000  0.0000  0.1700  0.0280  0.0000  0.0000  0.0000  0.0000  0.0000 </r>
       </set>
       <set comment="band 4">
        <r>  0.0000  0.0000  0.1449  0.0531  0.0000  0.0000  0.0000  0.0000  0.0000 </r>
        <r>  0.0000  0.0000  0.0280  0.1700  0.0000  0.0000  0.0000  0.0000  0.0000 </r>
       </set>
       <set comment="band 5">
        <r>  0.0482  0.0646  0.0000  0.0000  0.0000  0.0000  0.0000  0.0000  0.0000 </r>
        <r>  0.0482  0.0646  0.0000  0.0000  0.0000  0.0000  0.0000  0.0000  0.0000 </r>
       </set>
       <set comment="band 6">
        <r>  0.0437  0.0324  0.0000  0.0000  0.0000  0.0000  0.0000  0.0000  0.0000 </r>
        <r>  0.0437  0.0324  0.0000  0.0000  0.0000  0.0000  0.0000  0.0000  0.0000 </r>
       </set>
       <set comment="band 7">
        <r>  0.0000  0.0000  0.0924  0.0736  0.0000  0.0000  0.0000  0.0000  0.0000 </r>
        <r>  0.0000  0.0000  0.0798  0.0862  0.0000  0.0000  0.0000  0.0000  0.0000 </r>
       </set>
       <set comment="band 8">
        <r>  0.0000  0.0000  0.0736  0.0924  0.0000  0.0000  0.0000  0.0000  0.0000 </r>
        <r>  0.0000  0.0000  0.0862  0.0798  0.0000  0.0000  0.0000  0.0000  0.0000 </r>
       </set>
       <set comment="band 9">
        <r>  0.1440  0.1234  0.0000  0.0000  0.0000  0.0000  0.0000  0.0000  0.0000 </r>
        <r>  0.1440  0.1234  0.0000  0.0000  0.0000  0.0000  0.0000  0.0000  0.0000 </r>
       </set>
       <set comment="band 10">
        <r>  0.0000  0.0000  0.0000  0.0000  0.0000  0.0000  0.0000  0.0000  0.0000 </r>
        <r>  0.0000  0.0000  0.0000  0.0000  0.0000  0.0000  0.0000  0.0000  0.0000 </r>
       </set>
       <set comment="band 11">
        <r>  0.0173  0.1374  0.0000  0.0000  0.0000  0.0000  0.0000  0.0000  0.0000 </r>
        <r>  0.0174  0.1372  0.0000  0.0000  0.0000  0.0000  0.0000  0.0000  0.0000 </r>
       </set>
       <set comment="band 12">
        <r>  0.0000  0.0000  0.0266  0.0059  0.0000  0.0000  0.0000  0.0000  0.0000 </r>
        <r>  0.0000  0.0000  0.0304  0.0021  0.0000  0.0000  0.0000  0.0000  0.0000 </r>
       </set>
      </set>
      <set comment="kpoint 59">
       <set comment="band 1">
        <r>  0.2049  0.0186  0.0000  0.0000  0.0000  0.0000  0.0000  0.0000  0.0000 </r>
        <r>  0.2049  0.0186  0.0000  0.0000  0.0000  0.0000  0.0000  0.0000  0.0000 </r>
       </set>
       <set comment="band 2">
        <r>  0.1706  0.0834  0.0000  0.0000  0.0000  0.0000  0.0000  0.0000  0.0000 </r>
        <r>  0.1706  0.0834  0.0000  0.0000  0.0000  0.0000  0.0000  0.0000  0.0000 </r>
       </set>
       <set comment="band 3">
        <r>  0.0000  0.0000  0.1902  0.0077  0.0000  0.0000  0.0000  0.0000  0.0000 </r>
        <r>  0.0000  0.0000  0.0200  0.1779  0.0000  0.0000  0.0000  0.0000  0.0000 </r>
       </set>
       <set comment="band 4">
        <r>  0.0000  0.0000  0.0077  0.1902  0.0000  0.0000  0.0000  0.0000  0.0000 </r>
        <r>  0.0000  0.0000  0.1779  0.0200  0.0000  0.0000  0.0000  0.0000  0.0000 </r>
       </set>
       <set comment="band 5">
        <r>  0.0493  0.0615  0.0000  0.0000  0.0000  0.0000  0.0000  0.0000  0.0000 </r>
        <r>  0.0493  0.0615  0.0000  0.0000  0.0000  0.0000  0.0000  0.0000  0.0000 </r>
       </set>
       <set comment="band 6">
        <r>  0.0434  0.0315  0.0000  0.0000  0.0000  0.0000  0.0000  0.0000  0.0000 </r>
        <r>  0.0434  0.0315  0.0000  0.0000  0.0000  0.0000  0.0000  0.0000  0.0000 </r>
       </set>
       <set comment="band 7">
        <r>  0.0000  0.0000  0.0812  0.0844  0.0000  0.0000  0.0000  0.0000  0.0000 </r>
        <r>  0.0000  0.0000  0.0838  0.0818  0.0000  0.0000  0.0000  0.0000  0.0000 </r>
       </set>
       <set comment="band 8">
        <r>  0.0000  0.0000  0.0844  0.0812  0.0000  0.0000  0.0000  0.0000  0.0000 </r>
        <r>  0.0000  0.0000  0.0818  0.0838  0.0000  0.0000  0.0000  0.0000  0.0000 </r>
       </set>
       <set comment="band 9">
        <r>  0.1400  0.1301  0.0000  0.0000  0.0000  0.0000  0.0000  0.0000  0.0000 </r>
        <r>  0.1400  0.1301  0.0000  0.0000  0.0000  0.0000  0.0000  0.0000  0.0000 </r>
       </set>
       <set comment="band 10">
        <r>  0.0000  0.0000  0.0000  0.0000  0.0000  0.0000  0.0000  0.0000  0.0000 </r>
        <r>  0.0000  0.0000  0.0000  0.0000  0.0000  0.0000  0.0000  0.0000  0.0000 </r>
       </set>
       <set comment="band 11">
        <r>  0.0126  0.1485  0.0000  0.0000  0.0000  0.0000  0.0000  0.0000  0.0000 </r>
        <r>  0.0126  0.1485  0.0000  0.0000  0.0000  0.0000  0.0000  0.0000  0.0000 </r>
       </set>
       <set comment="band 12">
        <r>  0.0000  0.0000  0.0315  0.0058  0.0000  0.0000  0.0000  0.0000  0.0000 </r>
        <r>  0.0000  0.0000  0.0256  0.0117  0.0000  0.0000  0.0000  0.0000  0.0000 </r>
       </set>
      </set>
      <set comment="kpoint 60">
       <set comment="band 1">
        <r>  0.2042  0.0203  0.0000  0.0000  0.0000  0.0000  0.0000  0.0000  0.0000 </r>
        <r>  0.2042  0.0203  0.0000  0.0000  0.0000  0.0000  0.0000  0.0000  0.0000 </r>
       </set>
       <set comment="band 2">
        <r>  0.1733  0.0801  0.0000  0.0000  0.0000  0.0000  0.0000  0.0000  0.0000 </r>
        <r>  0.1733  0.0801  0.0000  0.0000  0.0000  0.0000  0.0000  0.0000  0.0000 </r>
       </set>
       <set comment="band 3">
        <r>  0.0000  0.0000  0.0400  0.1578  0.0000  0.0000  0.0000  0.0000  0.0000 </r>
        <r>  0.0000  0.0000  0.1687  0.0292  0.0000  0.0000  0.0000  0.0000  0.0000 </r>
       </set>
       <set comment="band 4">
        <r>  0.0000  0.0000  0.1578  0.0400  0.0000  0.0000  0.0000  0.0000  0.0000 </r>
        <r>  0.0000  0.0000  0.0292  0.1687  0.0000  0.0000  0.0000  0.0000  0.0000 </r>
       </set>
       <set comment="band 5">
        <r>  0.0503  0.0586  0.0000  0.0000  0.0000  0.0000  0.0000  0.0000  0.0000 </r>
        <r>  0.0503  0.0586  0.0000  0.0000  0.0000  0.0000  0.0000  0.0000  0.0000 </r>
       </set>
       <set comment="band 6">
        <r>  0.0435  0.0308  0.0000  0.0000  0.0000  0.0000  0.0000  0.0000  0.0000 </r>
        <r>  0.0435  0.0308  0.0000  0.0000  0.0000  0.0000  0.0000  0.0000  0.0000 </r>
       </set>
       <set comment="band 7">
        <r>  0.0000  0.0000  0.0844  0.0809  0.0000  0.0000  0.0000  0.0000  0.0000 </r>
        <r>  0.0000  0.0000  0.0809  0.0844  0.0000  0.0000  0.0000  0.0000  0.0000 </r>
       </set>
       <set comment="band 8">
        <r>  0.0000  0.0000  0.0809  0.0844  0.0000  0.0000  0.0000  0.0000  0.0000 </r>
        <r>  0.0000  0.0000  0.0844  0.0809  0.0000  0.0000  0.0000  0.0000  0.0000 </r>
       </set>
       <set comment="band 9">
        <r>  0.1357  0.1366  0.0000  0.0000  0.0000  0.0000  0.0000  0.0000  0.0000 </r>
        <r>  0.1357  0.1366  0.0000  0.0000  0.0000  0.0000  0.0000  0.0000  0.0000 </r>
       </set>
       <set comment="band 10">
        <r>  0.0000  0.0000  0.0000  0.0000  0.0000  0.0000  0.0000  0.0000  0.0000 </r>
        <r>  0.0000  0.0000  0.0000  0.0000  0.0000  0.0000  0.0000  0.0000  0.0000 </r>
       </set>
       <set comment="band 11">
        <r>  0.0082  0.1605  0.0000  0.0000  0.0000  0.0000  0.0000  0.0000  0.0000 </r>
        <r>  0.0082  0.1605  0.0000  0.0000  0.0000  0.0000  0.0000  0.0000  0.0000 </r>
       </set>
       <set comment="band 12">
        <r>  0.0000  0.0000  0.0095  0.0345  0.0000  0.0000  0.0000  0.0000  0.0000 </r>
        <r>  0.0000  0.0000  0.0419  0.0021  0.0000  0.0000  0.0000  0.0000  0.0000 </r>
       </set>
      </set>
      <set comment="kpoint 61">
       <set comment="band 1">
        <r>  0.2034  0.0220  0.0000  0.0000  0.0000  0.0000  0.0000  0.0000  0.0000 </r>
        <r>  0.2034  0.0220  0.0000  0.0000  0.0000  0.0000  0.0000  0.0000  0.0000 </r>
       </set>
       <set comment="band 2">
        <r>  0.1757  0.0768  0.0000  0.0000  0.0000  0.0000  0.0000  0.0000  0.0000 </r>
        <r>  0.1757  0.0768  0.0000  0.0000  0.0000  0.0000  0.0000  0.0000  0.0000 </r>
       </set>
       <set comment="band 3">
        <r>  0.0000  0.0000  0.1517  0.0461  0.0000  0.0000  0.0000  0.0000  0.0000 </r>
        <r>  0.0000  0.0000  0.0501  0.1477  0.0000  0.0000  0.0000  0.0000  0.0000 </r>
       </set>
       <set comment="band 4">
        <r>  0.0000  0.0000  0.0461  0.1517  0.0000  0.0000  0.0000  0.0000  0.0000 </r>
        <r>  0.0000  0.0000  0.1477  0.0501  0.0000  0.0000  0.0000  0.0000  0.0000 </r>
       </set>
       <set comment="band 5">
        <r>  0.0512  0.0558  0.0000  0.0000  0.0000  0.0000  0.0000  0.0000  0.0000 </r>
        <r>  0.0512  0.0558  0.0000  0.0000  0.0000  0.0000  0.0000  0.0000  0.0000 </r>
       </set>
       <set comment="band 6">
        <r>  0.0439  0.0304  0.0000  0.0000  0.0000  0.0000  0.0000  0.0000  0.0000 </r>
        <r>  0.0439  0.0304  0.0000  0.0000  0.0000  0.0000  0.0000  0.0000  0.0000 </r>
       </set>
       <set comment="band 7">
        <r>  0.0000  0.0000  0.0810  0.0839  0.0000  0.0000  0.0000  0.0000  0.0000 </r>
        <r>  0.0000  0.0000  0.0826  0.0824  0.0000  0.0000  0.0000  0.0000  0.0000 </r>
       </set>
       <set comment="band 8">
        <r>  0.0000  0.0000  0.0839  0.0810  0.0000  0.0000  0.0000  0.0000  0.0000 </r>
        <r>  0.0000  0.0000  0.0824  0.0826  0.0000  0.0000  0.0000  0.0000  0.0000 </r>
       </set>
       <set comment="band 9">
        <r>  0.0000  0.0000  0.0000  0.0000  0.0000  0.0000  0.0000  0.0000  0.0000 </r>
        <r>  0.0000  0.0000  0.0000  0.0000  0.0000  0.0000  0.0000  0.0000  0.0000 </r>
       </set>
       <set comment="band 10">
        <r>  0.1310  0.1430  0.0000  0.0000  0.0000  0.0000  0.0000  0.0000  0.0000 </r>
        <r>  0.1310  0.1430  0.0000  0.0000  0.0000  0.0000  0.0000  0.0000  0.0000 </r>
       </set>
       <set comment="band 11">
        <r>  0.0039  0.1566  0.0027  0.0022  0.0000  0.0000  0.0000  0.0000  0.0000 </r>
        <r>  0.0039  0.1567  0.0025  0.0024  0.0000  0.0000  0.0000  0.0000  0.0000 </r>
       </set>
       <set comment="band 12">
        <r>  0.0021  0.0024  0.0069  0.0881  0.0000  0.0000  0.0000  0.0000  0.0000 </r>
        <r>  0.0013  0.0038  0.0044  0.0630  0.0000  0.0000  0.0000  0.0000  0.0000 </r>
       </set>
      </set>
      <set comment="kpoint 62">
       <set comment="band 1">
        <r>  0.2027  0.0238  0.0000  0.0000  0.0000  0.0000  0.0000  0.0000  0.0000 </r>
        <r>  0.2027  0.0238  0.0000  0.0000  0.0000  0.0000  0.0000  0.0000  0.0000 </r>
       </set>
       <set comment="band 2">
        <r>  0.1780  0.0735  0.0000  0.0000  0.0000  0.0000  0.0000  0.0000  0.0000 </r>
        <r>  0.1780  0.0735  0.0000  0.0000  0.0000  0.0000  0.0000  0.0000  0.0000 </r>
       </set>
       <set comment="band 3">
        <r>  0.0000  0.0000  0.0842  0.1136  0.0000  0.0000  0.0000  0.0000  0.0000 </r>
        <r>  0.0000  0.0000  0.1043  0.0934  0.0000  0.0000  0.0000  0.0000  0.0000 </r>
       </set>
       <set comment="band 4">
        <r>  0.0000  0.0000  0.1136  0.0842  0.0000  0.0000  0.0000  0.0000  0.0000 </r>
        <r>  0.0000  0.0000  0.0934  0.1043  0.0000  0.0000  0.0000  0.0000  0.0000 </r>
       </set>
       <set comment="band 5">
        <r>  0.0519  0.0532  0.0000  0.0000  0.0000  0.0000  0.0000  0.0000  0.0000 </r>
        <r>  0.0519  0.0532  0.0000  0.0000  0.0000  0.0000  0.0000  0.0000  0.0000 </r>
       </set>
       <set comment="band 6">
        <r>  0.0444  0.0301  0.0000  0.0000  0.0000  0.0000  0.0000  0.0000  0.0000 </r>
        <r>  0.0444  0.0301  0.0000  0.0000  0.0000  0.0000  0.0000  0.0000  0.0000 </r>
       </set>
       <set comment="band 7">
        <r>  0.0000  0.0000  0.0855  0.0793  0.0000  0.0000  0.0000  0.0000  0.0000 </r>
        <r>  0.0000  0.0000  0.0793  0.0855  0.0000  0.0000  0.0000  0.0000  0.0000 </r>
       </set>
       <set comment="band 8">
        <r>  0.0000  0.0000  0.0793  0.0855  0.0000  0.0000  0.0000  0.0000  0.0000 </r>
        <r>  0.0000  0.0000  0.0855  0.0793  0.0000  0.0000  0.0000  0.0000  0.0000 </r>
       </set>
       <set comment="band 9">
        <r>  0.0000  0.0000  0.0000  0.0000  0.0000  0.0000  0.0000  0.0000  0.0000 </r>
        <r>  0.0000  0.0000  0.0000  0.0000  0.0000  0.0000  0.0000  0.0000  0.0000 </r>
       </set>
       <set comment="band 10">
        <r>  0.1260  0.1492  0.0000  0.0000  0.0000  0.0000  0.0000  0.0000  0.0000 </r>
        <r>  0.1260  0.1493  0.0000  0.0000  0.0000  0.0000  0.0000  0.0000  0.0000 </r>
       </set>
       <set comment="band 11">
        <r>  0.0000  0.0000  0.0092  0.0505  0.0000  0.0000  0.0000  0.0000  0.0000 </r>
        <r>  0.0000  0.0000  0.0451  0.0145  0.0000  0.0000  0.0000  0.0000  0.0000 </r>
       </set>
       <set comment="band 12">
        <r>  0.0014  0.1787  0.0019  0.0003  0.0000  0.0000  0.0000  0.0000  0.0000 </r>
        <r>  0.0014  0.1791  0.0006  0.0017  0.0000  0.0000  0.0000  0.0000  0.0000 </r>
       </set>
      </set>
      <set comment="kpoint 63">
       <set comment="band 1">
        <r>  0.2018  0.0257  0.0000  0.0000  0.0000  0.0000  0.0000  0.0000  0.0000 </r>
        <r>  0.2018  0.0257  0.0000  0.0000  0.0000  0.0000  0.0000  0.0000  0.0000 </r>
       </set>
       <set comment="band 2">
        <r>  0.1801  0.0704  0.0000  0.0000  0.0000  0.0000  0.0000  0.0000  0.0000 </r>
        <r>  0.1800  0.0704  0.0000  0.0000  0.0000  0.0000  0.0000  0.0000  0.0000 </r>
       </set>
       <set comment="band 3">
        <r>  0.0000  0.0000  0.1220  0.0757  0.0000  0.0000  0.0000  0.0000  0.0000 </r>
        <r>  0.0000  0.0000  0.0945  0.1032  0.0000  0.0000  0.0000  0.0000  0.0000 </r>
       </set>
       <set comment="band 4">
        <r>  0.0000  0.0000  0.0757  0.1220  0.0000  0.0000  0.0000  0.0000  0.0000 </r>
        <r>  0.0000  0.0000  0.1032  0.0945  0.0000  0.0000  0.0000  0.0000  0.0000 </r>
       </set>
       <set comment="band 5">
        <r>  0.0524  0.0507  0.0000  0.0000  0.0000  0.0000  0.0000  0.0000  0.0000 </r>
        <r>  0.0524  0.0507  0.0000  0.0000  0.0000  0.0000  0.0000  0.0000  0.0000 </r>
       </set>
       <set comment="band 6">
        <r>  0.0450  0.0299  0.0000  0.0000  0.0000  0.0000  0.0000  0.0000  0.0000 </r>
        <r>  0.0450  0.0299  0.0000  0.0000  0.0000  0.0000  0.0000  0.0000  0.0000 </r>
       </set>
       <set comment="band 7">
        <r>  0.0000  0.0000  0.0577  0.1071  0.0000  0.0000  0.0000  0.0000  0.0000 </r>
        <r>  0.0000  0.0000  0.1063  0.0586  0.0000  0.0000  0.0000  0.0000  0.0000 </r>
       </set>
       <set comment="band 8">
        <r>  0.0000  0.0000  0.1071  0.0577  0.0000  0.0000  0.0000  0.0000  0.0000 </r>
        <r>  0.0000  0.0000  0.0586  0.1062  0.0000  0.0000  0.0000  0.0000  0.0000 </r>
       </set>
       <set comment="band 9">
        <r>  0.0000  0.0000  0.0000  0.0000  0.0000  0.0000  0.0000  0.0000  0.0000 </r>
        <r>  0.0000  0.0000  0.0000  0.0000  0.0000  0.0000  0.0000  0.0000  0.0000 </r>
       </set>
       <set comment="band 10">
        <r>  0.1207  0.1555  0.0000  0.0000  0.0000  0.0000  0.0000  0.0000  0.0000 </r>
        <r>  0.1207  0.1555  0.0000  0.0000  0.0000  0.0000  0.0000  0.0000  0.0000 </r>
       </set>
       <set comment="band 11">
        <r>  0.0000  0.0012  0.0098  0.0560  0.0000  0.0000  0.0000  0.0000  0.0000 </r>
        <r>  0.0000  0.0012  0.0468  0.0190  0.0000  0.0000  0.0000  0.0000  0.0000 </r>
       </set>
       <set comment="band 12">
        <r>  0.0035  0.0167  0.0000  0.0511  0.0000  0.0000  0.0000  0.0000  0.0000 </r>
        <r>  0.0018  0.0157  0.0034  0.0515  0.0000  0.0000  0.0000  0.0000  0.0000 </r>
       </set>
      </set>
      <set comment="kpoint 64">
       <set comment="band 1">
        <r>  0.2010  0.0276  0.0000  0.0000  0.0000  0.0000  0.0000  0.0000  0.0000 </r>
        <r>  0.2010  0.0276  0.0000  0.0000  0.0000  0.0000  0.0000  0.0000  0.0000 </r>
       </set>
       <set comment="band 2">
        <r>  0.1820  0.0674  0.0000  0.0000  0.0000  0.0000  0.0000  0.0000  0.0000 </r>
        <r>  0.1819  0.0674  0.0000  0.0000  0.0000  0.0000  0.0000  0.0000  0.0000 </r>
       </set>
       <set comment="band 3">
        <r>  0.0000  0.0000  0.0100  0.1877  0.0000  0.0000  0.0000  0.0000  0.0000 </r>
        <r>  0.0000  0.0000  0.1938  0.0039  0.0000  0.0000  0.0000  0.0000  0.0000 </r>
       </set>
       <set comment="band 4">
        <r>  0.0000  0.0000  0.1877  0.0100  0.0000  0.0000  0.0000  0.0000  0.0000 </r>
        <r>  0.0000  0.0000  0.0039  0.1938  0.0000  0.0000  0.0000  0.0000  0.0000 </r>
       </set>
       <set comment="band 5">
        <r>  0.0528  0.0484  0.0000  0.0000  0.0000  0.0000  0.0000  0.0000  0.0000 </r>
        <r>  0.0528  0.0484  0.0000  0.0000  0.0000  0.0000  0.0000  0.0000  0.0000 </r>
       </set>
       <set comment="band 6">
        <r>  0.0458  0.0299  0.0000  0.0000  0.0000  0.0000  0.0000  0.0000  0.0000 </r>
        <r>  0.0458  0.0299  0.0000  0.0000  0.0000  0.0000  0.0000  0.0000  0.0000 </r>
       </set>
       <set comment="band 7">
        <r>  0.0000  0.0000  0.0136  0.1515  0.0000  0.0000  0.0000  0.0000  0.0000 </r>
        <r>  0.0000  0.0000  0.1513  0.0138  0.0000  0.0000  0.0000  0.0000  0.0000 </r>
       </set>
       <set comment="band 8">
        <r>  0.0000  0.0000  0.1515  0.0136  0.0000  0.0000  0.0000  0.0000  0.0000 </r>
        <r>  0.0000  0.0000  0.0138  0.1513  0.0000  0.0000  0.0000  0.0000  0.0000 </r>
       </set>
       <set comment="band 9">
        <r>  0.0000  0.0000  0.0000  0.0000  0.0000  0.0000  0.0000  0.0000  0.0000 </r>
        <r>  0.0000  0.0000  0.0000  0.0000  0.0000  0.0000  0.0000  0.0000  0.0000 </r>
       </set>
       <set comment="band 10">
        <r>  0.1151  0.1616  0.0000  0.0000  0.0000  0.0000  0.0000  0.0000  0.0000 </r>
        <r>  0.1151  0.1617  0.0000  0.0000  0.0000  0.0000  0.0000  0.0000  0.0000 </r>
       </set>
       <set comment="band 11">
        <r>  0.0000  0.0000  0.0337  0.0376  0.0000  0.0000  0.0000  0.0000  0.0000 </r>
        <r>  0.0000  0.0000  0.0165  0.0549  0.0000  0.0000  0.0000  0.0000  0.0000 </r>
       </set>
       <set comment="band 12">
        <r>  0.0005  0.2015  0.0013  0.0013  0.0000  0.0000  0.0000  0.0000  0.0000 </r>
        <r>  0.0005  0.2013  0.0019  0.0006  0.0000  0.0000  0.0000  0.0000  0.0000 </r>
       </set>
      </set>
      <set comment="kpoint 65">
       <set comment="band 1">
        <r>  0.2001  0.0296  0.0000  0.0000  0.0000  0.0000  0.0000  0.0000  0.0000 </r>
        <r>  0.2001  0.0296  0.0000  0.0000  0.0000  0.0000  0.0000  0.0000  0.0000 </r>
       </set>
       <set comment="band 2">
        <r>  0.1837  0.0644  0.0000  0.0000  0.0000  0.0000  0.0000  0.0000  0.0000 </r>
        <r>  0.1837  0.0644  0.0000  0.0000  0.0000  0.0000  0.0000  0.0000  0.0000 </r>
       </set>
       <set comment="band 3">
        <r>  0.0000  0.0000  0.1962  0.0015  0.0000  0.0000  0.0000  0.0000  0.0000 </r>
        <r>  0.0000  0.0000  0.0003  0.1974  0.0000  0.0000  0.0000  0.0000  0.0000 </r>
       </set>
       <set comment="band 4">
        <r>  0.0000  0.0000  0.0015  0.1962  0.0000  0.0000  0.0000  0.0000  0.0000 </r>
        <r>  0.0000  0.0000  0.1974  0.0003  0.0000  0.0000  0.0000  0.0000  0.0000 </r>
       </set>
       <set comment="band 5">
        <r>  0.0531  0.0462  0.0000  0.0000  0.0000  0.0000  0.0000  0.0000  0.0000 </r>
        <r>  0.0531  0.0462  0.0000  0.0000  0.0000  0.0000  0.0000  0.0000  0.0000 </r>
       </set>
       <set comment="band 6">
        <r>  0.0465  0.0300  0.0000  0.0000  0.0000  0.0000  0.0000  0.0000  0.0000 </r>
        <r>  0.0465  0.0300  0.0000  0.0000  0.0000  0.0000  0.0000  0.0000  0.0000 </r>
       </set>
       <set comment="band 7">
        <r>  0.0000  0.0000  0.0835  0.0824  0.0000  0.0000  0.0000  0.0000  0.0000 </r>
        <r>  0.0000  0.0000  0.1286  0.0374  0.0000  0.0000  0.0000  0.0000  0.0000 </r>
       </set>
       <set comment="band 8">
        <r>  0.0000  0.0000  0.0824  0.0835  0.0000  0.0000  0.0000  0.0000  0.0000 </r>
        <r>  0.0000  0.0000  0.0374  0.1285  0.0000  0.0000  0.0000  0.0000  0.0000 </r>
       </set>
       <set comment="band 9">
        <r>  0.0000  0.0000  0.0000  0.0000  0.0000  0.0000  0.0000  0.0000  0.0000 </r>
        <r>  0.0000  0.0000  0.0000  0.0000  0.0000  0.0000  0.0000  0.0000  0.0000 </r>
       </set>
       <set comment="band 10">
        <r>  0.1091  0.1677  0.0000  0.0000  0.0000  0.0000  0.0000  0.0000  0.0000 </r>
        <r>  0.1091  0.1678  0.0000  0.0000  0.0000  0.0000  0.0000  0.0000  0.0000 </r>
       </set>
       <set comment="band 11">
        <r>  0.0000  0.0000  0.0210  0.0537  0.0000  0.0000  0.0000  0.0000  0.0000 </r>
        <r>  0.0000  0.0000  0.0232  0.0516  0.0000  0.0000  0.0000  0.0000  0.0000 </r>
       </set>
       <set comment="band 12">
        <r>  0.0028  0.0080  0.0059  0.0184  0.0000  0.0000  0.0000  0.0000  0.0000 </r>
        <r>  0.0094  0.0005  0.0017  0.0213  0.0000  0.0000  0.0000  0.0000  0.0000 </r>
       </set>
      </set>
      <set comment="kpoint 66">
       <set comment="band 1">
        <r>  0.1993  0.0317  0.0000  0.0000  0.0000  0.0000  0.0000  0.0000  0.0000 </r>
        <r>  0.1993  0.0317  0.0000  0.0000  0.0000  0.0000  0.0000  0.0000  0.0000 </r>
       </set>
       <set comment="band 2">
        <r>  0.1854  0.0615  0.0000  0.0000  0.0000  0.0000  0.0000  0.0000  0.0000 </r>
        <r>  0.1854  0.0615  0.0000  0.0000  0.0000  0.0000  0.0000  0.0000  0.0000 </r>
       </set>
       <set comment="band 3">
        <r>  0.0000  0.0000  0.0654  0.1322  0.0000  0.0000  0.0000  0.0000  0.0000 </r>
        <r>  0.0000  0.0000  0.1292  0.0684  0.0000  0.0000  0.0000  0.0000  0.0000 </r>
       </set>
       <set comment="band 4">
        <r>  0.0000  0.0000  0.1322  0.0654  0.0000  0.0000  0.0000  0.0000  0.0000 </r>
        <r>  0.0000  0.0000  0.0684  0.1292  0.0000  0.0000  0.0000  0.0000  0.0000 </r>
       </set>
       <set comment="band 5">
        <r>  0.0533  0.0442  0.0000  0.0000  0.0000  0.0000  0.0000  0.0000  0.0000 </r>
        <r>  0.0533  0.0442  0.0000  0.0000  0.0000  0.0000  0.0000  0.0000  0.0000 </r>
       </set>
       <set comment="band 6">
        <r>  0.0474  0.0303  0.0000  0.0000  0.0000  0.0000  0.0000  0.0000  0.0000 </r>
        <r>  0.0474  0.0303  0.0000  0.0000  0.0000  0.0000  0.0000  0.0000  0.0000 </r>
       </set>
       <set comment="band 7">
        <r>  0.0000  0.0000  0.0714  0.0962  0.0000  0.0000  0.0000  0.0000  0.0000 </r>
        <r>  0.0000  0.0000  0.1146  0.0529  0.0000  0.0000  0.0000  0.0000  0.0000 </r>
       </set>
       <set comment="band 8">
        <r>  0.0000  0.0000  0.0962  0.0714  0.0000  0.0000  0.0000  0.0000  0.0000 </r>
        <r>  0.0000  0.0000  0.0529  0.1146  0.0000  0.0000  0.0000  0.0000  0.0000 </r>
       </set>
       <set comment="band 9">
        <r>  0.0000  0.0000  0.0000  0.0000  0.0000  0.0000  0.0000  0.0000  0.0000 </r>
        <r>  0.0000  0.0000  0.0000  0.0000  0.0000  0.0000  0.0000  0.0000  0.0000 </r>
       </set>
       <set comment="band 10">
        <r>  0.1028  0.1738  0.0000  0.0000  0.0000  0.0000  0.0000  0.0000  0.0000 </r>
        <r>  0.1028  0.1739  0.0000  0.0000  0.0000  0.0000  0.0000  0.0000  0.0000 </r>
       </set>
       <set comment="band 11">
        <r>  0.0000  0.0000  0.0249  0.0515  0.0000  0.0000  0.0000  0.0000  0.0000 </r>
        <r>  0.0000  0.0000  0.0166  0.0599  0.0000  0.0000  0.0000  0.0000  0.0000 </r>
       </set>
       <set comment="band 12">
        <r>  0.0063  0.1800  0.0069  0.0053  0.0000  0.0000  0.0000  0.0000  0.0000 </r>
        <r>  0.0063  0.1824  0.0074  0.0009  0.0000  0.0000  0.0000  0.0000  0.0000 </r>
       </set>
      </set>
      <set comment="kpoint 67">
       <set comment="band 1">
        <r>  0.1984  0.0339  0.0000  0.0000  0.0000  0.0000  0.0000  0.0000  0.0000 </r>
        <r>  0.1983  0.0339  0.0000  0.0000  0.0000  0.0000  0.0000  0.0000  0.0000 </r>
       </set>
       <set comment="band 2">
        <r>  0.1869  0.0587  0.0000  0.0000  0.0000  0.0000  0.0000  0.0000  0.0000 </r>
        <r>  0.1869  0.0587  0.0000  0.0000  0.0000  0.0000  0.0000  0.0000  0.0000 </r>
       </set>
       <set comment="band 3">
        <r>  0.0000  0.0000  0.1296  0.0680  0.0000  0.0000  0.0000  0.0000  0.0000 </r>
        <r>  0.0000  0.0000  0.0656  0.1320  0.0000  0.0000  0.0000  0.0000  0.0000 </r>
       </set>
       <set comment="band 4">
        <r>  0.0000  0.0000  0.0680  0.1296  0.0000  0.0000  0.0000  0.0000  0.0000 </r>
        <r>  0.0000  0.0000  0.1320  0.0656  0.0000  0.0000  0.0000  0.0000  0.0000 </r>
       </set>
       <set comment="band 5">
        <r>  0.0533  0.0423  0.0000  0.0000  0.0000  0.0000  0.0000  0.0000  0.0000 </r>
        <r>  0.0533  0.0423  0.0000  0.0000  0.0000  0.0000  0.0000  0.0000  0.0000 </r>
       </set>
       <set comment="band 6">
        <r>  0.0482  0.0308  0.0000  0.0000  0.0000  0.0000  0.0000  0.0000  0.0000 </r>
        <r>  0.0482  0.0308  0.0000  0.0000  0.0000  0.0000  0.0000  0.0000  0.0000 </r>
       </set>
       <set comment="band 7">
        <r>  0.0000  0.0000  0.0498  0.1205  0.0000  0.0000  0.0000  0.0000  0.0000 </r>
        <r>  0.0000  0.0000  0.1560  0.0143  0.0000  0.0000  0.0000  0.0000  0.0000 </r>
       </set>
       <set comment="band 8">
        <r>  0.0000  0.0000  0.1205  0.0497  0.0000  0.0000  0.0000  0.0000  0.0000 </r>
        <r>  0.0000  0.0000  0.0143  0.1560  0.0000  0.0000  0.0000  0.0000  0.0000 </r>
       </set>
       <set comment="band 9">
        <r>  0.0000  0.0000  0.0000  0.0000  0.0000  0.0000  0.0000  0.0000  0.0000 </r>
        <r>  0.0000  0.0000  0.0000  0.0000  0.0000  0.0000  0.0000  0.0000  0.0000 </r>
       </set>
       <set comment="band 10">
        <r>  0.0962  0.1792  0.0000  0.0000  0.0000  0.0000  0.0000  0.0000  0.0000 </r>
        <r>  0.0960  0.1804  0.0000  0.0000  0.0000  0.0000  0.0000  0.0000  0.0000 </r>
       </set>
       <set comment="band 11">
        <r>  0.0000  0.0001  0.0694  0.0067  0.0000  0.0000  0.0000  0.0000  0.0000 </r>
        <r>  0.0000  0.0002  0.0046  0.0715  0.0000  0.0000  0.0000  0.0000  0.0000 </r>
       </set>
       <set comment="band 12">
        <r>  0.0093  0.0007  0.0019  0.0368  0.0000  0.0000  0.0000  0.0000  0.0000 </r>
        <r>  0.0089  0.0002  0.0001  0.0404  0.0000  0.0000  0.0000  0.0000  0.0000 </r>
       </set>
      </set>
      <set comment="kpoint 68">
       <set comment="band 1">
        <r>  0.1974  0.0361  0.0000  0.0000  0.0000  0.0000  0.0000  0.0000  0.0000 </r>
        <r>  0.1974  0.0361  0.0000  0.0000  0.0000  0.0000  0.0000  0.0000  0.0000 </r>
       </set>
       <set comment="band 2">
        <r>  0.1883  0.0559  0.0000  0.0000  0.0000  0.0000  0.0000  0.0000  0.0000 </r>
        <r>  0.1883  0.0559  0.0000  0.0000  0.0000  0.0000  0.0000  0.0000  0.0000 </r>
       </set>
       <set comment="band 3">
        <r>  0.0000  0.0000  0.0010  0.1966  0.0000  0.0000  0.0000  0.0000  0.0000 </r>
        <r>  0.0000  0.0000  0.1943  0.0033  0.0000  0.0000  0.0000  0.0000  0.0000 </r>
       </set>
       <set comment="band 4">
        <r>  0.0000  0.0000  0.1966  0.0010  0.0000  0.0000  0.0000  0.0000  0.0000 </r>
        <r>  0.0000  0.0000  0.0033  0.1943  0.0000  0.0000  0.0000  0.0000  0.0000 </r>
       </set>
       <set comment="band 5">
        <r>  0.0532  0.0406  0.0000  0.0000  0.0000  0.0000  0.0000  0.0000  0.0000 </r>
        <r>  0.0532  0.0406  0.0000  0.0000  0.0000  0.0000  0.0000  0.0000  0.0000 </r>
       </set>
       <set comment="band 6">
        <r>  0.0490  0.0313  0.0000  0.0000  0.0000  0.0000  0.0000  0.0000  0.0000 </r>
        <r>  0.0490  0.0313  0.0000  0.0000  0.0000  0.0000  0.0000  0.0000  0.0000 </r>
       </set>
       <set comment="band 7">
        <r>  0.0000  0.0000  0.0933  0.0818  0.0000  0.0000  0.0000  0.0000  0.0000 </r>
        <r>  0.0000  0.0000  0.1274  0.0477  0.0000  0.0000  0.0000  0.0000  0.0000 </r>
       </set>
       <set comment="band 8">
        <r>  0.0000  0.0000  0.0817  0.0933  0.0000  0.0000  0.0000  0.0000  0.0000 </r>
        <r>  0.0000  0.0000  0.0477  0.1273  0.0000  0.0000  0.0000  0.0000  0.0000 </r>
       </set>
       <set comment="band 9">
        <r>  0.0000  0.0000  0.0006  0.0005  0.0000  0.0000  0.0000  0.0000  0.0000 </r>
        <r>  0.0000  0.0000  0.0011  0.0001  0.0000  0.0000  0.0000  0.0000  0.0000 </r>
       </set>
       <set comment="band 10">
        <r>  0.0000  0.0000  0.0334  0.0398  0.0000  0.0000  0.0000  0.0000  0.0000 </r>
        <r>  0.0000  0.0000  0.0042  0.0691  0.0000  0.0000  0.0000  0.0000  0.0000 </r>
       </set>
       <set comment="band 11">
        <r>  0.0875  0.1769  0.0011  0.0009  0.0000  0.0000  0.0000  0.0000  0.0000 </r>
        <r>  0.0858  0.1845  0.0020  0.0001  0.0000  0.0000  0.0000  0.0000  0.0000 </r>
       </set>
       <set comment="band 12">
        <r>  0.0252  0.0016  0.0096  0.0294  0.0000  0.0000  0.0000  0.0000  0.0000 </r>
        <r>  0.0264  0.0024  0.0121  0.0098  0.0000  0.0000  0.0000  0.0000  0.0000 </r>
       </set>
      </set>
      <set comment="kpoint 69">
       <set comment="band 1">
        <r>  0.1964  0.0383  0.0000  0.0000  0.0000  0.0000  0.0000  0.0000  0.0000 </r>
        <r>  0.1964  0.0383  0.0000  0.0000  0.0000  0.0000  0.0000  0.0000  0.0000 </r>
       </set>
       <set comment="band 2">
        <r>  0.1897  0.0532  0.0000  0.0000  0.0000  0.0000  0.0000  0.0000  0.0000 </r>
        <r>  0.1897  0.0532  0.0000  0.0000  0.0000  0.0000  0.0000  0.0000  0.0000 </r>
       </set>
       <set comment="band 3">
        <r>  0.0000  0.0000  0.1258  0.0718  0.0000  0.0000  0.0000  0.0000  0.0000 </r>
        <r>  0.0000  0.0000  0.0638  0.1338  0.0000  0.0000  0.0000  0.0000  0.0000 </r>
       </set>
       <set comment="band 4">
        <r>  0.0000  0.0000  0.0718  0.1257  0.0000  0.0000  0.0000  0.0000  0.0000 </r>
        <r>  0.0000  0.0000  0.1338  0.0638  0.0000  0.0000  0.0000  0.0000  0.0000 </r>
       </set>
       <set comment="band 5">
        <r>  0.0530  0.0390  0.0000  0.0000  0.0000  0.0000  0.0000  0.0000  0.0000 </r>
        <r>  0.0530  0.0390  0.0000  0.0000  0.0000  0.0000  0.0000  0.0000  0.0000 </r>
       </set>
       <set comment="band 6">
        <r>  0.0498  0.0320  0.0000  0.0000  0.0000  0.0000  0.0000  0.0000  0.0000 </r>
        <r>  0.0498  0.0320  0.0000  0.0000  0.0000  0.0000  0.0000  0.0000  0.0000 </r>
       </set>
       <set comment="band 7">
        <r>  0.0000  0.0000  0.0884  0.0948  0.0000  0.0000  0.0000  0.0000  0.0000 </r>
        <r>  0.0000  0.0000  0.1380  0.0452  0.0000  0.0000  0.0000  0.0000  0.0000 </r>
       </set>
       <set comment="band 8">
        <r>  0.0000  0.0000  0.0948  0.0884  0.0000  0.0000  0.0000  0.0000  0.0000 </r>
        <r>  0.0000  0.0000  0.0452  0.1380  0.0000  0.0000  0.0000  0.0000  0.0000 </r>
       </set>
       <set comment="band 9">
        <r>  0.0000  0.0000  0.0075  0.0032  0.0000  0.0000  0.0000  0.0000  0.0000 </r>
        <r>  0.0000  0.0000  0.0092  0.0016  0.0000  0.0000  0.0000  0.0000  0.0000 </r>
       </set>
       <set comment="band 10">
        <r>  0.0854  0.1314  0.0027  0.0027  0.0000  0.0000  0.0000  0.0000  0.0000 </r>
        <r>  0.0632  0.2222  0.0004  0.0050  0.0000  0.0000  0.0000  0.0000  0.0000 </r>
       </set>
       <set comment="band 11">
        <r>  0.0068  0.0023  0.0053  0.0275  0.0000  0.0000  0.0000  0.0000  0.0000 </r>
        <r>  0.0097  0.0016  0.0001  0.0496  0.0000  0.0000  0.0000  0.0000  0.0000 </r>
       </set>
       <set comment="band 12">
        <r>  0.0969  0.0027  0.0125  0.0002  0.0000  0.0000  0.0000  0.0000  0.0000 </r>
        <r>  0.0115  0.0190  0.0057  0.0023  0.0000  0.0000  0.0000  0.0000  0.0000 </r>
       </set>
      </set>
      <set comment="kpoint 70">
       <set comment="band 1">
        <r>  0.1954  0.0406  0.0000  0.0000  0.0000  0.0000  0.0000  0.0000  0.0000 </r>
        <r>  0.1954  0.0406  0.0000  0.0000  0.0000  0.0000  0.0000  0.0000  0.0000 </r>
       </set>
       <set comment="band 2">
        <r>  0.1909  0.0506  0.0000  0.0000  0.0000  0.0000  0.0000  0.0000  0.0000 </r>
        <r>  0.1909  0.0506  0.0000  0.0000  0.0000  0.0000  0.0000  0.0000  0.0000 </r>
       </set>
       <set comment="band 3">
        <r>  0.0000  0.0000  0.0036  0.1940  0.0000  0.0000  0.0000  0.0000  0.0000 </r>
        <r>  0.0000  0.0000  0.1937  0.0039  0.0000  0.0000  0.0000  0.0000  0.0000 </r>
       </set>
       <set comment="band 4">
        <r>  0.0000  0.0000  0.1940  0.0036  0.0000  0.0000  0.0000  0.0000  0.0000 </r>
        <r>  0.0000  0.0000  0.0039  0.1937  0.0000  0.0000  0.0000  0.0000  0.0000 </r>
       </set>
       <set comment="band 5">
        <r>  0.0527  0.0375  0.0000  0.0000  0.0000  0.0000  0.0000  0.0000  0.0000 </r>
        <r>  0.0527  0.0375  0.0000  0.0000  0.0000  0.0000  0.0000  0.0000  0.0000 </r>
       </set>
       <set comment="band 6">
        <r>  0.0505  0.0329  0.0000  0.0000  0.0000  0.0000  0.0000  0.0000  0.0000 </r>
        <r>  0.0505  0.0329  0.0000  0.0000  0.0000  0.0000  0.0000  0.0000  0.0000 </r>
       </set>
       <set comment="band 7">
        <r>  0.0000  0.0000  0.0748  0.1230  0.0000  0.0000  0.0000  0.0000  0.0000 </r>
        <r>  0.0000  0.0000  0.1343  0.0635  0.0000  0.0000  0.0000  0.0000  0.0000 </r>
       </set>
       <set comment="band 8">
        <r>  0.0000  0.0000  0.1230  0.0748  0.0000  0.0000  0.0000  0.0000  0.0000 </r>
        <r>  0.0000  0.0000  0.0635  0.1342  0.0000  0.0000  0.0000  0.0000  0.0000 </r>
       </set>
       <set comment="band 9">
        <r>  0.0011  0.0005  0.0055  0.0008  0.0000  0.0000  0.0000  0.0000  0.0000 </r>
        <r>  0.0003  0.0034  0.0053  0.0010  0.0000  0.0000  0.0000  0.0000  0.0000 </r>
       </set>
       <set comment="band 10">
        <r>  0.0555  0.2075  0.0004  0.0007  0.0000  0.0000  0.0000  0.0000  0.0000 </r>
        <r>  0.0738  0.1406  0.0009  0.0002  0.0000  0.0000  0.0000  0.0000  0.0000 </r>
       </set>
       <set comment="band 11">
        <r>  0.0045  0.0009  0.0129  0.0106  0.0000  0.0000  0.0000  0.0000  0.0000 </r>
        <r>  0.0003  0.0059  0.0099  0.0039  0.0000  0.0000  0.0000  0.0000  0.0000 </r>
       </set>
       <set comment="band 12">
        <r>  0.0133  0.0026  0.0162  0.0254  0.0000  0.0000  0.0000  0.0000  0.0000 </r>
        <r>  0.0301  0.0006  0.0118  0.0216  0.0000  0.0000  0.0000  0.0000  0.0000 </r>
       </set>
      </set>
      <set comment="kpoint 71">
       <set comment="band 1">
        <r>  0.1944  0.0430  0.0000  0.0000  0.0000  0.0000  0.0000  0.0000  0.0000 </r>
        <r>  0.1944  0.0430  0.0000  0.0000  0.0000  0.0000  0.0000  0.0000  0.0000 </r>
       </set>
       <set comment="band 2">
        <r>  0.1922  0.0480  0.0000  0.0000  0.0000  0.0000  0.0000  0.0000  0.0000 </r>
        <r>  0.1921  0.0480  0.0000  0.0000  0.0000  0.0000  0.0000  0.0000  0.0000 </r>
       </set>
       <set comment="band 3">
        <r>  0.0000  0.0000  0.0091  0.1884  0.0000  0.0000  0.0000  0.0000  0.0000 </r>
        <r>  0.0000  0.0000  0.1882  0.0094  0.0000  0.0000  0.0000  0.0000  0.0000 </r>
       </set>
       <set comment="band 4">
        <r>  0.0000  0.0000  0.1885  0.0091  0.0000  0.0000  0.0000  0.0000  0.0000 </r>
        <r>  0.0000  0.0000  0.0094  0.1882  0.0000  0.0000  0.0000  0.0000  0.0000 </r>
       </set>
       <set comment="band 5">
        <r>  0.0523  0.0361  0.0000  0.0000  0.0000  0.0000  0.0000  0.0000  0.0000 </r>
        <r>  0.0523  0.0361  0.0000  0.0000  0.0000  0.0000  0.0000  0.0000  0.0000 </r>
       </set>
       <set comment="band 6">
        <r>  0.0512  0.0338  0.0000  0.0000  0.0000  0.0000  0.0000  0.0000  0.0000 </r>
        <r>  0.0512  0.0338  0.0000  0.0000  0.0000  0.0000  0.0000  0.0000  0.0000 </r>
       </set>
       <set comment="band 7">
        <r>  0.0000  0.0000  0.1296  0.0917  0.0000  0.0000  0.0000  0.0000  0.0000 </r>
        <r>  0.0000  0.0000  0.1212  0.0999  0.0000  0.0000  0.0000  0.0000  0.0000 </r>
       </set>
       <set comment="band 8">
        <r>  0.0000  0.0000  0.0911  0.1299  0.0000  0.0000  0.0000  0.0000  0.0000 </r>
        <r>  0.0000  0.0000  0.0993  0.1207  0.0000  0.0000  0.0000  0.0000  0.0000 </r>
       </set>
       <set comment="band 9">
        <r>  0.0004  0.0006  0.0004  0.0010  0.0000  0.0000  0.0000  0.0000  0.0000 </r>
        <r>  0.0002  0.0010  0.0001  0.0014  0.0000  0.0000  0.0000  0.0000  0.0000 </r>
       </set>
       <set comment="band 10">
        <r>  0.0762  0.1497  0.0001  0.0007  0.0000  0.0000  0.0000  0.0000  0.0000 </r>
        <r>  0.0504  0.2378  0.0003  0.0005  0.0000  0.0000  0.0000  0.0000  0.0000 </r>
       </set>
       <set comment="band 11">
        <r>  0.0261  0.2525  0.0002  0.0001  0.0000  0.0000  0.0000  0.0000  0.0000 </r>
        <r>  0.0606  0.1264  0.0003  0.0000  0.0000  0.0000  0.0000  0.0000  0.0000 </r>
       </set>
       <set comment="band 12">
        <r>  0.0048  0.0019  0.0001  0.0013  0.0000  0.0000  0.0000  0.0000  0.0000 </r>
        <r>  0.0062  0.0038  0.0069  0.0393  0.0000  0.0000  0.0000  0.0000  0.0000 </r>
       </set>
      </set>
      <set comment="kpoint 72">
       <set comment="band 1">
        <r>  0.2242  0.0382  0.0000  0.0000  0.0000  0.0000  0.0000  0.0000  0.0000 </r>
        <r>  0.1624  0.0528  0.0000  0.0000  0.0000  0.0000  0.0000  0.0000  0.0000 </r>
       </set>
       <set comment="band 2">
        <r>  0.1624  0.0528  0.0000  0.0000  0.0000  0.0000  0.0000  0.0000  0.0000 </r>
        <r>  0.2242  0.0382  0.0000  0.0000  0.0000  0.0000  0.0000  0.0000  0.0000 </r>
       </set>
       <set comment="band 3">
        <r>  0.0000  0.0000  0.0004  0.1971  0.0000  0.0000  0.0000  0.0000  0.0000 </r>
        <r>  0.0000  0.0000  0.1971  0.0004  0.0000  0.0000  0.0000  0.0000  0.0000 </r>
       </set>
       <set comment="band 4">
        <r>  0.0000  0.0000  0.1971  0.0004  0.0000  0.0000  0.0000  0.0000  0.0000 </r>
        <r>  0.0000  0.0000  0.0004  0.1971  0.0000  0.0000  0.0000  0.0000  0.0000 </r>
       </set>
       <set comment="band 5">
        <r>  0.0913  0.0082  0.0000  0.0000  0.0000  0.0000  0.0000  0.0000  0.0000 </r>
        <r>  0.0122  0.0616  0.0000  0.0000  0.0000  0.0000  0.0000  0.0000  0.0000 </r>
       </set>
       <set comment="band 6">
        <r>  0.0122  0.0616  0.0000  0.0000  0.0000  0.0000  0.0000  0.0000  0.0000 </r>
        <r>  0.0913  0.0082  0.0000  0.0000  0.0000  0.0000  0.0000  0.0000  0.0000 </r>
       </set>
       <set comment="band 7">
        <r>  0.0000  0.0000  0.1928  0.0471  0.0000  0.0000  0.0000  0.0000  0.0000 </r>
        <r>  0.0000  0.0000  0.0471  0.1927  0.0000  0.0000  0.0000  0.0000  0.0000 </r>
       </set>
       <set comment="band 8">
        <r>  0.0000  0.0000  0.0461  0.1932  0.0000  0.0000  0.0000  0.0000  0.0000 </r>
        <r>  0.0000  0.0000  0.1919  0.0481  0.0000  0.0000  0.0000  0.0000  0.0000 </r>
       </set>
       <set comment="band 9">
        <r>  0.0000  0.0000  0.0019  0.0094  0.0000  0.0000  0.0000  0.0000  0.0000 </r>
        <r>  0.0000  0.0000  0.0094  0.0019  0.0000  0.0000  0.0000  0.0000  0.0000 </r>
       </set>
       <set comment="band 10">
        <r>  0.0592  0.1347  0.0002  0.0000  0.0000  0.0000  0.0000  0.0000  0.0000 </r>
        <r>  0.0380  0.2111  0.0000  0.0001  0.0000  0.0000  0.0000  0.0000  0.0000 </r>
       </set>
       <set comment="band 11">
        <r>  0.0089  0.0118  0.0025  0.0086  0.0000  0.0000  0.0000  0.0000  0.0000 </r>
        <r>  0.0075  0.0002  0.0346  0.0145  0.0000  0.0000  0.0000  0.0000  0.0000 </r>
       </set>
       <set comment="band 12">
        <r>  0.0706  0.0024  0.0071  0.0060  0.0000  0.0000  0.0000  0.0000  0.0000 </r>
        <r>  0.0220  0.0298  0.0046  0.0017  0.0000  0.0000  0.0000  0.0000  0.0000 </r>
       </set>
      </set>
      <set comment="kpoint 73">
       <set comment="band 1">
        <r>  0.3407  0.0108  0.0000  0.0000  0.0000  0.0000  0.0000  0.0000  0.0000 </r>
        <r>  0.0459  0.0802  0.0000  0.0000  0.0000  0.0000  0.0000  0.0000  0.0000 </r>
       </set>
       <set comment="band 2">
        <r>  0.0459  0.0802  0.0000  0.0000  0.0000  0.0000  0.0000  0.0000  0.0000 </r>
        <r>  0.3407  0.0108  0.0000  0.0000  0.0000  0.0000  0.0000  0.0000  0.0000 </r>
       </set>
       <set comment="band 3">
        <r>  0.0000  0.0000  0.1057  0.0919  0.0000  0.0000  0.0000  0.0000  0.0000 </r>
        <r>  0.0000  0.0000  0.0919  0.1057  0.0000  0.0000  0.0000  0.0000  0.0000 </r>
       </set>
       <set comment="band 4">
        <r>  0.0000  0.0000  0.0919  0.1057  0.0000  0.0000  0.0000  0.0000  0.0000 </r>
        <r>  0.0000  0.0000  0.1057  0.0919  0.0000  0.0000  0.0000  0.0000  0.0000 </r>
       </set>
       <set comment="band 5">
        <r>  0.0592  0.0299  0.0000  0.0000  0.0000  0.0000  0.0000  0.0000  0.0000 </r>
        <r>  0.0443  0.0400  0.0000  0.0000  0.0000  0.0000  0.0000  0.0000  0.0000 </r>
       </set>
       <set comment="band 6">
        <r>  0.0443  0.0400  0.0000  0.0000  0.0000  0.0000  0.0000  0.0000  0.0000 </r>
        <r>  0.0592  0.0299  0.0000  0.0000  0.0000  0.0000  0.0000  0.0000  0.0000 </r>
       </set>
       <set comment="band 7">
        <r>  0.0000  0.0000  0.0701  0.1698  0.0000  0.0000  0.0000  0.0000  0.0000 </r>
        <r>  0.0000  0.0000  0.1697  0.0701  0.0000  0.0000  0.0000  0.0000  0.0000 </r>
       </set>
       <set comment="band 8">
        <r>  0.0000  0.0000  0.1698  0.0701  0.0000  0.0000  0.0000  0.0000  0.0000 </r>
        <r>  0.0000  0.0000  0.0701  0.1698  0.0000  0.0000  0.0000  0.0000  0.0000 </r>
       </set>
       <set comment="band 9">
        <r>  0.0000  0.0000  0.0052  0.0061  0.0000  0.0000  0.0000  0.0000  0.0000 </r>
        <r>  0.0000  0.0000  0.0061  0.0052  0.0000  0.0000  0.0000  0.0000  0.0000 </r>
       </set>
       <set comment="band 10">
        <r>  0.0000  0.0000  0.0061  0.0052  0.0000  0.0000  0.0000  0.0000  0.0000 </r>
        <r>  0.0000  0.0000  0.0052  0.0061  0.0000  0.0000  0.0000  0.0000  0.0000 </r>
       </set>
       <set comment="band 11">
        <r>  0.0749  0.1091  0.0000  0.0000  0.0000  0.0000  0.0000  0.0000  0.0000 </r>
        <r>  0.0299  0.2707  0.0000  0.0000  0.0000  0.0000  0.0000  0.0000  0.0000 </r>
       </set>
       <set comment="band 12">
        <r>  0.0246  0.0038  0.0024  0.0106  0.0000  0.0000  0.0000  0.0000  0.0000 </r>
        <r>  0.0124  0.0077  0.0071  0.0209  0.0000  0.0000  0.0000  0.0000  0.0000 </r>
       </set>
      </set>
      <set comment="kpoint 74">
       <set comment="band 1">
        <r>  0.2285  0.0372  0.0000  0.0000  0.0000  0.0000  0.0000  0.0000  0.0000 </r>
        <r>  0.1581  0.0537  0.0000  0.0000  0.0000  0.0000  0.0000  0.0000  0.0000 </r>
       </set>
       <set comment="band 2">
        <r>  0.1581  0.0537  0.0000  0.0000  0.0000  0.0000  0.0000  0.0000  0.0000 </r>
        <r>  0.2285  0.0372  0.0000  0.0000  0.0000  0.0000  0.0000  0.0000  0.0000 </r>
       </set>
       <set comment="band 3">
        <r>  0.0001  0.0000  0.0330  0.1643  0.0000  0.0000  0.0000  0.0000  0.0000 </r>
        <r>  0.0000  0.0001  0.1643  0.0330  0.0000  0.0000  0.0000  0.0000  0.0000 </r>
       </set>
       <set comment="band 4">
        <r>  0.0000  0.0001  0.1643  0.0330  0.0000  0.0000  0.0000  0.0000  0.0000 </r>
        <r>  0.0001  0.0000  0.0330  0.1643  0.0000  0.0000  0.0000  0.0000  0.0000 </r>
       </set>
       <set comment="band 5">
        <r>  0.0738  0.0199  0.0001  0.0002  0.0000  0.0000  0.0000  0.0000  0.0000 </r>
        <r>  0.0296  0.0498  0.0001  0.0001  0.0000  0.0000  0.0000  0.0000  0.0000 </r>
       </set>
       <set comment="band 6">
        <r>  0.0296  0.0498  0.0001  0.0001  0.0000  0.0000  0.0000  0.0000  0.0000 </r>
        <r>  0.0738  0.0199  0.0001  0.0002  0.0000  0.0000  0.0000  0.0000  0.0000 </r>
       </set>
       <set comment="band 7">
        <r>  0.0001  0.0001  0.1161  0.1229  0.0000  0.0000  0.0000  0.0000  0.0000 </r>
        <r>  0.0001  0.0001  0.1218  0.1172  0.0000  0.0000  0.0000  0.0000  0.0000 </r>
       </set>
       <set comment="band 8">
        <r>  0.0001  0.0002  0.1201  0.1183  0.0000  0.0000  0.0000  0.0000  0.0000 </r>
        <r>  0.0001  0.0002  0.1145  0.1241  0.0000  0.0000  0.0000  0.0000  0.0000 </r>
       </set>
       <set comment="band 9">
        <r>  0.0003  0.0006  0.0046  0.0063  0.0000  0.0000  0.0000  0.0000  0.0000 </r>
        <r>  0.0002  0.0010  0.0083  0.0035  0.0000  0.0000  0.0000  0.0000  0.0000 </r>
       </set>
       <set comment="band 10">
        <r>  0.0009  0.0131  0.0001  0.0006  0.0000  0.0000  0.0000  0.0000  0.0000 </r>
        <r>  0.0037  0.0035  0.0000  0.0005  0.0000  0.0000  0.0000  0.0000  0.0000 </r>
       </set>
       <set comment="band 11">
        <r>  0.0707  0.1484  0.0001  0.0002  0.0000  0.0000  0.0000  0.0000  0.0000 </r>
        <r>  0.0412  0.2552  0.0000  0.0003  0.0000  0.0000  0.0000  0.0000  0.0000 </r>
       </set>
       <set comment="band 12">
        <r>  0.0070  0.0011  0.0021  0.0055  0.0000  0.0000  0.0000  0.0000  0.0000 </r>
        <r>  0.0004  0.0069  0.0146  0.0295  0.0000  0.0000  0.0000  0.0000  0.0000 </r>
       </set>
      </set>
      <set comment="kpoint 75">
       <set comment="band 1">
        <r>  0.2374  0.0351  0.0000  0.0000  0.0000  0.0000  0.0000  0.0000  0.0000 </r>
        <r>  0.1493  0.0557  0.0001  0.0000  0.0000  0.0000  0.0000  0.0000  0.0000 </r>
       </set>
       <set comment="band 2">
        <r>  0.1493  0.0557  0.0001  0.0000  0.0000  0.0000  0.0000  0.0000  0.0000 </r>
        <r>  0.2374  0.0351  0.0000  0.0000  0.0000  0.0000  0.0000  0.0000  0.0000 </r>
       </set>
       <set comment="band 3">
        <r>  0.0001  0.0005  0.1584  0.0381  0.0000  0.0000  0.0000  0.0000  0.0000 </r>
        <r>  0.0002  0.0001  0.0381  0.1584  0.0000  0.0000  0.0000  0.0000  0.0000 </r>
       </set>
       <set comment="band 4">
        <r>  0.0002  0.0001  0.0381  0.1584  0.0000  0.0000  0.0000  0.0000  0.0000 </r>
        <r>  0.0001  0.0005  0.1584  0.0381  0.0000  0.0000  0.0000  0.0000  0.0000 </r>
       </set>
       <set comment="band 5">
        <r>  0.0184  0.0569  0.0007  0.0002  0.0000  0.0000  0.0000  0.0000  0.0000 </r>
        <r>  0.0846  0.0124  0.0001  0.0009  0.0000  0.0000  0.0000  0.0000  0.0000 </r>
       </set>
       <set comment="band 6">
        <r>  0.0845  0.0124  0.0001  0.0009  0.0000  0.0000  0.0000  0.0000  0.0000 </r>
        <r>  0.0184  0.0569  0.0007  0.0002  0.0000  0.0000  0.0000  0.0000  0.0000 </r>
       </set>
       <set comment="band 7">
        <r>  0.0007  0.0004  0.0828  0.1546  0.0000  0.0000  0.0000  0.0000  0.0000 </r>
        <r>  0.0004  0.0008  0.1493  0.0857  0.0000  0.0000  0.0000  0.0000  0.0000 </r>
       </set>
       <set comment="band 8">
        <r>  0.0004  0.0009  0.1473  0.0873  0.0000  0.0000  0.0000  0.0000  0.0000 </r>
        <r>  0.0007  0.0006  0.0794  0.1550  0.0000  0.0000  0.0000  0.0000  0.0000 </r>
       </set>
       <set comment="band 9">
        <r>  0.0002  0.0053  0.0159  0.0006  0.0000  0.0000  0.0000  0.0000  0.0000 </r>
        <r>  0.0014  0.0006  0.0017  0.0054  0.0000  0.0000  0.0000  0.0000  0.0000 </r>
       </set>
       <set comment="band 10">
        <r>  0.0094  0.0129  0.0004  0.0009  0.0000  0.0000  0.0000  0.0000  0.0000 </r>
        <r>  0.0036  0.0332  0.0006  0.0016  0.0000  0.0000  0.0000  0.0000  0.0000 </r>
       </set>
       <set comment="band 11">
        <r>  0.0717  0.1545  0.0002  0.0011  0.0000  0.0000  0.0000  0.0000  0.0000 </r>
        <r>  0.0430  0.2581  0.0007  0.0009  0.0000  0.0000  0.0000  0.0000  0.0000 </r>
       </set>
       <set comment="band 12">
        <r>  0.0100  0.0040  0.0202  0.0133  0.0000  0.0000  0.0000  0.0000  0.0000 </r>
        <r>  0.0127  0.0018  0.0437  0.0001  0.0000  0.0000  0.0000  0.0000  0.0000 </r>
       </set>
      </set>
      <set comment="kpoint 76">
       <set comment="band 1">
        <r>  0.1480  0.0560  0.0002  0.0000  0.0000  0.0000  0.0000  0.0000  0.0000 </r>
        <r>  0.2389  0.0347  0.0001  0.0000  0.0000  0.0000  0.0000  0.0000  0.0000 </r>
       </set>
       <set comment="band 2">
        <r>  0.2389  0.0347  0.0001  0.0000  0.0000  0.0000  0.0000  0.0000  0.0000 </r>
        <r>  0.1480  0.0560  0.0002  0.0000  0.0000  0.0000  0.0000  0.0000  0.0000 </r>
       </set>
       <set comment="band 3">
        <r>  0.0003  0.0006  0.0792  0.1162  0.0000  0.0000  0.0000  0.0000  0.0000 </r>
        <r>  0.0002  0.0009  0.1162  0.0792  0.0000  0.0000  0.0000  0.0000  0.0000 </r>
       </set>
       <set comment="band 4">
        <r>  0.0002  0.0009  0.1162  0.0792  0.0000  0.0000  0.0000  0.0000  0.0000 </r>
        <r>  0.0003  0.0006  0.0792  0.1162  0.0000  0.0000  0.0000  0.0000  0.0000 </r>
       </set>
       <set comment="band 5">
        <r>  0.0380  0.0433  0.0012  0.0010  0.0000  0.0000  0.0000  0.0000  0.0000 </r>
        <r>  0.0644  0.0255  0.0007  0.0016  0.0000  0.0000  0.0000  0.0000  0.0000 </r>
       </set>
       <set comment="band 6">
        <r>  0.0644  0.0255  0.0007  0.0016  0.0000  0.0000  0.0000  0.0000  0.0000 </r>
        <r>  0.0380  0.0433  0.0012  0.0010  0.0000  0.0000  0.0000  0.0000  0.0000 </r>
       </set>
       <set comment="band 7">
        <r>  0.0017  0.0011  0.0748  0.1578  0.0000  0.0000  0.0000  0.0000  0.0000 </r>
        <r>  0.0009  0.0021  0.1444  0.0821  0.0000  0.0000  0.0000  0.0000  0.0000 </r>
       </set>
       <set comment="band 8">
        <r>  0.0008  0.0018  0.1483  0.0811  0.0000  0.0000  0.0000  0.0000  0.0000 </r>
        <r>  0.0015  0.0009  0.0778  0.1564  0.0000  0.0000  0.0000  0.0000  0.0000 </r>
       </set>
       <set comment="band 9">
        <r>  0.0009  0.0403  0.0007  0.0022  0.0000  0.0000  0.0000  0.0000  0.0000 </r>
        <r>  0.0113  0.0031  0.0003  0.0011  0.0000  0.0000  0.0000  0.0000  0.0000 </r>
       </set>
       <set comment="band 10">
        <r>  0.0975  0.0308  0.0004  0.0059  0.0000  0.0000  0.0000  0.0000  0.0000 </r>
        <r>  0.0085  0.3526  0.0003  0.0002  0.0000  0.0000  0.0000  0.0000  0.0000 </r>
       </set>
       <set comment="band 11">
        <r>  0.0014  0.0249  0.0100  0.0013  0.0000  0.0000  0.0000  0.0000  0.0000 </r>
        <r>  0.0083  0.0014  0.0058  0.0016  0.0000  0.0000  0.0000  0.0000  0.0000 </r>
       </set>
       <set comment="band 12">
        <r>  0.0737  0.0001  0.0031  0.0224  0.0000  0.0000  0.0000  0.0000  0.0000 </r>
        <r>  0.0017  0.0252  0.0030  0.0172  0.0000  0.0000  0.0000  0.0000  0.0000 </r>
       </set>
      </set>
      <set comment="kpoint 77">
       <set comment="band 1">
        <r>  0.2201  0.0390  0.0002  0.0000  0.0000  0.0000  0.0000  0.0000  0.0000 </r>
        <r>  0.1671  0.0514  0.0003  0.0000  0.0000  0.0000  0.0000  0.0000  0.0000 </r>
       </set>
       <set comment="band 2">
        <r>  0.1671  0.0514  0.0003  0.0000  0.0000  0.0000  0.0000  0.0000  0.0000 </r>
        <r>  0.2201  0.0390  0.0002  0.0000  0.0000  0.0000  0.0000  0.0000  0.0000 </r>
       </set>
       <set comment="band 3">
        <r>  0.0003  0.0017  0.1340  0.0597  0.0000  0.0000  0.0000  0.0000  0.0000 </r>
        <r>  0.0007  0.0008  0.0597  0.1340  0.0000  0.0000  0.0000  0.0000  0.0000 </r>
       </set>
       <set comment="band 4">
        <r>  0.0007  0.0008  0.0597  0.1340  0.0000  0.0000  0.0000  0.0000  0.0000 </r>
        <r>  0.0003  0.0017  0.1340  0.0597  0.0000  0.0000  0.0000  0.0000  0.0000 </r>
       </set>
       <set comment="band 5">
        <r>  0.0240  0.0519  0.0024  0.0011  0.0000  0.0000  0.0000  0.0000  0.0000 </r>
        <r>  0.0775  0.0161  0.0008  0.0034  0.0000  0.0000  0.0000  0.0000  0.0000 </r>
       </set>
       <set comment="band 6">
        <r>  0.0775  0.0161  0.0008  0.0034  0.0000  0.0000  0.0000  0.0000  0.0000 </r>
        <r>  0.0240  0.0519  0.0024  0.0011  0.0000  0.0000  0.0000  0.0000  0.0000 </r>
       </set>
       <set comment="band 7">
        <r>  0.0021  0.0032  0.1114  0.1087  0.0000  0.0000  0.0000  0.0000  0.0000 </r>
        <r>  0.0024  0.0028  0.0952  0.1271  0.0000  0.0000  0.0000  0.0000  0.0000 </r>
       </set>
       <set comment="band 8">
        <r>  0.0025  0.0030  0.0932  0.1271  0.0000  0.0000  0.0000  0.0000  0.0000 </r>
        <r>  0.0022  0.0034  0.1096  0.1086  0.0000  0.0000  0.0000  0.0000  0.0000 </r>
       </set>
       <set comment="band 9">
        <r>  0.0023  0.0065  0.0159  0.0000  0.0000  0.0000  0.0000  0.0000  0.0000 </r>
        <r>  0.0016  0.0095  0.0234  0.0000  0.0000  0.0000  0.0000  0.0000  0.0000 </r>
       </set>
       <set comment="band 10">
        <r>  0.0041  0.0708  0.0003  0.0022  0.0000  0.0000  0.0000  0.0000  0.0000 </r>
        <r>  0.0198  0.0141  0.0011  0.0005  0.0000  0.0000  0.0000  0.0000  0.0000 </r>
       </set>
       <set comment="band 11">
        <r>  0.0859  0.0380  0.0007  0.0074  0.0000  0.0000  0.0000  0.0000  0.0000 </r>
        <r>  0.0099  0.3217  0.0010  0.0024  0.0000  0.0000  0.0000  0.0000  0.0000 </r>
       </set>
       <set comment="band 12">
        <r>  0.0158  0.0008  0.0157  0.0028  0.0000  0.0000  0.0000  0.0000  0.0000 </r>
        <r>  0.0275  0.0025  0.0013  0.0281  0.0000  0.0000  0.0000  0.0000  0.0000 </r>
       </set>
      </set>
      <set comment="kpoint 78">
       <set comment="band 1">
        <r>  0.3001  0.0203  0.0002  0.0000  0.0000  0.0000  0.0000  0.0000  0.0000 </r>
        <r>  0.0873  0.0697  0.0006  0.0000  0.0000  0.0000  0.0000  0.0000  0.0000 </r>
       </set>
       <set comment="band 2">
        <r>  0.0873  0.0697  0.0006  0.0000  0.0000  0.0000  0.0000  0.0000  0.0000 </r>
        <r>  0.3001  0.0203  0.0002  0.0000  0.0000  0.0000  0.0000  0.0000  0.0000 </r>
       </set>
       <set comment="band 3">
        <r>  0.0011  0.0010  0.0511  0.1406  0.0000  0.0000  0.0000  0.0000  0.0000 </r>
        <r>  0.0004  0.0028  0.1406  0.0510  0.0000  0.0000  0.0000  0.0000  0.0000 </r>
       </set>
       <set comment="band 4">
        <r>  0.0004  0.0028  0.1406  0.0511  0.0000  0.0000  0.0000  0.0000  0.0000 </r>
        <r>  0.0011  0.0010  0.0511  0.1406  0.0000  0.0000  0.0000  0.0000  0.0000 </r>
       </set>
       <set comment="band 5">
        <r>  0.0065  0.0627  0.0045  0.0004  0.0000  0.0000  0.0000  0.0000  0.0000 </r>
        <r>  0.0940  0.0044  0.0003  0.0064  0.0000  0.0000  0.0000  0.0000  0.0000 </r>
       </set>
       <set comment="band 6">
        <r>  0.0940  0.0044  0.0003  0.0064  0.0000  0.0000  0.0000  0.0000  0.0000 </r>
        <r>  0.0065  0.0627  0.0045  0.0004  0.0000  0.0000  0.0000  0.0000  0.0000 </r>
       </set>
       <set comment="band 7">
        <r>  0.0030  0.0061  0.1097  0.0931  0.0000  0.0000  0.0000  0.0000  0.0000 </r>
        <r>  0.0044  0.0043  0.0752  0.1349  0.0000  0.0000  0.0000  0.0000  0.0000 </r>
       </set>
       <set comment="band 8">
        <r>  0.0040  0.0033  0.0824  0.1359  0.0000  0.0000  0.0000  0.0000  0.0000 </r>
        <r>  0.0026  0.0052  0.1160  0.0942  0.0000  0.0000  0.0000  0.0000  0.0000 </r>
       </set>
       <set comment="band 9">
        <r>  0.0052  0.0381  0.0019  0.0005  0.0000  0.0000  0.0000  0.0000  0.0000 </r>
        <r>  0.0111  0.0180  0.0010  0.0029  0.0000  0.0000  0.0000  0.0000  0.0000 </r>
       </set>
       <set comment="band 10">
        <r>  0.0411  0.1337  0.0000  0.0002  0.0000  0.0000  0.0000  0.0000  0.0000 </r>
        <r>  0.0362  0.1531  0.0002  0.0014  0.0000  0.0000  0.0000  0.0000  0.0000 </r>
       </set>
       <set comment="band 11">
        <r>  0.0540  0.1324  0.0012  0.0096  0.0000  0.0000  0.0000  0.0000  0.0000 </r>
        <r>  0.0351  0.2041  0.0011  0.0063  0.0000  0.0000  0.0000  0.0000  0.0000 </r>
       </set>
       <set comment="band 12">
        <r>  0.0393  0.0039  0.0199  0.0126  0.0000  0.0000  0.0000  0.0000  0.0000 </r>
        <r>  0.0238  0.0072  0.0006  0.0069  0.0000  0.0000  0.0000  0.0000  0.0000 </r>
       </set>
      </set>
      <set comment="kpoint 79">
       <set comment="band 1">
        <r>  0.1513  0.0546  0.0006  0.0000  0.0000  0.0000  0.0000  0.0000  0.0000 </r>
        <r>  0.2366  0.0349  0.0004  0.0000  0.0000  0.0000  0.0000  0.0000  0.0000 </r>
       </set>
       <set comment="band 2">
        <r>  0.2366  0.0349  0.0004  0.0000  0.0000  0.0000  0.0000  0.0000  0.0000 </r>
        <r>  0.1513  0.0546  0.0006  0.0000  0.0000  0.0000  0.0000  0.0000  0.0000 </r>
       </set>
       <set comment="band 3">
        <r>  0.0003  0.0046  0.1618  0.0275  0.0000  0.0000  0.0000  0.0000  0.0000 </r>
        <r>  0.0017  0.0008  0.0275  0.1618  0.0000  0.0000  0.0000  0.0000  0.0000 </r>
       </set>
       <set comment="band 4">
        <r>  0.0017  0.0008  0.0275  0.1618  0.0000  0.0000  0.0000  0.0000  0.0000 </r>
        <r>  0.0003  0.0046  0.1618  0.0275  0.0000  0.0000  0.0000  0.0000  0.0000 </r>
       </set>
       <set comment="band 5">
        <r>  0.0014  0.0650  0.0066  0.0001  0.0000  0.0000  0.0000  0.0000  0.0000 </r>
        <r>  0.0979  0.0009  0.0001  0.0094  0.0000  0.0000  0.0000  0.0000  0.0000 </r>
       </set>
       <set comment="band 6">
        <r>  0.0979  0.0009  0.0001  0.0094  0.0000  0.0000  0.0000  0.0000  0.0000 </r>
        <r>  0.0014  0.0650  0.0066  0.0001  0.0000  0.0000  0.0000  0.0000  0.0000 </r>
       </set>
       <set comment="band 7">
        <r>  0.0016  0.0127  0.1428  0.0328  0.0000  0.0000  0.0000  0.0000  0.0000 </r>
        <r>  0.0088  0.0023  0.0252  0.1855  0.0000  0.0000  0.0000  0.0000  0.0000 </r>
       </set>
       <set comment="band 8">
        <r>  0.0089  0.0023  0.0247  0.1850  0.0000  0.0000  0.0000  0.0000  0.0000 </r>
        <r>  0.0016  0.0130  0.1412  0.0326  0.0000  0.0000  0.0000  0.0000  0.0000 </r>
       </set>
       <set comment="band 9">
        <r>  0.0027  0.0088  0.0290  0.0041  0.0000  0.0000  0.0000  0.0000  0.0000 </r>
        <r>  0.0017  0.0138  0.0443  0.0027  0.0000  0.0000  0.0000  0.0000  0.0000 </r>
       </set>
       <set comment="band 10">
        <r>  0.0519  0.0102  0.0011  0.0160  0.0000  0.0000  0.0000  0.0000  0.0000 </r>
        <r>  0.0030  0.2019  0.0021  0.0013  0.0000  0.0000  0.0000  0.0000  0.0000 </r>
       </set>
       <set comment="band 11">
        <r>  0.0112  0.0039  0.0033  0.0043  0.0000  0.0000  0.0000  0.0000  0.0000 </r>
        <r>  0.0056  0.0043  0.0221  0.0035  0.0000  0.0000  0.0000  0.0000  0.0000 </r>
       </set>
       <set comment="band 12">
        <r>  0.0072  0.0021  0.0029  0.0238  0.0000  0.0000  0.0000  0.0000  0.0000 </r>
        <r>  0.0171  0.0015  0.0178  0.0290  0.0000  0.0000  0.0000  0.0000  0.0000 </r>
       </set>
      </set>
      <set comment="kpoint 80">
       <set comment="band 1">
        <r>  0.1932  0.0447  0.0007  0.0000  0.0000  0.0000  0.0000  0.0000  0.0000 </r>
        <r>  0.1951  0.0443  0.0007  0.0000  0.0000  0.0000  0.0000  0.0000  0.0000 </r>
       </set>
       <set comment="band 2">
        <r>  0.1951  0.0443  0.0007  0.0000  0.0000  0.0000  0.0000  0.0000  0.0000 </r>
        <r>  0.1932  0.0447  0.0007  0.0000  0.0000  0.0000  0.0000  0.0000  0.0000 </r>
       </set>
       <set comment="band 3">
        <r>  0.0014  0.0033  0.0848  0.1020  0.0000  0.0000  0.0000  0.0000  0.0000 </r>
        <r>  0.0011  0.0039  0.1020  0.0848  0.0000  0.0000  0.0000  0.0000  0.0000 </r>
       </set>
       <set comment="band 4">
        <r>  0.0011  0.0039  0.1020  0.0848  0.0000  0.0000  0.0000  0.0000  0.0000 </r>
        <r>  0.0014  0.0033  0.0848  0.1020  0.0000  0.0000  0.0000  0.0000  0.0000 </r>
       </set>
       <set comment="band 5">
        <r>  0.0430  0.0363  0.0049  0.0055  0.0000  0.0000  0.0000  0.0000  0.0000 </r>
        <r>  0.0549  0.0284  0.0039  0.0070  0.0000  0.0000  0.0000  0.0000  0.0000 </r>
       </set>
       <set comment="band 6">
        <r>  0.0549  0.0284  0.0039  0.0070  0.0000  0.0000  0.0000  0.0000  0.0000 </r>
        <r>  0.0430  0.0363  0.0049  0.0055  0.0000  0.0000  0.0000  0.0000  0.0000 </r>
       </set>
       <set comment="band 7">
        <r>  0.0041  0.0143  0.1047  0.0612  0.0000  0.0000  0.0000  0.0000  0.0000 </r>
        <r>  0.0096  0.0060  0.0442  0.1449  0.0000  0.0000  0.0000  0.0000  0.0000 </r>
       </set>
       <set comment="band 8">
        <r>  0.0097  0.0061  0.0438  0.1445  0.0000  0.0000  0.0000  0.0000  0.0000 </r>
        <r>  0.0041  0.0144  0.1040  0.0610  0.0000  0.0000  0.0000  0.0000  0.0000 </r>
       </set>
       <set comment="band 9">
        <r>  0.0020  0.0116  0.0439  0.0072  0.0000  0.0000  0.0000  0.0000  0.0000 </r>
        <r>  0.0019  0.0123  0.0461  0.0069  0.0000  0.0000  0.0000  0.0000  0.0000 </r>
       </set>
       <set comment="band 10">
        <r>  0.0165  0.0215  0.0027  0.0004  0.0000  0.0000  0.0000  0.0000  0.0000 </r>
        <r>  0.0065  0.0585  0.0007  0.0055  0.0000  0.0000  0.0000  0.0000  0.0000 </r>
       </set>
       <set comment="band 11">
        <r>  0.0739  0.0204  0.0020  0.0205  0.0000  0.0000  0.0000  0.0000  0.0000 </r>
        <r>  0.0051  0.2885  0.0040  0.0037  0.0000  0.0000  0.0000  0.0000  0.0000 </r>
       </set>
       <set comment="band 12">
        <r>  0.0024  0.0138  0.0321  0.0239  0.0000  0.0000  0.0000  0.0000  0.0000 </r>
        <r>  0.0108  0.0037  0.0003  0.0218  0.0000  0.0000  0.0000  0.0000  0.0000 </r>
       </set>
      </set>
      <set comment="kpoint 81">
       <set comment="band 1">
        <r>  0.2364  0.0347  0.0007  0.0000  0.0000  0.0000  0.0000  0.0000  0.0000 </r>
        <r>  0.1524  0.0538  0.0011  0.0000  0.0000  0.0000  0.0000  0.0000  0.0000 </r>
       </set>
       <set comment="band 2">
        <r>  0.1524  0.0538  0.0011  0.0000  0.0000  0.0000  0.0000  0.0000  0.0000 </r>
        <r>  0.2365  0.0347  0.0007  0.0000  0.0000  0.0000  0.0000  0.0000  0.0000 </r>
       </set>
       <set comment="band 3">
        <r>  0.0022  0.0026  0.0526  0.1314  0.0000  0.0000  0.0000  0.0000  0.0000 </r>
        <r>  0.0009  0.0066  0.1314  0.0526  0.0000  0.0000  0.0000  0.0000  0.0000 </r>
       </set>
       <set comment="band 4">
        <r>  0.0009  0.0066  0.1314  0.0526  0.0000  0.0000  0.0000  0.0000  0.0000 </r>
        <r>  0.0022  0.0026  0.0526  0.1314  0.0000  0.0000  0.0000  0.0000  0.0000 </r>
       </set>
       <set comment="band 5">
        <r>  0.0647  0.0209  0.0036  0.0106  0.0000  0.0000  0.0000  0.0000  0.0000 </r>
        <r>  0.0317  0.0425  0.0074  0.0052  0.0000  0.0000  0.0000  0.0000  0.0000 </r>
       </set>
       <set comment="band 6">
        <r>  0.0317  0.0425  0.0074  0.0052  0.0000  0.0000  0.0000  0.0000  0.0000 </r>
        <r>  0.0647  0.0209  0.0036  0.0106  0.0000  0.0000  0.0000  0.0000  0.0000 </r>
       </set>
       <set comment="band 7">
        <r>  0.0056  0.0172  0.0887  0.0636  0.0000  0.0000  0.0000  0.0000  0.0000 </r>
        <r>  0.0114  0.0084  0.0434  0.1301  0.0000  0.0000  0.0000  0.0000  0.0000 </r>
       </set>
       <set comment="band 8">
        <r>  0.0114  0.0083  0.0439  0.1298  0.0000  0.0000  0.0000  0.0000  0.0000 </r>
        <r>  0.0055  0.0172  0.0884  0.0638  0.0000  0.0000  0.0000  0.0000  0.0000 </r>
       </set>
       <set comment="band 9">
        <r>  0.0019  0.0117  0.0482  0.0119  0.0000  0.0000  0.0000  0.0000  0.0000 </r>
        <r>  0.0016  0.0135  0.0560  0.0102  0.0000  0.0000  0.0000  0.0000  0.0000 </r>
       </set>
       <set comment="band 10">
        <r>  0.0498  0.0650  0.0008  0.0015  0.0000  0.0000  0.0000  0.0000  0.0000 </r>
        <r>  0.0179  0.1834  0.0002  0.0006  0.0000  0.0000  0.0000  0.0000  0.0000 </r>
       </set>
       <set comment="band 11">
        <r>  0.0124  0.0101  0.0026  0.0229  0.0000  0.0000  0.0000  0.0000  0.0000 </r>
        <r>  0.0029  0.0038  0.0127  0.0047  0.0000  0.0000  0.0000  0.0000  0.0000 </r>
       </set>
       <set comment="band 12">
        <r>  0.0256  0.0079  0.0017  0.0042  0.0000  0.0000  0.0000  0.0000  0.0000 </r>
        <r>  0.0217  0.0067  0.0087  0.0535  0.0000  0.0000  0.0000  0.0000  0.0000 </r>
       </set>
      </set>
      <set comment="kpoint 82">
       <set comment="band 1">
        <r>  0.3512  0.0086  0.0002  0.0000  0.0000  0.0000  0.0000  0.0000  0.0000 </r>
        <r>  0.0383  0.0791  0.0021  0.0000  0.0000  0.0000  0.0000  0.0000  0.0000 </r>
       </set>
       <set comment="band 2">
        <r>  0.0383  0.0791  0.0021  0.0000  0.0000  0.0000  0.0000  0.0000  0.0000 </r>
        <r>  0.3512  0.0086  0.0002  0.0000  0.0000  0.0000  0.0000  0.0000  0.0000 </r>
       </set>
       <set comment="band 3">
        <r>  0.0009  0.0086  0.1370  0.0440  0.0000  0.0000  0.0000  0.0000  0.0000 </r>
        <r>  0.0027  0.0027  0.0439  0.1372  0.0000  0.0000  0.0000  0.0000  0.0000 </r>
       </set>
       <set comment="band 4">
        <r>  0.0027  0.0027  0.0439  0.1372  0.0000  0.0000  0.0000  0.0000  0.0000 </r>
        <r>  0.0009  0.0086  0.1370  0.0440  0.0000  0.0000  0.0000  0.0000  0.0000 </r>
       </set>
       <set comment="band 5">
        <r>  0.0378  0.0373  0.0080  0.0077  0.0000  0.0000  0.0000  0.0000  0.0000 </r>
        <r>  0.0570  0.0247  0.0053  0.0116  0.0000  0.0000  0.0000  0.0000  0.0000 </r>
       </set>
       <set comment="band 6">
        <r>  0.0570  0.0247  0.0053  0.0116  0.0000  0.0000  0.0000  0.0000  0.0000 </r>
        <r>  0.0378  0.0373  0.0080  0.0077  0.0000  0.0000  0.0000  0.0000  0.0000 </r>
       </set>
       <set comment="band 7">
        <r>  0.0045  0.0237  0.0919  0.0403  0.0000  0.0000  0.0000  0.0000  0.0000 </r>
        <r>  0.0157  0.0068  0.0262  0.1416  0.0000  0.0000  0.0000  0.0000  0.0000 </r>
       </set>
       <set comment="band 8">
        <r>  0.0157  0.0068  0.0261  0.1414  0.0000  0.0000  0.0000  0.0000  0.0000 </r>
        <r>  0.0045  0.0238  0.0916  0.0403  0.0000  0.0000  0.0000  0.0000  0.0000 </r>
       </set>
       <set comment="band 9">
        <r>  0.0011  0.0161  0.0717  0.0114  0.0000  0.0000  0.0000  0.0000  0.0000 </r>
        <r>  0.0018  0.0099  0.0441  0.0185  0.0000  0.0000  0.0000  0.0000  0.0000 </r>
       </set>
       <set comment="band 10">
        <r>  0.0484  0.0093  0.0012  0.0009  0.0000  0.0000  0.0000  0.0000  0.0000 </r>
        <r>  0.0020  0.1730  0.0085  0.0027  0.0000  0.0000  0.0000  0.0000  0.0000 </r>
       </set>
       <set comment="band 11">
        <r>  0.0345  0.0764  0.0034  0.0194  0.0000  0.0000  0.0000  0.0000  0.0000 </r>
        <r>  0.0168  0.1489  0.0032  0.0141  0.0000  0.0000  0.0000  0.0000  0.0000 </r>
       </set>
       <set comment="band 12">
        <r>  0.0238  0.0071  0.0012  0.0271  0.0000  0.0000  0.0000  0.0000  0.0000 </r>
        <r>  0.0040  0.0054  0.0267  0.0017  0.0000  0.0000  0.0000  0.0000  0.0000 </r>
       </set>
      </set>
      <set comment="kpoint 83">
       <set comment="band 1">
        <r>  0.2610  0.0288  0.0010  0.0000  0.0000  0.0000  0.0000  0.0000  0.0000 </r>
        <r>  0.1291  0.0582  0.0020  0.0000  0.0000  0.0000  0.0000  0.0000  0.0000 </r>
       </set>
       <set comment="band 2">
        <r>  0.1291  0.0582  0.0020  0.0000  0.0000  0.0000  0.0000  0.0000  0.0000 </r>
        <r>  0.2610  0.0288  0.0010  0.0000  0.0000  0.0000  0.0000  0.0000  0.0000 </r>
       </set>
       <set comment="band 3">
        <r>  0.0024  0.0055  0.0717  0.1063  0.0000  0.0000  0.0000  0.0000  0.0000 </r>
        <r>  0.0017  0.0081  0.1060  0.0719  0.0000  0.0000  0.0000  0.0000  0.0000 </r>
       </set>
       <set comment="band 4">
        <r>  0.0017  0.0081  0.1060  0.0719  0.0000  0.0000  0.0000  0.0000  0.0000 </r>
        <r>  0.0024  0.0055  0.0717  0.1063  0.0000  0.0000  0.0000  0.0000  0.0000 </r>
       </set>
       <set comment="band 5">
        <r>  0.0381  0.0358  0.0092  0.0094  0.0000  0.0000  0.0000  0.0000  0.0000 </r>
        <r>  0.0551  0.0248  0.0064  0.0135  0.0000  0.0000  0.0000  0.0000  0.0000 </r>
       </set>
       <set comment="band 6">
        <r>  0.0551  0.0248  0.0064  0.0135  0.0000  0.0000  0.0000  0.0000  0.0000 </r>
        <r>  0.0381  0.0358  0.0092  0.0094  0.0000  0.0000  0.0000  0.0000  0.0000 </r>
       </set>
       <set comment="band 7">
        <r>  0.0032  0.0302  0.0920  0.0236  0.0000  0.0000  0.0000  0.0000  0.0000 </r>
        <r>  0.0200  0.0048  0.0147  0.1477  0.0000  0.0000  0.0000  0.0000  0.0000 </r>
       </set>
       <set comment="band 8">
        <r>  0.0200  0.0048  0.0147  0.1477  0.0000  0.0000  0.0000  0.0000  0.0000 </r>
        <r>  0.0032  0.0302  0.0920  0.0236  0.0000  0.0000  0.0000  0.0000  0.0000 </r>
       </set>
       <set comment="band 9">
        <r>  0.0016  0.0096  0.0443  0.0237  0.0000  0.0000  0.0000  0.0000  0.0000 </r>
        <r>  0.0009  0.0174  0.0803  0.0131  0.0000  0.0000  0.0000  0.0000  0.0000 </r>
       </set>
       <set comment="band 10">
        <r>  0.0009  0.0175  0.0802  0.0131  0.0000  0.0000  0.0000  0.0000  0.0000 </r>
        <r>  0.0017  0.0095  0.0443  0.0237  0.0000  0.0000  0.0000  0.0000  0.0000 </r>
       </set>
       <set comment="band 11">
        <r>  0.0356  0.0148  0.0014  0.0012  0.0000  0.0000  0.0000  0.0000  0.0000 </r>
        <r>  0.0044  0.1196  0.0115  0.0001  0.0000  0.0000  0.0000  0.0000  0.0000 </r>
       </set>
       <set comment="band 12">
        <r>  0.0061  0.0043  0.0211  0.0081  0.0000  0.0000  0.0000  0.0000  0.0000 </r>
        <r>  0.0242  0.0007  0.0032  0.0231  0.0000  0.0000  0.0000  0.0000  0.0000 </r>
       </set>
      </set>
      <set comment="kpoint 84">
       <set comment="band 1">
        <r>  0.2144  0.0389  0.0016  0.0000  0.0000  0.0000  0.0000  0.0000  0.0000 </r>
        <r>  0.1765  0.0473  0.0020  0.0000  0.0000  0.0000  0.0000  0.0000  0.0000 </r>
       </set>
       <set comment="band 2">
        <r>  0.1765  0.0473  0.0020  0.0000  0.0000  0.0000  0.0000  0.0000  0.0000 </r>
        <r>  0.2144  0.0389  0.0016  0.0000  0.0000  0.0000  0.0000  0.0000  0.0000 </r>
       </set>
       <set comment="band 3">
        <r>  0.0023  0.0078  0.0852  0.0898  0.0000  0.0000  0.0000  0.0000  0.0000 </r>
        <r>  0.0022  0.0082  0.0894  0.0856  0.0000  0.0000  0.0000  0.0000  0.0000 </r>
       </set>
       <set comment="band 4">
        <r>  0.0022  0.0082  0.0894  0.0856  0.0000  0.0000  0.0000  0.0000  0.0000 </r>
        <r>  0.0023  0.0078  0.0852  0.0898  0.0000  0.0000  0.0000  0.0000  0.0000 </r>
       </set>
       <set comment="band 5">
        <r>  0.0425  0.0317  0.0095  0.0124  0.0000  0.0000  0.0000  0.0000  0.0000 </r>
        <r>  0.0489  0.0275  0.0083  0.0142  0.0000  0.0000  0.0000  0.0000  0.0000 </r>
       </set>
       <set comment="band 6">
        <r>  0.0489  0.0275  0.0083  0.0142  0.0000  0.0000  0.0000  0.0000  0.0000 </r>
        <r>  0.0425  0.0317  0.0095  0.0124  0.0000  0.0000  0.0000  0.0000  0.0000 </r>
       </set>
       <set comment="band 7">
        <r>  0.0231  0.0044  0.0110  0.1437  0.0000  0.0000  0.0000  0.0000  0.0000 </r>
        <r>  0.0029  0.0347  0.0866  0.0182  0.0000  0.0000  0.0000  0.0000  0.0000 </r>
       </set>
       <set comment="band 8">
        <r>  0.0029  0.0347  0.0865  0.0182  0.0000  0.0000  0.0000  0.0000  0.0000 </r>
        <r>  0.0231  0.0044  0.0109  0.1437  0.0000  0.0000  0.0000  0.0000  0.0000 </r>
       </set>
       <set comment="band 9">
        <r>  0.0011  0.0142  0.0660  0.0212  0.0000  0.0000  0.0000  0.0000  0.0000 </r>
        <r>  0.0011  0.0140  0.0651  0.0215  0.0000  0.0000  0.0000  0.0000  0.0000 </r>
       </set>
       <set comment="band 10">
        <r>  0.0227  0.0804  0.0029  0.0000  0.0000  0.0000  0.0000  0.0000  0.0000 </r>
        <r>  0.0231  0.0789  0.0022  0.0000  0.0000  0.0000  0.0000  0.0000  0.0000 </r>
       </set>
       <set comment="band 11">
        <r>  0.0307  0.0893  0.0066  0.0205  0.0000  0.0000  0.0000  0.0000  0.0000 </r>
        <r>  0.0193  0.1334  0.0032  0.0219  0.0000  0.0000  0.0000  0.0000  0.0000 </r>
       </set>
       <set comment="band 12">
        <r>  0.0162  0.0018  0.0068  0.0330  0.0000  0.0000  0.0000  0.0000  0.0000 </r>
        <r>  0.0022  0.0042  0.0035  0.0081  0.0000  0.0000  0.0000  0.0000  0.0000 </r>
       </set>
      </set>
      <set comment="kpoint 85">
       <set comment="band 1">
        <r>  0.2070  0.0402  0.0020  0.0000  0.0000  0.0000  0.0000  0.0000  0.0000 </r>
        <r>  0.1847  0.0450  0.0023  0.0000  0.0000  0.0000  0.0000  0.0000  0.0000 </r>
       </set>
       <set comment="band 2">
        <r>  0.1847  0.0450  0.0023  0.0000  0.0000  0.0000  0.0000  0.0000  0.0000 </r>
        <r>  0.2070  0.0402  0.0020  0.0000  0.0000  0.0000  0.0000  0.0000  0.0000 </r>
       </set>
       <set comment="band 3">
        <r>  0.0044  0.0017  0.0160  0.1564  0.0000  0.0000  0.0000  0.0000  0.0000 </r>
        <r>  0.0005  0.0167  0.1553  0.0161  0.0000  0.0000  0.0000  0.0000  0.0000 </r>
       </set>
       <set comment="band 4">
        <r>  0.0005  0.0167  0.1553  0.0161  0.0000  0.0000  0.0000  0.0000  0.0000 </r>
        <r>  0.0044  0.0017  0.0160  0.1563  0.0000  0.0000  0.0000  0.0000  0.0000 </r>
       </set>
       <set comment="band 5">
        <r>  0.0287  0.0393  0.0136  0.0097  0.0000  0.0000  0.0000  0.0000  0.0000 </r>
        <r>  0.0609  0.0185  0.0064  0.0206  0.0000  0.0000  0.0000  0.0000  0.0000 </r>
       </set>
       <set comment="band 6">
        <r>  0.0610  0.0185  0.0064  0.0206  0.0000  0.0000  0.0000  0.0000  0.0000 </r>
        <r>  0.0287  0.0393  0.0136  0.0097  0.0000  0.0000  0.0000  0.0000  0.0000 </r>
       </set>
       <set comment="band 7">
        <r>  0.0158  0.0191  0.0403  0.0848  0.0000  0.0000  0.0000  0.0000  0.0000 </r>
        <r>  0.0128  0.0235  0.0498  0.0688  0.0000  0.0000  0.0000  0.0000  0.0000 </r>
       </set>
       <set comment="band 8">
        <r>  0.0005  0.0135  0.0852  0.0366  0.0000  0.0000  0.0000  0.0000  0.0000 </r>
        <r>  0.0006  0.0124  0.0803  0.0400  0.0000  0.0000  0.0000  0.0000  0.0000 </r>
       </set>
       <set comment="band 9">
        <r>  0.0079  0.1592  0.0019  0.0004  0.0000  0.0000  0.0000  0.0000  0.0000 </r>
        <r>  0.0433  0.0250  0.0038  0.0015  0.0000  0.0000  0.0000  0.0000  0.0000 </r>
       </set>
       <set comment="band 10">
        <r>  0.0370  0.0256  0.0025  0.0002  0.0000  0.0000  0.0000  0.0000  0.0000 </r>
        <r>  0.0077  0.1281  0.0133  0.0004  0.0000  0.0000  0.0000  0.0000  0.0000 </r>
       </set>
       <set comment="band 11">
        <r>  0.0285  0.0722  0.0011  0.0397  0.0000  0.0000  0.0000  0.0000  0.0000 </r>
        <r>  0.0164  0.1341  0.0117  0.0118  0.0000  0.0000  0.0000  0.0000  0.0000 </r>
       </set>
       <set comment="band 12">
        <r>  0.0314  0.0002  0.0044  0.0166  0.0000  0.0000  0.0000  0.0000  0.0000 </r>
        <r>  0.0077  0.0043  0.0118  0.0057  0.0000  0.0000  0.0000  0.0000  0.0000 </r>
       </set>
      </set>
      <set comment="kpoint 86">
       <set comment="band 1">
        <r>  0.1492  0.0522  0.0031  0.0000  0.0000  0.0000  0.0000  0.0000  0.0000 </r>
        <r>  0.2433  0.0320  0.0019  0.0000  0.0000  0.0000  0.0000  0.0000  0.0000 </r>
       </set>
       <set comment="band 2">
        <r>  0.2433  0.0320  0.0019  0.0000  0.0000  0.0000  0.0000  0.0000  0.0000 </r>
        <r>  0.1493  0.0522  0.0031  0.0000  0.0000  0.0000  0.0000  0.0000  0.0000 </r>
       </set>
       <set comment="band 3">
        <r>  0.0043  0.0035  0.0285  0.1408  0.0000  0.0000  0.0000  0.0000  0.0000 </r>
        <r>  0.0009  0.0174  0.1395  0.0287  0.0000  0.0000  0.0000  0.0000  0.0000 </r>
       </set>
       <set comment="band 4">
        <r>  0.0009  0.0174  0.1395  0.0287  0.0000  0.0000  0.0000  0.0000  0.0000 </r>
        <r>  0.0043  0.0036  0.0285  0.1408  0.0000  0.0000  0.0000  0.0000  0.0000 </r>
       </set>
       <set comment="band 5">
        <r>  0.0225  0.0419  0.0165  0.0087  0.0000  0.0000  0.0000  0.0000  0.0000 </r>
        <r>  0.0653  0.0144  0.0057  0.0254  0.0000  0.0000  0.0000  0.0000  0.0000 </r>
       </set>
       <set comment="band 6">
        <r>  0.0653  0.0144  0.0057  0.0254  0.0000  0.0000  0.0000  0.0000  0.0000 </r>
        <r>  0.0225  0.0419  0.0165  0.0087  0.0000  0.0000  0.0000  0.0000  0.0000 </r>
       </set>
       <set comment="band 7">
        <r>  0.0151  0.0236  0.0433  0.0710  0.0000  0.0000  0.0000  0.0000  0.0000 </r>
        <r>  0.0161  0.0222  0.0408  0.0754  0.0000  0.0000  0.0000  0.0000  0.0000 </r>
       </set>
       <set comment="band 8">
        <r>  0.0005  0.0108  0.0741  0.0374  0.0000  0.0000  0.0000  0.0000  0.0000 </r>
        <r>  0.0002  0.0154  0.0862  0.0314  0.0000  0.0000  0.0000  0.0000  0.0000 </r>
       </set>
       <set comment="band 9">
        <r>  0.0245  0.0702  0.0015  0.0005  0.0000  0.0000  0.0000  0.0000  0.0000 </r>
        <r>  0.0191  0.0792  0.0094  0.0004  0.0000  0.0000  0.0000  0.0000  0.0000 </r>
       </set>
       <set comment="band 10">
        <r>  0.0306  0.1349  0.0022  0.0002  0.0000  0.0000  0.0000  0.0000  0.0000 </r>
        <r>  0.0344  0.1083  0.0102  0.0010  0.0000  0.0000  0.0000  0.0000  0.0000 </r>
       </set>
       <set comment="band 11">
        <r>  0.0078  0.1581  0.0105  0.0091  0.0000  0.0000  0.0000  0.0000  0.0000 </r>
        <r>  0.0303  0.0351  0.0051  0.0363  0.0000  0.0000  0.0000  0.0000  0.0000 </r>
       </set>
       <set comment="band 12">
        <r>  0.0371  0.0058  0.0117  0.0068  0.0000  0.0000  0.0000  0.0000  0.0000 </r>
        <r>  0.0003  0.0026  0.0035  0.0042  0.0000  0.0000  0.0000  0.0000  0.0000 </r>
       </set>
      </set>
      <set comment="kpoint 87">
       <set comment="band 1">
        <r>  0.2282  0.0349  0.0025  0.0000  0.0000  0.0000  0.0000  0.0000  0.0000 </r>
        <r>  0.1651  0.0482  0.0034  0.0000  0.0000  0.0000  0.0000  0.0000  0.0000 </r>
       </set>
       <set comment="band 2">
        <r>  0.1652  0.0482  0.0034  0.0000  0.0000  0.0000  0.0000  0.0000  0.0000 </r>
        <r>  0.2283  0.0349  0.0025  0.0000  0.0000  0.0000  0.0000  0.0000  0.0000 </r>
       </set>
       <set comment="band 3">
        <r>  0.0045  0.0038  0.0265  0.1399  0.0000  0.0000  0.0000  0.0000  0.0000 </r>
        <r>  0.0009  0.0198  0.1381  0.0269  0.0000  0.0000  0.0000  0.0000  0.0000 </r>
       </set>
       <set comment="band 4">
        <r>  0.0009  0.0198  0.1381  0.0269  0.0000  0.0000  0.0000  0.0000  0.0000 </r>
        <r>  0.0045  0.0038  0.0265  0.1399  0.0000  0.0000  0.0000  0.0000  0.0000 </r>
       </set>
       <set comment="band 5">
        <r>  0.0654  0.0132  0.0058  0.0288  0.0000  0.0000  0.0000  0.0000  0.0000 </r>
        <r>  0.0206  0.0417  0.0185  0.0091  0.0000  0.0000  0.0000  0.0000  0.0000 </r>
       </set>
       <set comment="band 6">
        <r>  0.0206  0.0417  0.0185  0.0091  0.0000  0.0000  0.0000  0.0000  0.0000 </r>
        <r>  0.0654  0.0132  0.0058  0.0288  0.0000  0.0000  0.0000  0.0000  0.0000 </r>
       </set>
       <set comment="band 7">
        <r>  0.0172  0.0238  0.0388  0.0714  0.0000  0.0000  0.0000  0.0000  0.0000 </r>
        <r>  0.0165  0.0248  0.0405  0.0685  0.0000  0.0000  0.0000  0.0000  0.0000 </r>
       </set>
       <set comment="band 8">
        <r>  0.0005  0.0158  0.0786  0.0300  0.0000  0.0000  0.0000  0.0000  0.0000 </r>
        <r>  0.0006  0.0146  0.0714  0.0326  0.0000  0.0000  0.0000  0.0000  0.0000 </r>
       </set>
       <set comment="band 9">
        <r>  0.0173  0.1094  0.0061  0.0000  0.0000  0.0000  0.0000  0.0000  0.0000 </r>
        <r>  0.0305  0.0567  0.0040  0.0002  0.0000  0.0000  0.0000  0.0000  0.0000 </r>
       </set>
       <set comment="band 10">
        <r>  0.0497  0.0289  0.0085  0.0015  0.0000  0.0000  0.0000  0.0000  0.0000 </r>
        <r>  0.0094  0.1739  0.0101  0.0035  0.0000  0.0000  0.0000  0.0000  0.0000 </r>
       </set>
       <set comment="band 11">
        <r>  0.0076  0.1364  0.0172  0.0059  0.0000  0.0000  0.0000  0.0000  0.0000 </r>
        <r>  0.0210  0.0280  0.0049  0.0406  0.0000  0.0000  0.0000  0.0000  0.0000 </r>
       </set>
       <set comment="band 12">
        <r>  0.0159  0.0009  0.0033  0.0155  0.0000  0.0000  0.0000  0.0000  0.0000 </r>
        <r>  0.0213  0.0033  0.0007  0.0160  0.0000  0.0000  0.0000  0.0000  0.0000 </r>
       </set>
      </set>
      <set comment="kpoint 88">
       <set comment="band 1">
        <r>  0.1802  0.0445  0.0037  0.0000  0.0000  0.0000  0.0000  0.0000  0.0000 </r>
        <r>  0.2141  0.0374  0.0031  0.0000  0.0000  0.0000  0.0000  0.0000  0.0000 </r>
       </set>
       <set comment="band 2">
        <r>  0.2142  0.0374  0.0031  0.0000  0.0000  0.0000  0.0000  0.0000  0.0000 </r>
        <r>  0.1802  0.0445  0.0037  0.0000  0.0000  0.0000  0.0000  0.0000  0.0000 </r>
       </set>
       <set comment="band 3">
        <r>  0.0033  0.0103  0.0631  0.0999  0.0000  0.0000  0.0000  0.0000  0.0000 </r>
        <r>  0.0021  0.0160  0.0981  0.0643  0.0000  0.0000  0.0000  0.0000  0.0000 </r>
       </set>
       <set comment="band 4">
        <r>  0.0021  0.0160  0.0981  0.0643  0.0000  0.0000  0.0000  0.0000  0.0000 </r>
        <r>  0.0033  0.0103  0.0631  0.0999  0.0000  0.0000  0.0000  0.0000  0.0000 </r>
       </set>
       <set comment="band 5">
        <r>  0.0621  0.0140  0.0069  0.0308  0.0000  0.0000  0.0000  0.0000  0.0000 </r>
        <r>  0.0220  0.0395  0.0194  0.0109  0.0000  0.0000  0.0000  0.0000  0.0000 </r>
       </set>
       <set comment="band 6">
        <r>  0.0220  0.0395  0.0194  0.0109  0.0000  0.0000  0.0000  0.0000  0.0000 </r>
        <r>  0.0621  0.0140  0.0069  0.0308  0.0000  0.0000  0.0000  0.0000  0.0000 </r>
       </set>
       <set comment="band 7">
        <r>  0.0120  0.0340  0.0502  0.0448  0.0000  0.0000  0.0000  0.0000  0.0000 </r>
        <r>  0.0240  0.0171  0.0252  0.0893  0.0000  0.0000  0.0000  0.0000  0.0000 </r>
       </set>
       <set comment="band 8">
        <r>  0.0240  0.0171  0.0252  0.0893  0.0000  0.0000  0.0000  0.0000  0.0000 </r>
        <r>  0.0120  0.0340  0.0502  0.0447  0.0000  0.0000  0.0000  0.0000  0.0000 </r>
       </set>
       <set comment="band 9">
        <r>  0.0006  0.0159  0.0661  0.0314  0.0000  0.0000  0.0000  0.0000  0.0000 </r>
        <r>  0.0005  0.0184  0.0765  0.0272  0.0000  0.0000  0.0000  0.0000  0.0000 </r>
       </set>
       <set comment="band 10">
        <r>  0.0117  0.1047  0.0047  0.0008  0.0000  0.0000  0.0000  0.0000  0.0000 </r>
        <r>  0.0293  0.0368  0.0047  0.0004  0.0000  0.0000  0.0000  0.0000  0.0000 </r>
       </set>
       <set comment="band 11">
        <r>  0.0688  0.0035  0.0053  0.0013  0.0000  0.0000  0.0000  0.0000  0.0000 </r>
        <r>  0.0091  0.0030  0.0141  0.0112  0.0000  0.0000  0.0000  0.0000  0.0000 </r>
       </set>
       <set comment="band 12">
        <r>  0.0016  0.0063  0.0010  0.0299  0.0000  0.0000  0.0000  0.0000  0.0000 </r>
        <r>  0.0166  0.0010  0.0491  0.0045  0.0000  0.0000  0.0000  0.0000  0.0000 </r>
       </set>
      </set>
      <set comment="kpoint 89">
       <set comment="band 1">
        <r>  0.3092  0.0176  0.0017  0.0001  0.0000  0.0000  0.0000  0.0000  0.0000 </r>
        <r>  0.0861  0.0631  0.0061  0.0000  0.0000  0.0000  0.0000  0.0000  0.0000 </r>
       </set>
       <set comment="band 2">
        <r>  0.0861  0.0631  0.0061  0.0000  0.0000  0.0000  0.0000  0.0000  0.0000 </r>
        <r>  0.3092  0.0176  0.0017  0.0001  0.0000  0.0000  0.0000  0.0000  0.0000 </r>
       </set>
       <set comment="band 3">
        <r>  0.0050  0.0023  0.0128  0.1486  0.0000  0.0000  0.0000  0.0000  0.0000 </r>
        <r>  0.0004  0.0267  0.1451  0.0131  0.0000  0.0000  0.0000  0.0000  0.0000 </r>
       </set>
       <set comment="band 4">
        <r>  0.0004  0.0267  0.1451  0.0131  0.0000  0.0000  0.0000  0.0000  0.0000 </r>
        <r>  0.0050  0.0023  0.0128  0.1486  0.0000  0.0000  0.0000  0.0000  0.0000 </r>
       </set>
       <set comment="band 5">
        <r>  0.0148  0.0427  0.0231  0.0082  0.0000  0.0000  0.0000  0.0000  0.0000 </r>
        <r>  0.0674  0.0094  0.0051  0.0373  0.0000  0.0000  0.0000  0.0000  0.0000 </r>
       </set>
       <set comment="band 6">
        <r>  0.0674  0.0094  0.0051  0.0373  0.0000  0.0000  0.0000  0.0000  0.0000 </r>
        <r>  0.0148  0.0427  0.0231  0.0082  0.0000  0.0000  0.0000  0.0000  0.0000 </r>
       </set>
       <set comment="band 7">
        <r>  0.0187  0.0273  0.0369  0.0629  0.0000  0.0000  0.0000  0.0000  0.0000 </r>
        <r>  0.0196  0.0260  0.0352  0.0659  0.0000  0.0000  0.0000  0.0000  0.0000 </r>
       </set>
       <set comment="band 8">
        <r>  0.0003  0.0179  0.0777  0.0335  0.0000  0.0000  0.0000  0.0000  0.0000 </r>
        <r>  0.0004  0.0167  0.0750  0.0357  0.0000  0.0000  0.0000  0.0000  0.0000 </r>
       </set>
       <set comment="band 9">
        <r>  0.0276  0.0874  0.0016  0.0011  0.0000  0.0000  0.0000  0.0000  0.0000 </r>
        <r>  0.0244  0.1083  0.0039  0.0022  0.0000  0.0000  0.0000  0.0000  0.0000 </r>
       </set>
       <set comment="band 10">
        <r>  0.0198  0.1239  0.0257  0.0003  0.0000  0.0000  0.0000  0.0000  0.0000 </r>
        <r>  0.0360  0.0766  0.0035  0.0040  0.0000  0.0000  0.0000  0.0000  0.0000 </r>
       </set>
       <set comment="band 11">
        <r>  0.0330  0.0208  0.0001  0.0300  0.0000  0.0000  0.0000  0.0000  0.0000 </r>
        <r>  0.0011  0.1382  0.0106  0.0072  0.0000  0.0000  0.0000  0.0000  0.0000 </r>
       </set>
       <set comment="band 12">
        <r>  0.0034  0.0048  0.0136  0.0007  0.0000  0.0000  0.0000  0.0000  0.0000 </r>
        <r>  0.0033  0.0062  0.0194  0.0030  0.0000  0.0000  0.0000  0.0000  0.0000 </r>
       </set>
      </set>
      <set comment="kpoint 90">
       <set comment="band 1">
        <r>  0.1828  0.0427  0.0048  0.0000  0.0000  0.0000  0.0000  0.0000  0.0000 </r>
        <r>  0.2135  0.0366  0.0041  0.0000  0.0000  0.0000  0.0000  0.0000  0.0000 </r>
       </set>
       <set comment="band 2">
        <r>  0.2135  0.0366  0.0041  0.0000  0.0000  0.0000  0.0000  0.0000  0.0000 </r>
        <r>  0.1828  0.0427  0.0048  0.0000  0.0000  0.0000  0.0000  0.0000  0.0000 </r>
       </set>
       <set comment="band 3">
        <r>  0.0044  0.0062  0.0301  0.1282  0.0000  0.0000  0.0000  0.0000  0.0000 </r>
        <r>  0.0011  0.0257  0.1245  0.0310  0.0000  0.0000  0.0000  0.0000  0.0000 </r>
       </set>
       <set comment="band 4">
        <r>  0.0011  0.0257  0.1245  0.0310  0.0000  0.0000  0.0000  0.0000  0.0000 </r>
        <r>  0.0044  0.0062  0.0301  0.1282  0.0000  0.0000  0.0000  0.0000  0.0000 </r>
       </set>
       <set comment="band 5">
        <r>  0.0341  0.0292  0.0172  0.0209  0.0000  0.0000  0.0000  0.0000  0.0000 </r>
        <r>  0.0462  0.0215  0.0127  0.0284  0.0000  0.0000  0.0000  0.0000  0.0000 </r>
       </set>
       <set comment="band 6">
        <r>  0.0462  0.0215  0.0127  0.0284  0.0000  0.0000  0.0000  0.0000  0.0000 </r>
        <r>  0.0341  0.0292  0.0172  0.0209  0.0000  0.0000  0.0000  0.0000  0.0000 </r>
       </set>
       <set comment="band 7">
        <r>  0.0212  0.0265  0.0332  0.0646  0.0000  0.0000  0.0000  0.0000  0.0000 </r>
        <r>  0.0194  0.0289  0.0362  0.0592  0.0000  0.0000  0.0000  0.0000  0.0000 </r>
       </set>
       <set comment="band 8">
        <r>  0.0006  0.0231  0.0751  0.0328  0.0000  0.0000  0.0000  0.0000  0.0000 </r>
        <r>  0.0009  0.0201  0.0701  0.0352  0.0000  0.0000  0.0000  0.0000  0.0000 </r>
       </set>
       <set comment="band 9">
        <r>  0.0288  0.0568  0.0055  0.0001  0.0000  0.0000  0.0000  0.0000  0.0000 </r>
        <r>  0.0172  0.0952  0.0108  0.0001  0.0000  0.0000  0.0000  0.0000  0.0000 </r>
       </set>
       <set comment="band 10">
        <r>  0.0303  0.0203  0.0079  0.0243  0.0000  0.0000  0.0000  0.0000  0.0000 </r>
        <r>  0.0033  0.1661  0.0142  0.0053  0.0000  0.0000  0.0000  0.0000  0.0000 </r>
       </set>
       <set comment="band 11">
        <r>  0.0018  0.0000  0.0383  0.0057  0.0000  0.0000  0.0000  0.0000  0.0000 </r>
        <r>  0.0063  0.0112  0.0053  0.0007  0.0000  0.0000  0.0000  0.0000  0.0000 </r>
       </set>
       <set comment="band 12">
        <r>  0.0155  0.0035  0.0057  0.0077  0.0000  0.0000  0.0000  0.0000  0.0000 </r>
        <r>  0.0040  0.0084  0.0159  0.0535  0.0000  0.0000  0.0000  0.0000  0.0000 </r>
       </set>
      </set>
      <set comment="kpoint 91">
       <set comment="band 1">
        <r>  0.2031  0.0380  0.0049  0.0000  0.0000  0.0000  0.0000  0.0000  0.0000 </r>
        <r>  0.1942  0.0398  0.0052  0.0000  0.0000  0.0000  0.0000  0.0000  0.0000 </r>
       </set>
       <set comment="band 2">
        <r>  0.1942  0.0398  0.0052  0.0000  0.0000  0.0000  0.0000  0.0000  0.0000 </r>
        <r>  0.2031  0.0380  0.0049  0.0000  0.0000  0.0000  0.0000  0.0000  0.0000 </r>
       </set>
       <set comment="band 3">
        <r>  0.0031  0.0144  0.0627  0.0918  0.0000  0.0000  0.0000  0.0000  0.0000 </r>
        <r>  0.0022  0.0203  0.0884  0.0651  0.0000  0.0000  0.0000  0.0000  0.0000 </r>
       </set>
       <set comment="band 4">
        <r>  0.0022  0.0203  0.0884  0.0651  0.0000  0.0000  0.0000  0.0000  0.0000 </r>
        <r>  0.0031  0.0144  0.0627  0.0918  0.0000  0.0000  0.0000  0.0000  0.0000 </r>
       </set>
       <set comment="band 5">
        <r>  0.0247  0.0337  0.0215  0.0168  0.0000  0.0000  0.0000  0.0000  0.0000 </r>
        <r>  0.0536  0.0156  0.0099  0.0363  0.0000  0.0000  0.0000  0.0000  0.0000 </r>
       </set>
       <set comment="band 6">
        <r>  0.0536  0.0156  0.0099  0.0363  0.0000  0.0000  0.0000  0.0000  0.0000 </r>
        <r>  0.0247  0.0337  0.0215  0.0168  0.0000  0.0000  0.0000  0.0000  0.0000 </r>
       </set>
       <set comment="band 7">
        <r>  0.0125  0.0406  0.0478  0.0346  0.0000  0.0000  0.0000  0.0000  0.0000 </r>
        <r>  0.0305  0.0166  0.0195  0.0847  0.0000  0.0000  0.0000  0.0000  0.0000 </r>
       </set>
       <set comment="band 8">
        <r>  0.0304  0.0166  0.0195  0.0847  0.0000  0.0000  0.0000  0.0000  0.0000 </r>
        <r>  0.0125  0.0406  0.0478  0.0346  0.0000  0.0000  0.0000  0.0000  0.0000 </r>
       </set>
       <set comment="band 9">
        <r>  0.0003  0.0231  0.0804  0.0284  0.0000  0.0000  0.0000  0.0000  0.0000 </r>
        <r>  0.0004  0.0178  0.0619  0.0369  0.0000  0.0000  0.0000  0.0000  0.0000 </r>
       </set>
       <set comment="band 10">
        <r>  0.0004  0.0178  0.0618  0.0369  0.0000  0.0000  0.0000  0.0000  0.0000 </r>
        <r>  0.0003  0.0231  0.0804  0.0284  0.0000  0.0000  0.0000  0.0000  0.0000 </r>
       </set>
       <set comment="band 11">
        <r>  0.0379  0.0352  0.0075  0.0002  0.0000  0.0000  0.0000  0.0000  0.0000 </r>
        <r>  0.0112  0.1195  0.0253  0.0000  0.0000  0.0000  0.0000  0.0000  0.0000 </r>
       </set>
       <set comment="band 12">
        <r>  0.0051  0.0114  0.0059  0.0111  0.0000  0.0000  0.0000  0.0000  0.0000 </r>
        <r>  0.0157  0.0016  0.0018  0.0601  0.0000  0.0000  0.0000  0.0000  0.0000 </r>
       </set>
      </set>
      <set comment="kpoint 92">
       <set comment="band 1">
        <r>  0.2853  0.0217  0.0032  0.0001  0.0000  0.0000  0.0000  0.0000  0.0000 </r>
        <r>  0.1131  0.0546  0.0081  0.0000  0.0000  0.0000  0.0000  0.0000  0.0000 </r>
       </set>
       <set comment="band 2">
        <r>  0.1131  0.0546  0.0081  0.0000  0.0000  0.0000  0.0000  0.0000  0.0000 </r>
        <r>  0.2853  0.0217  0.0032  0.0001  0.0000  0.0000  0.0000  0.0000  0.0000 </r>
       </set>
       <set comment="band 3">
        <r>  0.0030  0.0158  0.0621  0.0898  0.0000  0.0000  0.0000  0.0000  0.0000 </r>
        <r>  0.0021  0.0219  0.0857  0.0650  0.0000  0.0000  0.0000  0.0000  0.0000 </r>
       </set>
       <set comment="band 4">
        <r>  0.0021  0.0219  0.0857  0.0650  0.0000  0.0000  0.0000  0.0000  0.0000 </r>
        <r>  0.0030  0.0158  0.0621  0.0898  0.0000  0.0000  0.0000  0.0000  0.0000 </r>
       </set>
       <set comment="band 5">
        <r>  0.0444  0.0200  0.0137  0.0331  0.0000  0.0000  0.0000  0.0000  0.0000 </r>
        <r>  0.0318  0.0279  0.0191  0.0237  0.0000  0.0000  0.0000  0.0000  0.0000 </r>
       </set>
       <set comment="band 6">
        <r>  0.0318  0.0280  0.0191  0.0237  0.0000  0.0000  0.0000  0.0000  0.0000 </r>
        <r>  0.0444  0.0200  0.0137  0.0331  0.0000  0.0000  0.0000  0.0000  0.0000 </r>
       </set>
       <set comment="band 7">
        <r>  0.0224  0.0297  0.0331  0.0570  0.0000  0.0000  0.0000  0.0000  0.0000 </r>
        <r>  0.0228  0.0292  0.0325  0.0580  0.0000  0.0000  0.0000  0.0000  0.0000 </r>
       </set>
       <set comment="band 8">
        <r>  0.0228  0.0292  0.0325  0.0580  0.0000  0.0000  0.0000  0.0000  0.0000 </r>
        <r>  0.0224  0.0297  0.0331  0.0570  0.0000  0.0000  0.0000  0.0000  0.0000 </r>
       </set>
       <set comment="band 9">
        <r>  0.0004  0.0188  0.0611  0.0380  0.0000  0.0000  0.0000  0.0000  0.0000 </r>
        <r>  0.0003  0.0246  0.0801  0.0290  0.0000  0.0000  0.0000  0.0000  0.0000 </r>
       </set>
       <set comment="band 10">
        <r>  0.0003  0.0246  0.0801  0.0290  0.0000  0.0000  0.0000  0.0000  0.0000 </r>
        <r>  0.0004  0.0188  0.0611  0.0380  0.0000  0.0000  0.0000  0.0000  0.0000 </r>
       </set>
       <set comment="band 11">
        <r>  0.0355  0.0435  0.0102  0.0001  0.0000  0.0000  0.0000  0.0000  0.0000 </r>
        <r>  0.0140  0.1106  0.0259  0.0000  0.0000  0.0000  0.0000  0.0000  0.0000 </r>
       </set>
       <set comment="band 12">
        <r>  0.0181  0.0156  0.0156  0.0169  0.0000  0.0000  0.0000  0.0000  0.0000 </r>
        <r>  0.0099  0.0117  0.0236  0.0005  0.0000  0.0000  0.0000  0.0000  0.0000 </r>
       </set>
      </set>
      <set comment="kpoint 93">
       <set comment="band 1">
        <r>  0.2654  0.0251  0.0043  0.0001  0.0000  0.0000  0.0000  0.0000  0.0000 </r>
        <r>  0.1340  0.0496  0.0084  0.0000  0.0000  0.0000  0.0000  0.0000  0.0000 </r>
       </set>
       <set comment="band 2">
        <r>  0.1340  0.0496  0.0084  0.0000  0.0000  0.0000  0.0000  0.0000  0.0000 </r>
        <r>  0.2654  0.0251  0.0043  0.0001  0.0000  0.0000  0.0000  0.0000  0.0000 </r>
       </set>
       <set comment="band 3">
        <r>  0.0025  0.0199  0.0708  0.0780  0.0000  0.0000  0.0000  0.0000  0.0000 </r>
        <r>  0.0024  0.0208  0.0737  0.0749  0.0000  0.0000  0.0000  0.0000  0.0000 </r>
       </set>
       <set comment="band 4">
        <r>  0.0024  0.0208  0.0737  0.0749  0.0000  0.0000  0.0000  0.0000  0.0000 </r>
        <r>  0.0025  0.0199  0.0708  0.0780  0.0000  0.0000  0.0000  0.0000  0.0000 </r>
       </set>
       <set comment="band 5">
        <r>  0.0427  0.0198  0.0145  0.0349  0.0000  0.0000  0.0000  0.0000  0.0000 </r>
        <r>  0.0315  0.0268  0.0196  0.0258  0.0000  0.0000  0.0000  0.0000  0.0000 </r>
       </set>
       <set comment="band 6">
        <r>  0.0315  0.0268  0.0196  0.0258  0.0000  0.0000  0.0000  0.0000  0.0000 </r>
        <r>  0.0427  0.0198  0.0145  0.0349  0.0000  0.0000  0.0000  0.0000  0.0000 </r>
       </set>
       <set comment="band 7">
        <r>  0.0179  0.0376  0.0400  0.0418  0.0000  0.0000  0.0000  0.0000  0.0000 </r>
        <r>  0.0296  0.0227  0.0242  0.0691  0.0000  0.0000  0.0000  0.0000  0.0000 </r>
       </set>
       <set comment="band 8">
        <r>  0.0296  0.0227  0.0242  0.0691  0.0000  0.0000  0.0000  0.0000  0.0000 </r>
        <r>  0.0179  0.0376  0.0400  0.0418  0.0000  0.0000  0.0000  0.0000  0.0000 </r>
       </set>
       <set comment="band 9">
        <r>  0.0003  0.0204  0.0621  0.0381  0.0000  0.0000  0.0000  0.0000  0.0000 </r>
        <r>  0.0002  0.0256  0.0776  0.0304  0.0000  0.0000  0.0000  0.0000  0.0000 </r>
       </set>
       <set comment="band 10">
        <r>  0.0002  0.0257  0.0775  0.0304  0.0000  0.0000  0.0000  0.0000  0.0000 </r>
        <r>  0.0003  0.0205  0.0620  0.0380  0.0000  0.0000  0.0000  0.0000  0.0000 </r>
       </set>
       <set comment="band 11">
        <r>  0.0382  0.0360  0.0094  0.0001  0.0000  0.0000  0.0000  0.0000  0.0000 </r>
        <r>  0.0117  0.1171  0.0302  0.0000  0.0000  0.0000  0.0000  0.0000  0.0000 </r>
       </set>
       <set comment="band 12">
        <r>  0.0064  0.0224  0.0046  0.0456  0.0000  0.0000  0.0000  0.0000  0.0000 </r>
        <r>  0.0051  0.1138  0.0243  0.0036  0.0000  0.0000  0.0000  0.0000  0.0000 </r>
       </set>
      </set>
      <set comment="kpoint 94">
       <set comment="band 1">
        <r>  0.1922  0.0379  0.0074  0.0000  0.0000  0.0000  0.0000  0.0000  0.0000 </r>
        <r>  0.2082  0.0350  0.0068  0.0000  0.0000  0.0000  0.0000  0.0000  0.0000 </r>
       </set>
       <set comment="band 2">
        <r>  0.2082  0.0350  0.0068  0.0000  0.0000  0.0000  0.0000  0.0000  0.0000 </r>
        <r>  0.1922  0.0379  0.0074  0.0000  0.0000  0.0000  0.0000  0.0000  0.0000 </r>
       </set>
       <set comment="band 3">
        <r>  0.0022  0.0223  0.0719  0.0740  0.0000  0.0000  0.0000  0.0000  0.0000 </r>
        <r>  0.0023  0.0215  0.0692  0.0769  0.0000  0.0000  0.0000  0.0000  0.0000 </r>
       </set>
       <set comment="band 4">
        <r>  0.0023  0.0215  0.0692  0.0769  0.0000  0.0000  0.0000  0.0000  0.0000 </r>
        <r>  0.0022  0.0223  0.0719  0.0740  0.0000  0.0000  0.0000  0.0000  0.0000 </r>
       </set>
       <set comment="band 5">
        <r>  0.0476  0.0153  0.0119  0.0426  0.0000  0.0000  0.0000  0.0000  0.0000 </r>
        <r>  0.0244  0.0299  0.0233  0.0219  0.0000  0.0000  0.0000  0.0000  0.0000 </r>
       </set>
       <set comment="band 6">
        <r>  0.0244  0.0299  0.0233  0.0219  0.0000  0.0000  0.0000  0.0000  0.0000 </r>
        <r>  0.0476  0.0153  0.0119  0.0426  0.0000  0.0000  0.0000  0.0000  0.0000 </r>
       </set>
       <set comment="band 7">
        <r>  0.0252  0.0305  0.0311  0.0542  0.0000  0.0000  0.0000  0.0000  0.0000 </r>
        <r>  0.0245  0.0314  0.0320  0.0527  0.0000  0.0000  0.0000  0.0000  0.0000 </r>
       </set>
       <set comment="band 8">
        <r>  0.0245  0.0314  0.0320  0.0527  0.0000  0.0000  0.0000  0.0000  0.0000 </r>
        <r>  0.0252  0.0305  0.0311  0.0542  0.0000  0.0000  0.0000  0.0000  0.0000 </r>
       </set>
       <set comment="band 9">
        <r>  0.0003  0.0182  0.0516  0.0437  0.0000  0.0000  0.0000  0.0000  0.0000 </r>
        <r>  0.0002  0.0305  0.0864  0.0261  0.0000  0.0000  0.0000  0.0000  0.0000 </r>
       </set>
       <set comment="band 10">
        <r>  0.0002  0.0306  0.0863  0.0261  0.0000  0.0000  0.0000  0.0000  0.0000 </r>
        <r>  0.0003  0.0183  0.0515  0.0437  0.0000  0.0000  0.0000  0.0000  0.0000 </r>
       </set>
       <set comment="band 11">
        <r>  0.0027  0.0160  0.0004  0.0049  0.0000  0.0000  0.0000  0.0000  0.0000 </r>
        <r>  0.0096  0.0211  0.0184  0.0071  0.0000  0.0000  0.0000  0.0000  0.0000 </r>
       </set>
       <set comment="band 12">
        <r>  0.0110  0.0002  0.0222  0.0214  0.0000  0.0000  0.0000  0.0000  0.0000 </r>
        <r>  0.0015  0.0080  0.0099  0.0552  0.0000  0.0000  0.0000  0.0000  0.0000 </r>
       </set>
      </set>
      <set comment="kpoint 95">
       <set comment="band 1">
        <r>  0.1916  0.0372  0.0082  0.0000  0.0000  0.0000  0.0000  0.0000  0.0000 </r>
        <r>  0.2099  0.0339  0.0075  0.0000  0.0000  0.0000  0.0000  0.0000  0.0000 </r>
       </set>
       <set comment="band 2">
        <r>  0.2100  0.0339  0.0075  0.0000  0.0000  0.0000  0.0000  0.0000  0.0000 </r>
        <r>  0.1916  0.0372  0.0082  0.0000  0.0000  0.0000  0.0000  0.0000  0.0000 </r>
       </set>
       <set comment="band 3">
        <r>  0.0017  0.0272  0.0798  0.0628  0.0000  0.0000  0.0000  0.0000  0.0000 </r>
        <r>  0.0024  0.0197  0.0579  0.0864  0.0000  0.0000  0.0000  0.0000  0.0000 </r>
       </set>
       <set comment="band 4">
        <r>  0.0024  0.0197  0.0579  0.0864  0.0000  0.0000  0.0000  0.0000  0.0000 </r>
        <r>  0.0017  0.0272  0.0798  0.0628  0.0000  0.0000  0.0000  0.0000  0.0000 </r>
       </set>
       <set comment="band 5">
        <r>  0.0140  0.0351  0.0289  0.0137  0.0000  0.0000  0.0000  0.0000  0.0000 </r>
        <r>  0.0559  0.0088  0.0072  0.0547  0.0000  0.0000  0.0000  0.0000  0.0000 </r>
       </set>
       <set comment="band 6">
        <r>  0.0559  0.0088  0.0072  0.0547  0.0000  0.0000  0.0000  0.0000  0.0000 </r>
        <r>  0.0140  0.0351  0.0289  0.0137  0.0000  0.0000  0.0000  0.0000  0.0000 </r>
       </set>
       <set comment="band 7">
        <r>  0.0264  0.0312  0.0308  0.0521  0.0000  0.0000  0.0000  0.0000  0.0000 </r>
        <r>  0.0258  0.0320  0.0315  0.0509  0.0000  0.0000  0.0000  0.0000  0.0000 </r>
       </set>
       <set comment="band 8">
        <r>  0.0257  0.0320  0.0315  0.0509  0.0000  0.0000  0.0000  0.0000  0.0000 </r>
        <r>  0.0264  0.0312  0.0308  0.0521  0.0000  0.0000  0.0000  0.0000  0.0000 </r>
       </set>
       <set comment="band 9">
        <r>  0.0002  0.0281  0.0740  0.0323  0.0000  0.0000  0.0000  0.0000  0.0000 </r>
        <r>  0.0002  0.0235  0.0619  0.0386  0.0000  0.0000  0.0000  0.0000  0.0000 </r>
       </set>
       <set comment="band 10">
        <r>  0.0002  0.0235  0.0619  0.0386  0.0000  0.0000  0.0000  0.0000  0.0000 </r>
        <r>  0.0002  0.0281  0.0739  0.0323  0.0000  0.0000  0.0000  0.0000  0.0000 </r>
       </set>
       <set comment="band 11">
        <r>  0.0070  0.0099  0.0062  0.0393  0.0000  0.0000  0.0000  0.0000  0.0000 </r>
        <r>  0.0264  0.0679  0.0287  0.0080  0.0000  0.0000  0.0000  0.0000  0.0000 </r>
       </set>
       <set comment="band 12">
        <r>  0.0160  0.0006  0.0029  0.0390  0.0000  0.0000  0.0000  0.0000  0.0000 </r>
        <r>  0.0043  0.0061  0.0075  0.0081  0.0000  0.0000  0.0000  0.0000  0.0000 </r>
       </set>
      </set>
      <set comment="kpoint 96">
       <set comment="band 1">
        <r>  0.2401  0.0279  0.0070  0.0000  0.0000  0.0000  0.0000  0.0000  0.0000 </r>
        <r>  0.1624  0.0413  0.0103  0.0000  0.0000  0.0000  0.0000  0.0000  0.0000 </r>
       </set>
       <set comment="band 2">
        <r>  0.1624  0.0413  0.0103  0.0000  0.0000  0.0000  0.0000  0.0000  0.0000 </r>
        <r>  0.2401  0.0279  0.0070  0.0000  0.0000  0.0000  0.0000  0.0000  0.0000 </r>
       </set>
       <set comment="band 3">
        <r>  0.0019  0.0242  0.0650  0.0762  0.0000  0.0000  0.0000  0.0000  0.0000 </r>
        <r>  0.0018  0.0258  0.0693  0.0715  0.0000  0.0000  0.0000  0.0000  0.0000 </r>
       </set>
       <set comment="band 4">
        <r>  0.0018  0.0258  0.0693  0.0715  0.0000  0.0000  0.0000  0.0000  0.0000 </r>
        <r>  0.0019  0.0242  0.0650  0.0762  0.0000  0.0000  0.0000  0.0000  0.0000 </r>
       </set>
       <set comment="band 5">
        <r>  0.0500  0.0110  0.0096  0.0536  0.0000  0.0000  0.0000  0.0000  0.0000 </r>
        <r>  0.0175  0.0315  0.0273  0.0188  0.0000  0.0000  0.0000  0.0000  0.0000 </r>
       </set>
       <set comment="band 6">
        <r>  0.0175  0.0315  0.0273  0.0188  0.0000  0.0000  0.0000  0.0000  0.0000 </r>
        <r>  0.0500  0.0110  0.0096  0.0536  0.0000  0.0000  0.0000  0.0000  0.0000 </r>
       </set>
       <set comment="band 7">
        <r>  0.0245  0.0356  0.0341  0.0444  0.0000  0.0000  0.0000  0.0000  0.0000 </r>
        <r>  0.0301  0.0289  0.0277  0.0546  0.0000  0.0000  0.0000  0.0000  0.0000 </r>
       </set>
       <set comment="band 8">
        <r>  0.0301  0.0289  0.0277  0.0546  0.0000  0.0000  0.0000  0.0000  0.0000 </r>
        <r>  0.0245  0.0356  0.0341  0.0444  0.0000  0.0000  0.0000  0.0000  0.0000 </r>
       </set>
       <set comment="band 9">
        <r>  0.0001  0.0290  0.0710  0.0337  0.0000  0.0000  0.0000  0.0000  0.0000 </r>
        <r>  0.0002  0.0256  0.0625  0.0382  0.0000  0.0000  0.0000  0.0000  0.0000 </r>
       </set>
       <set comment="band 10">
        <r>  0.0002  0.0256  0.0625  0.0382  0.0000  0.0000  0.0000  0.0000  0.0000 </r>
        <r>  0.0001  0.0290  0.0710  0.0337  0.0000  0.0000  0.0000  0.0000  0.0000 </r>
       </set>
       <set comment="band 11">
        <r>  0.0453  0.0160  0.0055  0.0000  0.0000  0.0000  0.0000  0.0000  0.0000 </r>
        <r>  0.0055  0.1322  0.0453  0.0000  0.0000  0.0000  0.0000  0.0000  0.0000 </r>
       </set>
       <set comment="band 12">
        <r>  0.0146  0.0023  0.0245  0.0155  0.0000  0.0000  0.0000  0.0000  0.0000 </r>
        <r>  0.0064  0.0503  0.0092  0.0019  0.0000  0.0000  0.0000  0.0000  0.0000 </r>
       </set>
      </set>
      <set comment="kpoint 97">
       <set comment="band 1">
        <r>  0.1636  0.0400  0.0113  0.0000  0.0000  0.0000  0.0000  0.0000  0.0000 </r>
        <r>  0.2399  0.0273  0.0077  0.0000  0.0000  0.0000  0.0000  0.0000  0.0000 </r>
       </set>
       <set comment="band 2">
        <r>  0.2399  0.0273  0.0077  0.0000  0.0000  0.0000  0.0000  0.0000  0.0000 </r>
        <r>  0.1636  0.0400  0.0113  0.0000  0.0000  0.0000  0.0000  0.0000  0.0000 </r>
       </set>
       <set comment="band 3">
        <r>  0.0018  0.0239  0.0587  0.0806  0.0000  0.0000  0.0000  0.0000  0.0000 </r>
        <r>  0.0015  0.0294  0.0722  0.0656  0.0000  0.0000  0.0000  0.0000  0.0000 </r>
       </set>
       <set comment="band 4">
        <r>  0.0015  0.0294  0.0722  0.0656  0.0000  0.0000  0.0000  0.0000  0.0000 </r>
        <r>  0.0018  0.0239  0.0587  0.0806  0.0000  0.0000  0.0000  0.0000  0.0000 </r>
       </set>
       <set comment="band 5">
        <r>  0.0222  0.0271  0.0246  0.0261  0.0000  0.0000  0.0000  0.0000  0.0000 </r>
        <r>  0.0429  0.0140  0.0127  0.0504  0.0000  0.0000  0.0000  0.0000  0.0000 </r>
       </set>
       <set comment="band 6">
        <r>  0.0429  0.0140  0.0127  0.0504  0.0000  0.0000  0.0000  0.0000  0.0000 </r>
        <r>  0.0222  0.0271  0.0246  0.0261  0.0000  0.0000  0.0000  0.0000  0.0000 </r>
       </set>
       <set comment="band 7">
        <r>  0.0284  0.0331  0.0309  0.0472  0.0000  0.0000  0.0000  0.0000  0.0000 </r>
        <r>  0.0287  0.0328  0.0306  0.0477  0.0000  0.0000  0.0000  0.0000  0.0000 </r>
       </set>
       <set comment="band 8">
        <r>  0.0287  0.0328  0.0306  0.0477  0.0000  0.0000  0.0000  0.0000  0.0000 </r>
        <r>  0.0284  0.0331  0.0309  0.0472  0.0000  0.0000  0.0000  0.0000  0.0000 </r>
       </set>
       <set comment="band 9">
        <r>  0.0001  0.0251  0.0572  0.0410  0.0000  0.0000  0.0000  0.0000  0.0000 </r>
        <r>  0.0001  0.0324  0.0738  0.0318  0.0000  0.0000  0.0000  0.0000  0.0000 </r>
       </set>
       <set comment="band 10">
        <r>  0.0001  0.0326  0.0736  0.0318  0.0000  0.0000  0.0000  0.0000  0.0000 </r>
        <r>  0.0002  0.0253  0.0570  0.0410  0.0000  0.0000  0.0000  0.0000  0.0000 </r>
       </set>
       <set comment="band 11">
        <r>  0.0076  0.0375  0.0131  0.0253  0.0000  0.0000  0.0000  0.0000  0.0000 </r>
        <r>  0.0071  0.0673  0.0204  0.0081  0.0000  0.0000  0.0000  0.0000  0.0000 </r>
       </set>
       <set comment="band 12">
        <r>  0.0193  0.0012  0.0076  0.0301  0.0000  0.0000  0.0000  0.0000  0.0000 </r>
        <r>  0.0012  0.0096  0.0140  0.0116  0.0000  0.0000  0.0000  0.0000  0.0000 </r>
       </set>
      </set>
      <set comment="kpoint 98">
       <set comment="band 1">
        <r>  0.2297  0.0282  0.0089  0.0000  0.0000  0.0000  0.0000  0.0000  0.0000 </r>
        <r>  0.1747  0.0371  0.0118  0.0000  0.0000  0.0000  0.0000  0.0000  0.0000 </r>
       </set>
       <set comment="band 2">
        <r>  0.1747  0.0371  0.0118  0.0000  0.0000  0.0000  0.0000  0.0000  0.0000 </r>
        <r>  0.2298  0.0282  0.0089  0.0000  0.0000  0.0000  0.0000  0.0000  0.0000 </r>
       </set>
       <set comment="band 3">
        <r>  0.0018  0.0210  0.0473  0.0911  0.0000  0.0000  0.0000  0.0000  0.0000 </r>
        <r>  0.0011  0.0356  0.0801  0.0538  0.0000  0.0000  0.0000  0.0000  0.0000 </r>
       </set>
       <set comment="band 4">
        <r>  0.0011  0.0356  0.0801  0.0538  0.0000  0.0000  0.0000  0.0000  0.0000 </r>
        <r>  0.0018  0.0210  0.0473  0.0911  0.0000  0.0000  0.0000  0.0000  0.0000 </r>
       </set>
       <set comment="band 5">
        <r>  0.0190  0.0275  0.0262  0.0246  0.0000  0.0000  0.0000  0.0000  0.0000 </r>
        <r>  0.0434  0.0120  0.0115  0.0562  0.0000  0.0000  0.0000  0.0000  0.0000 </r>
       </set>
       <set comment="band 6">
        <r>  0.0434  0.0120  0.0115  0.0562  0.0000  0.0000  0.0000  0.0000  0.0000 </r>
        <r>  0.0190  0.0275  0.0262  0.0246  0.0000  0.0000  0.0000  0.0000  0.0000 </r>
       </set>
       <set comment="band 7">
        <r>  0.0288  0.0349  0.0320  0.0436  0.0000  0.0000  0.0000  0.0000  0.0000 </r>
        <r>  0.0311  0.0323  0.0296  0.0471  0.0000  0.0000  0.0000  0.0000  0.0000 </r>
       </set>
       <set comment="band 8">
        <r>  0.0002  0.0273  0.0535  0.0413  0.0000  0.0000  0.0000  0.0000  0.0000 </r>
        <r>  0.0002  0.0373  0.0743  0.0297  0.0000  0.0000  0.0000  0.0000  0.0000 </r>
       </set>
       <set comment="band 9">
        <r>  0.0240  0.0835  0.0127  0.0005  0.0000  0.0000  0.0000  0.0000  0.0000 </r>
        <r>  0.0244  0.0810  0.0213  0.0014  0.0000  0.0000  0.0000  0.0000  0.0000 </r>
       </set>
       <set comment="band 10">
        <r>  0.0247  0.0815  0.0349  0.0001  0.0000  0.0000  0.0000  0.0000  0.0000 </r>
        <r>  0.0282  0.0716  0.0254  0.0002  0.0000  0.0000  0.0000  0.0000  0.0000 </r>
       </set>
       <set comment="band 11">
        <r>  0.0020  0.0384  0.0264  0.0157  0.0000  0.0000  0.0000  0.0000  0.0000 </r>
        <r>  0.0097  0.0381  0.0152  0.0170  0.0000  0.0000  0.0000  0.0000  0.0000 </r>
       </set>
       <set comment="band 12">
        <r>  0.0075  0.0253  0.0035  0.0237  0.0000  0.0000  0.0000  0.0000  0.0000 </r>
        <r>  0.0118  0.0677  0.0007  0.0097  0.0000  0.0000  0.0000  0.0000  0.0000 </r>
       </set>
      </set>
      <set comment="kpoint 99">
       <set comment="band 1">
        <r>  0.1874  0.0340  0.0121  0.0000  0.0000  0.0000  0.0000  0.0000  0.0000 </r>
        <r>  0.2180  0.0292  0.0104  0.0000  0.0000  0.0000  0.0000  0.0000  0.0000 </r>
       </set>
       <set comment="band 2">
        <r>  0.2180  0.0292  0.0104  0.0000  0.0000  0.0000  0.0000  0.0000  0.0000 </r>
        <r>  0.1874  0.0340  0.0121  0.0000  0.0000  0.0000  0.0000  0.0000  0.0000 </r>
       </set>
       <set comment="band 3">
        <r>  0.0009  0.0377  0.0779  0.0534  0.0000  0.0000  0.0000  0.0000  0.0000 </r>
        <r>  0.0015  0.0223  0.0461  0.0903  0.0000  0.0000  0.0000  0.0000  0.0000 </r>
       </set>
       <set comment="band 4">
        <r>  0.0015  0.0223  0.0461  0.0903  0.0000  0.0000  0.0000  0.0000  0.0000 </r>
        <r>  0.0009  0.0377  0.0779  0.0534  0.0000  0.0000  0.0000  0.0000  0.0000 </r>
       </set>
       <set comment="band 5">
        <r>  0.0196  0.0254  0.0252  0.0281  0.0000  0.0000  0.0000  0.0000  0.0000 </r>
        <r>  0.0400  0.0124  0.0124  0.0573  0.0000  0.0000  0.0000  0.0000  0.0000 </r>
       </set>
       <set comment="band 6">
        <r>  0.0400  0.0125  0.0124  0.0573  0.0000  0.0000  0.0000  0.0000  0.0000 </r>
        <r>  0.0196  0.0254  0.0252  0.0281  0.0000  0.0000  0.0000  0.0000  0.0000 </r>
       </set>
       <set comment="band 7">
        <r>  0.0552  0.0084  0.0075  0.0758  0.0000  0.0000  0.0000  0.0000  0.0000 </r>
        <r>  0.0076  0.0604  0.0545  0.0105  0.0000  0.0000  0.0000  0.0000  0.0000 </r>
       </set>
       <set comment="band 8">
        <r>  0.0076  0.0604  0.0545  0.0105  0.0000  0.0000  0.0000  0.0000  0.0000 </r>
        <r>  0.0552  0.0084  0.0075  0.0758  0.0000  0.0000  0.0000  0.0000  0.0000 </r>
       </set>
       <set comment="band 9">
        <r>  0.0001  0.0295  0.0579  0.0399  0.0000  0.0000  0.0000  0.0000  0.0000 </r>
        <r>  0.0001  0.0345  0.0675  0.0342  0.0000  0.0000  0.0000  0.0000  0.0000 </r>
       </set>
       <set comment="band 10">
        <r>  0.0001  0.0345  0.0675  0.0342  0.0000  0.0000  0.0000  0.0000  0.0000 </r>
        <r>  0.0001  0.0296  0.0579  0.0399  0.0000  0.0000  0.0000  0.0000  0.0000 </r>
       </set>
       <set comment="band 11">
        <r>  0.0259  0.0695  0.0314  0.0000  0.0000  0.0000  0.0000  0.0000  0.0000 </r>
        <r>  0.0253  0.0711  0.0321  0.0000  0.0000  0.0000  0.0000  0.0000  0.0000 </r>
       </set>
       <set comment="band 12">
        <r>  0.0210  0.0673  0.0353  0.0039  0.0000  0.0000  0.0000  0.0000  0.0000 </r>
        <r>  0.0192  0.0104  0.0074  0.0308  0.0000  0.0000  0.0000  0.0000  0.0000 </r>
       </set>
      </set>
      <set comment="kpoint 100">
       <set comment="band 1">
        <r>  0.2142  0.0288  0.0116  0.0000  0.0000  0.0000  0.0000  0.0000  0.0000 </r>
        <r>  0.1920  0.0322  0.0129  0.0000  0.0000  0.0000  0.0000  0.0000  0.0000 </r>
       </set>
       <set comment="band 2">
        <r>  0.1920  0.0322  0.0129  0.0000  0.0000  0.0000  0.0000  0.0000  0.0000 </r>
        <r>  0.2142  0.0288  0.0116  0.0000  0.0000  0.0000  0.0000  0.0000  0.0000 </r>
       </set>
       <set comment="band 3">
        <r>  0.0011  0.0289  0.0549  0.0777  0.0000  0.0000  0.0000  0.0000  0.0000 </r>
        <r>  0.0009  0.0345  0.0656  0.0650  0.0000  0.0000  0.0000  0.0000  0.0000 </r>
       </set>
       <set comment="band 4">
        <r>  0.0009  0.0345  0.0656  0.0650  0.0000  0.0000  0.0000  0.0000  0.0000 </r>
        <r>  0.0011  0.0289  0.0549  0.0777  0.0000  0.0000  0.0000  0.0000  0.0000 </r>
       </set>
       <set comment="band 5">
        <r>  0.0232  0.0212  0.0219  0.0370  0.0000  0.0000  0.0000  0.0000  0.0000 </r>
        <r>  0.0333  0.0148  0.0153  0.0533  0.0000  0.0000  0.0000  0.0000  0.0000 </r>
       </set>
       <set comment="band 6">
        <r>  0.0333  0.0148  0.0153  0.0533  0.0000  0.0000  0.0000  0.0000  0.0000 </r>
        <r>  0.0232  0.0212  0.0220  0.0370  0.0000  0.0000  0.0000  0.0000  0.0000 </r>
       </set>
       <set comment="band 7">
        <r>  0.0339  0.0343  0.0306  0.0417  0.0000  0.0000  0.0000  0.0000  0.0000 </r>
        <r>  0.0322  0.0361  0.0322  0.0397  0.0000  0.0000  0.0000  0.0000  0.0000 </r>
       </set>
       <set comment="band 8">
        <r>  0.0322  0.0361  0.0322  0.0397  0.0000  0.0000  0.0000  0.0000  0.0000 </r>
        <r>  0.0339  0.0343  0.0306  0.0417  0.0000  0.0000  0.0000  0.0000  0.0000 </r>
       </set>
       <set comment="band 9">
        <r>  0.0001  0.0211  0.0384  0.0513  0.0000  0.0000  0.0000  0.0000  0.0000 </r>
        <r>  0.0000  0.0462  0.0841  0.0234  0.0000  0.0000  0.0000  0.0000  0.0000 </r>
       </set>
       <set comment="band 10">
        <r>  0.0000  0.0463  0.0840  0.0234  0.0000  0.0000  0.0000  0.0000  0.0000 </r>
        <r>  0.0001  0.0211  0.0383  0.0513  0.0000  0.0000  0.0000  0.0000  0.0000 </r>
       </set>
       <set comment="band 11">
        <r>  0.0510  0.0034  0.0017  0.0170  0.0000  0.0000  0.0000  0.0000  0.0000 </r>
        <r>  0.0199  0.0540  0.0127  0.0025  0.0000  0.0000  0.0000  0.0000  0.0000 </r>
       </set>
       <set comment="band 12">
        <r>  0.0045  0.0042  0.0369  0.0015  0.0000  0.0000  0.0000  0.0000  0.0000 </r>
        <r>  0.0238  0.0238  0.0190  0.0010  0.0000  0.0000  0.0000  0.0000  0.0000 </r>
       </set>
      </set>
      <set comment="kpoint 101">
       <set comment="band 1">
        <r>  0.2271  0.0260  0.0117  0.0000  0.0000  0.0000  0.0000  0.0000  0.0000 </r>
        <r>  0.1799  0.0328  0.0148  0.0000  0.0000  0.0000  0.0000  0.0000  0.0000 </r>
       </set>
       <set comment="band 2">
        <r>  0.1799  0.0328  0.0148  0.0000  0.0000  0.0000  0.0000  0.0000  0.0000 </r>
        <r>  0.2271  0.0260  0.0117  0.0000  0.0000  0.0000  0.0000  0.0000  0.0000 </r>
       </set>
       <set comment="band 3">
        <r>  0.0008  0.0341  0.0598  0.0693  0.0000  0.0000  0.0000  0.0000  0.0000 </r>
        <r>  0.0008  0.0327  0.0572  0.0724  0.0000  0.0000  0.0000  0.0000  0.0000 </r>
       </set>
       <set comment="band 4">
        <r>  0.0008  0.0327  0.0572  0.0724  0.0000  0.0000  0.0000  0.0000  0.0000 </r>
        <r>  0.0008  0.0341  0.0598  0.0693  0.0000  0.0000  0.0000  0.0000  0.0000 </r>
       </set>
       <set comment="band 5">
        <r>  0.0367  0.0103  0.0111  0.0666  0.0000  0.0000  0.0000  0.0000  0.0000 </r>
        <r>  0.0162  0.0235  0.0253  0.0293  0.0000  0.0000  0.0000  0.0000  0.0000 </r>
       </set>
       <set comment="band 6">
        <r>  0.0161  0.0235  0.0252  0.0293  0.0000  0.0000  0.0000  0.0000  0.0000 </r>
        <r>  0.0367  0.0103  0.0111  0.0666  0.0000  0.0000  0.0000  0.0000  0.0000 </r>
       </set>
       <set comment="band 7">
        <r>  0.0335  0.0375  0.0333  0.0365  0.0000  0.0000  0.0000  0.0000  0.0000 </r>
        <r>  0.0362  0.0347  0.0308  0.0395  0.0000  0.0000  0.0000  0.0000  0.0000 </r>
       </set>
       <set comment="band 8">
        <r>  0.0362  0.0347  0.0308  0.0395  0.0000  0.0000  0.0000  0.0000  0.0000 </r>
        <r>  0.0335  0.0375  0.0333  0.0365  0.0000  0.0000  0.0000  0.0000  0.0000 </r>
       </set>
       <set comment="band 9">
        <r>  0.0000  0.0438  0.0741  0.0285  0.0000  0.0000  0.0000  0.0000  0.0000 </r>
        <r>  0.0001  0.0268  0.0453  0.0467  0.0000  0.0000  0.0000  0.0000  0.0000 </r>
       </set>
       <set comment="band 10">
        <r>  0.0001  0.0269  0.0452  0.0467  0.0000  0.0000  0.0000  0.0000  0.0000 </r>
        <r>  0.0000  0.0439  0.0740  0.0285  0.0000  0.0000  0.0000  0.0000  0.0000 </r>
       </set>
       <set comment="band 11">
        <r>  0.0391  0.0003  0.0045  0.0162  0.0000  0.0000  0.0000  0.0000  0.0000 </r>
        <r>  0.0022  0.0444  0.0151  0.0024  0.0000  0.0000  0.0000  0.0000  0.0000 </r>
       </set>
       <set comment="band 12">
        <r>  0.0232  0.0050  0.0327  0.0078  0.0000  0.0000  0.0000  0.0000  0.0000 </r>
        <r>  0.0053  0.0062  0.0482  0.0164  0.0000  0.0000  0.0000  0.0000  0.0000 </r>
       </set>
      </set>
      <set comment="kpoint 102">
       <set comment="band 1">
        <r>  0.1753  0.0322  0.0163  0.0000  0.0000  0.0000  0.0000  0.0000  0.0000 </r>
        <r>  0.2323  0.0243  0.0123  0.0000  0.0000  0.0000  0.0000  0.0000  0.0000 </r>
       </set>
       <set comment="band 2">
        <r>  0.2323  0.0243  0.0123  0.0000  0.0000  0.0000  0.0000  0.0000  0.0000 </r>
        <r>  0.1753  0.0322  0.0163  0.0000  0.0000  0.0000  0.0000  0.0000  0.0000 </r>
       </set>
       <set comment="band 3">
        <r>  0.0006  0.0321  0.0518  0.0766  0.0000  0.0000  0.0000  0.0000  0.0000 </r>
        <r>  0.0005  0.0382  0.0617  0.0644  0.0000  0.0000  0.0000  0.0000  0.0000 </r>
       </set>
       <set comment="band 4">
        <r>  0.0005  0.0382  0.0617  0.0644  0.0000  0.0000  0.0000  0.0000  0.0000 </r>
        <r>  0.0006  0.0321  0.0518  0.0766  0.0000  0.0000  0.0000  0.0000  0.0000 </r>
       </set>
       <set comment="band 5">
        <r>  0.0371  0.0074  0.0083  0.0779  0.0000  0.0000  0.0000  0.0000  0.0000 </r>
        <r>  0.0116  0.0238  0.0266  0.0243  0.0000  0.0000  0.0000  0.0000  0.0000 </r>
       </set>
       <set comment="band 6">
        <r>  0.0116  0.0238  0.0266  0.0243  0.0000  0.0000  0.0000  0.0000  0.0000 </r>
        <r>  0.0371  0.0074  0.0083  0.0779  0.0000  0.0000  0.0000  0.0000  0.0000 </r>
       </set>
       <set comment="band 7">
        <r>  0.0366  0.0377  0.0334  0.0345  0.0000  0.0000  0.0000  0.0000  0.0000 </r>
        <r>  0.0374  0.0368  0.0326  0.0353  0.0000  0.0000  0.0000  0.0000  0.0000 </r>
       </set>
       <set comment="band 8">
        <r>  0.0374  0.0368  0.0326  0.0353  0.0000  0.0000  0.0000  0.0000  0.0000 </r>
        <r>  0.0366  0.0377  0.0334  0.0345  0.0000  0.0000  0.0000  0.0000  0.0000 </r>
       </set>
       <set comment="band 9">
        <r>  0.0000  0.0622  0.0976  0.0121  0.0000  0.0000  0.0000  0.0000  0.0000 </r>
        <r>  0.0001  0.0119  0.0186  0.0636  0.0000  0.0000  0.0000  0.0000  0.0000 </r>
       </set>
       <set comment="band 10">
        <r>  0.0001  0.0119  0.0186  0.0636  0.0000  0.0000  0.0000  0.0000  0.0000 </r>
        <r>  0.0000  0.0623  0.0975  0.0121  0.0000  0.0000  0.0000  0.0000  0.0000 </r>
       </set>
       <set comment="band 11">
        <r>  0.0148  0.0108  0.0113  0.0039  0.0000  0.0000  0.0000  0.0000  0.0000 </r>
        <r>  0.0007  0.0040  0.0131  0.0100  0.0000  0.0000  0.0000  0.0000  0.0000 </r>
       </set>
       <set comment="band 12">
        <r>  0.0170  0.0006  0.0460  0.0016  0.0000  0.0000  0.0000  0.0000  0.0000 </r>
        <r>  0.0286  0.0052  0.0087  0.0104  0.0000  0.0000  0.0000  0.0000  0.0000 </r>
       </set>
      </set>
      <set comment="kpoint 103">
       <set comment="band 1">
        <r>  0.2239  0.0245  0.0139  0.0000  0.0000  0.0000  0.0000  0.0000  0.0000 </r>
        <r>  0.1844  0.0297  0.0169  0.0000  0.0000  0.0000  0.0000  0.0000  0.0000 </r>
       </set>
       <set comment="band 2">
        <r>  0.1844  0.0297  0.0169  0.0000  0.0000  0.0000  0.0000  0.0000  0.0000 </r>
        <r>  0.2239  0.0245  0.0139  0.0000  0.0000  0.0000  0.0000  0.0000  0.0000 </r>
       </set>
       <set comment="band 3">
        <r>  0.0005  0.0340  0.0506  0.0758  0.0000  0.0000  0.0000  0.0000  0.0000 </r>
        <r>  0.0004  0.0399  0.0593  0.0645  0.0000  0.0000  0.0000  0.0000  0.0000 </r>
       </set>
       <set comment="band 4">
        <r>  0.0004  0.0399  0.0593  0.0645  0.0000  0.0000  0.0000  0.0000  0.0000 </r>
        <r>  0.0005  0.0340  0.0506  0.0758  0.0000  0.0000  0.0000  0.0000  0.0000 </r>
       </set>
       <set comment="band 5">
        <r>  0.0333  0.0066  0.0077  0.0838  0.0000  0.0000  0.0000  0.0000  0.0000 </r>
        <r>  0.0103  0.0214  0.0249  0.0259  0.0000  0.0000  0.0000  0.0000  0.0000 </r>
       </set>
       <set comment="band 6">
        <r>  0.0103  0.0214  0.0249  0.0259  0.0000  0.0000  0.0000  0.0000  0.0000 </r>
        <r>  0.0333  0.0066  0.0077  0.0838  0.0000  0.0000  0.0000  0.0000  0.0000 </r>
       </set>
       <set comment="band 7">
        <r>  0.0393  0.0389  0.0345  0.0311  0.0000  0.0000  0.0000  0.0000  0.0000 </r>
        <r>  0.0397  0.0385  0.0342  0.0314  0.0000  0.0000  0.0000  0.0000  0.0000 </r>
       </set>
       <set comment="band 8">
        <r>  0.0397  0.0385  0.0342  0.0314  0.0000  0.0000  0.0000  0.0000  0.0000 </r>
        <r>  0.0393  0.0389  0.0345  0.0311  0.0000  0.0000  0.0000  0.0000  0.0000 </r>
       </set>
       <set comment="band 9">
        <r>  0.0000  0.0459  0.0668  0.0310  0.0000  0.0000  0.0000  0.0000  0.0000 </r>
        <r>  0.0000  0.0317  0.0460  0.0450  0.0000  0.0000  0.0000  0.0000  0.0000 </r>
       </set>
       <set comment="band 10">
        <r>  0.0000  0.0317  0.0460  0.0450  0.0000  0.0000  0.0000  0.0000  0.0000 </r>
        <r>  0.0000  0.0460  0.0667  0.0310  0.0000  0.0000  0.0000  0.0000  0.0000 </r>
       </set>
       <set comment="band 11">
        <r>  0.0262  0.0191  0.0110  0.0114  0.0000  0.0000  0.0000  0.0000  0.0000 </r>
        <r>  0.0126  0.0333  0.0238  0.0118  0.0000  0.0000  0.0000  0.0000  0.0000 </r>
       </set>
       <set comment="band 12">
        <r>  0.0081  0.0068  0.0096  0.0754  0.0000  0.0000  0.0000  0.0000  0.0000 </r>
        <r>  0.0048  0.0052  0.0051  0.0377  0.0000  0.0000  0.0000  0.0000  0.0000 </r>
       </set>
      </set>
      <set comment="kpoint 104">
       <set comment="band 1">
        <r>  0.2178  0.0242  0.0154  0.0000  0.0000  0.0000  0.0000  0.0000  0.0000 </r>
        <r>  0.1909  0.0276  0.0176  0.0000  0.0000  0.0000  0.0000  0.0000  0.0000 </r>
       </set>
       <set comment="band 2">
        <r>  0.1910  0.0276  0.0176  0.0000  0.0000  0.0000  0.0000  0.0000  0.0000 </r>
        <r>  0.2178  0.0242  0.0154  0.0000  0.0000  0.0000  0.0000  0.0000  0.0000 </r>
       </set>
       <set comment="band 3">
        <r>  0.0003  0.0371  0.0509  0.0728  0.0000  0.0000  0.0000  0.0000  0.0000 </r>
        <r>  0.0003  0.0403  0.0554  0.0669  0.0000  0.0000  0.0000  0.0000  0.0000 </r>
       </set>
       <set comment="band 4">
        <r>  0.0003  0.0403  0.0554  0.0669  0.0000  0.0000  0.0000  0.0000  0.0000 </r>
        <r>  0.0003  0.0371  0.0509  0.0728  0.0000  0.0000  0.0000  0.0000  0.0000 </r>
       </set>
       <set comment="band 5">
        <r>  0.0035  0.0216  0.0264  0.0112  0.0000  0.0000  0.0000  0.0000  0.0000 </r>
        <r>  0.0338  0.0023  0.0027  0.1078  0.0000  0.0000  0.0000  0.0000  0.0000 </r>
       </set>
       <set comment="band 6">
        <r>  0.0337  0.0023  0.0027  0.1078  0.0000  0.0000  0.0000  0.0000  0.0000 </r>
        <r>  0.0035  0.0216  0.0264  0.0112  0.0000  0.0000  0.0000  0.0000  0.0000 </r>
       </set>
       <set comment="band 7">
        <r>  0.0515  0.0323  0.0289  0.0320  0.0000  0.0000  0.0000  0.0000  0.0000 </r>
        <r>  0.0340  0.0489  0.0438  0.0211  0.0000  0.0000  0.0000  0.0000  0.0000 </r>
       </set>
       <set comment="band 8">
        <r>  0.0340  0.0489  0.0438  0.0211  0.0000  0.0000  0.0000  0.0000  0.0000 </r>
        <r>  0.0515  0.0323  0.0289  0.0320  0.0000  0.0000  0.0000  0.0000  0.0000 </r>
       </set>
       <set comment="band 9">
        <r>  0.0000  0.0665  0.0897  0.0137  0.0000  0.0000  0.0000  0.0000  0.0000 </r>
        <r>  0.0000  0.0146  0.0197  0.0626  0.0000  0.0000  0.0000  0.0000  0.0000 </r>
       </set>
       <set comment="band 10">
        <r>  0.0000  0.0146  0.0197  0.0626  0.0000  0.0000  0.0000  0.0000  0.0000 </r>
        <r>  0.0000  0.0666  0.0897  0.0137  0.0000  0.0000  0.0000  0.0000  0.0000 </r>
       </set>
       <set comment="band 11">
        <r>  0.0099  0.0069  0.0611  0.0118  0.0000  0.0000  0.0000  0.0000  0.0000 </r>
        <r>  0.0172  0.0047  0.0299  0.0143  0.0000  0.0000  0.0000  0.0000  0.0000 </r>
       </set>
       <set comment="band 12">
        <r>  0.0054  0.0004  0.0043  0.0076  0.0000  0.0000  0.0000  0.0000  0.0000 </r>
        <r>  0.0323  0.0072  0.0642  0.0027  0.0000  0.0000  0.0000  0.0000  0.0000 </r>
       </set>
      </set>
      <set comment="kpoint 105">
       <set comment="band 1">
        <r>  0.1751  0.0283  0.0202  0.0000  0.0000  0.0000  0.0000  0.0000  0.0000 </r>
        <r>  0.2341  0.0211  0.0151  0.0000  0.0000  0.0000  0.0000  0.0000  0.0000 </r>
       </set>
       <set comment="band 2">
        <r>  0.2341  0.0211  0.0151  0.0000  0.0000  0.0000  0.0000  0.0000  0.0000 </r>
        <r>  0.1751  0.0283  0.0202  0.0000  0.0000  0.0000  0.0000  0.0000  0.0000 </r>
       </set>
       <set comment="band 3">
        <r>  0.0002  0.0409  0.0519  0.0689  0.0000  0.0000  0.0000  0.0000  0.0000 </r>
        <r>  0.0002  0.0400  0.0508  0.0704  0.0000  0.0000  0.0000  0.0000  0.0000 </r>
       </set>
       <set comment="band 4">
        <r>  0.0002  0.0400  0.0508  0.0704  0.0000  0.0000  0.0000  0.0000  0.0000 </r>
        <r>  0.0002  0.0409  0.0519  0.0689  0.0000  0.0000  0.0000  0.0000  0.0000 </r>
       </set>
       <set comment="band 5">
        <r>  0.0072  0.0138  0.0179  0.0326  0.0000  0.0000  0.0000  0.0000  0.0000 </r>
        <r>  0.0218  0.0046  0.0059  0.0984  0.0000  0.0000  0.0000  0.0000  0.0000 </r>
       </set>
       <set comment="band 6">
        <r>  0.0218  0.0046  0.0059  0.0984  0.0000  0.0000  0.0000  0.0000  0.0000 </r>
        <r>  0.0072  0.0138  0.0179  0.0326  0.0000  0.0000  0.0000  0.0000  0.0000 </r>
       </set>
       <set comment="band 7">
        <r>  0.0270  0.0615  0.0558  0.0119  0.0000  0.0000  0.0000  0.0000  0.0000 </r>
        <r>  0.0667  0.0249  0.0226  0.0294  0.0000  0.0000  0.0000  0.0000  0.0000 </r>
       </set>
       <set comment="band 8">
        <r>  0.0667  0.0249  0.0226  0.0294  0.0000  0.0000  0.0000  0.0000  0.0000 </r>
        <r>  0.0270  0.0615  0.0558  0.0119  0.0000  0.0000  0.0000  0.0000  0.0000 </r>
       </set>
       <set comment="band 9">
        <r>  0.0000  0.0423  0.0530  0.0383  0.0000  0.0000  0.0000  0.0000  0.0000 </r>
        <r>  0.0000  0.0424  0.0530  0.0383  0.0000  0.0000  0.0000  0.0000  0.0000 </r>
       </set>
       <set comment="band 10">
        <r>  0.0000  0.0424  0.0530  0.0383  0.0000  0.0000  0.0000  0.0000  0.0000 </r>
        <r>  0.0000  0.0423  0.0529  0.0383  0.0000  0.0000  0.0000  0.0000  0.0000 </r>
       </set>
       <set comment="band 11">
        <r>  0.0247  0.0622  0.0480  0.0000  0.0000  0.0000  0.0000  0.0000  0.0000 </r>
        <r>  0.0272  0.0566  0.0435  0.0000  0.0000  0.0000  0.0000  0.0000  0.0000 </r>
       </set>
       <set comment="band 12">
        <r>  0.0330  0.0077  0.0136  0.0020  0.0000  0.0000  0.0000  0.0000  0.0000 </r>
        <r>  0.0047  0.0135  0.0079  0.0054  0.0000  0.0000  0.0000  0.0000  0.0000 </r>
       </set>
      </set>
      <set comment="kpoint 106">
       <set comment="band 1">
        <r>  0.1785  0.0265  0.0212  0.0000  0.0000  0.0000  0.0000  0.0000  0.0000 </r>
        <r>  0.2309  0.0205  0.0164  0.0000  0.0000  0.0000  0.0000  0.0000  0.0000 </r>
       </set>
       <set comment="band 2">
        <r>  0.2309  0.0205  0.0164  0.0000  0.0000  0.0000  0.0000  0.0000  0.0000 </r>
        <r>  0.1785  0.0265  0.0212  0.0000  0.0000  0.0000  0.0000  0.0000  0.0000 </r>
       </set>
       <set comment="band 3">
        <r>  0.0001  0.0460  0.0539  0.0635  0.0000  0.0000  0.0000  0.0000  0.0000 </r>
        <r>  0.0001  0.0386  0.0452  0.0756  0.0000  0.0000  0.0000  0.0000  0.0000 </r>
       </set>
       <set comment="band 4">
        <r>  0.0001  0.0386  0.0452  0.0756  0.0000  0.0000  0.0000  0.0000  0.0000 </r>
        <r>  0.0001  0.0460  0.0539  0.0635  0.0000  0.0000  0.0000  0.0000  0.0000 </r>
       </set>
       <set comment="band 5">
        <r>  0.0116  0.0041  0.0059  0.0927  0.0000  0.0000  0.0000  0.0000  0.0000 </r>
        <r>  0.0067  0.0070  0.0102  0.0537  0.0000  0.0000  0.0000  0.0000  0.0000 </r>
       </set>
       <set comment="band 6">
        <r>  0.0067  0.0070  0.0102  0.0537  0.0000  0.0000  0.0000  0.0000  0.0000 </r>
        <r>  0.0116  0.0041  0.0059  0.0927  0.0000  0.0000  0.0000  0.0000  0.0000 </r>
       </set>
       <set comment="band 7">
        <r>  0.0049  0.0888  0.0824  0.0012  0.0000  0.0000  0.0000  0.0000  0.0000 </r>
        <r>  0.0995  0.0044  0.0041  0.0248  0.0000  0.0000  0.0000  0.0000  0.0000 </r>
       </set>
       <set comment="band 8">
        <r>  0.0995  0.0044  0.0041  0.0248  0.0000  0.0000  0.0000  0.0000  0.0000 </r>
        <r>  0.0049  0.0888  0.0824  0.0012  0.0000  0.0000  0.0000  0.0000  0.0000 </r>
       </set>
       <set comment="band 9">
        <r>  0.0000  0.0352  0.0408  0.0461  0.0000  0.0000  0.0000  0.0000  0.0000 </r>
        <r>  0.0000  0.0531  0.0616  0.0306  0.0000  0.0000  0.0000  0.0000  0.0000 </r>
       </set>
       <set comment="band 10">
        <r>  0.0000  0.0530  0.0617  0.0306  0.0000  0.0000  0.0000  0.0000  0.0000 </r>
        <r>  0.0000  0.0351  0.0409  0.0461  0.0000  0.0000  0.0000  0.0000  0.0000 </r>
       </set>
       <set comment="band 11">
        <r>  0.0262  0.0567  0.0475  0.0000  0.0000  0.0000  0.0000  0.0000  0.0000 </r>
        <r>  0.0256  0.0579  0.0487  0.0000  0.0000  0.0000  0.0000  0.0000  0.0000 </r>
       </set>
       <set comment="band 12">
        <r>  0.0053  0.0468  0.0004  0.0009  0.0000  0.0000  0.0000  0.0000  0.0000 </r>
        <r>  0.0361  0.0059  0.0100  0.0195  0.0000  0.0000  0.0000  0.0000  0.0000 </r>
       </set>
      </set>
      <set comment="kpoint 107">
       <set comment="band 1">
        <r>  0.1952  0.0234  0.0209  0.0000  0.0000  0.0000  0.0000  0.0000  0.0000 </r>
        <r>  0.2144  0.0213  0.0190  0.0000  0.0000  0.0000  0.0000  0.0000  0.0000 </r>
       </set>
       <set comment="band 2">
        <r>  0.2144  0.0213  0.0190  0.0000  0.0000  0.0000  0.0000  0.0000  0.0000 </r>
        <r>  0.1953  0.0234  0.0209  0.0000  0.0000  0.0000  0.0000  0.0000  0.0000 </r>
       </set>
       <set comment="band 3">
        <r>  0.0000  0.0470  0.0509  0.0648  0.0000  0.0000  0.0000  0.0000  0.0000 </r>
        <r>  0.0000  0.0412  0.0446  0.0740  0.0000  0.0000  0.0000  0.0000  0.0000 </r>
       </set>
       <set comment="band 4">
        <r>  0.0000  0.0412  0.0446  0.0740  0.0000  0.0000  0.0000  0.0000  0.0000 </r>
        <r>  0.0000  0.0470  0.0509  0.0648  0.0000  0.0000  0.0000  0.0000  0.0000 </r>
       </set>
       <set comment="band 5">
        <r>  0.0054  0.0005  0.0009  0.1399  0.0000  0.0000  0.0000  0.0000  0.0000 </r>
        <r>  0.0009  0.0027  0.0056  0.0236  0.0000  0.0000  0.0000  0.0000  0.0000 </r>
       </set>
       <set comment="band 6">
        <r>  0.0009  0.0027  0.0056  0.0236  0.0000  0.0000  0.0000  0.0000  0.0000 </r>
        <r>  0.0054  0.0005  0.0009  0.1399  0.0000  0.0000  0.0000  0.0000  0.0000 </r>
       </set>
       <set comment="band 7">
        <r>  0.0720  0.0385  0.0369  0.0055  0.0000  0.0000  0.0000  0.0000  0.0000 </r>
        <r>  0.0445  0.0622  0.0597  0.0034  0.0000  0.0000  0.0000  0.0000  0.0000 </r>
       </set>
       <set comment="band 8">
        <r>  0.0445  0.0622  0.0597  0.0034  0.0000  0.0000  0.0000  0.0000  0.0000 </r>
        <r>  0.0720  0.0385  0.0369  0.0055  0.0000  0.0000  0.0000  0.0000  0.0000 </r>
       </set>
       <set comment="band 9">
        <r>  0.0000  0.0431  0.0465  0.0407  0.0000  0.0000  0.0000  0.0000  0.0000 </r>
        <r>  0.0000  0.0487  0.0525  0.0361  0.0000  0.0000  0.0000  0.0000  0.0000 </r>
       </set>
       <set comment="band 10">
        <r>  0.0000  0.0487  0.0524  0.0361  0.0000  0.0000  0.0000  0.0000  0.0000 </r>
        <r>  0.0000  0.0432  0.0465  0.0407  0.0000  0.0000  0.0000  0.0000  0.0000 </r>
       </set>
       <set comment="band 11">
        <r>  0.0026  0.0401  0.0243  0.0095  0.0000  0.0000  0.0000  0.0000  0.0000 </r>
        <r>  0.0377  0.0076  0.0157  0.0185  0.0000  0.0000  0.0000  0.0000  0.0000 </r>
       </set>
       <set comment="band 12">
        <r>  0.0402  0.0073  0.0081  0.0009  0.0000  0.0000  0.0000  0.0000  0.0000 </r>
        <r>  0.0084  0.0036  0.0411  0.0047  0.0000  0.0000  0.0000  0.0000  0.0000 </r>
       </set>
      </set>
      <set comment="kpoint 108">
       <set comment="band 1">
        <r>  0.1679  0.0249  0.0249  0.0000  0.0000  0.0000  0.0000  0.0000  0.0000 </r>
        <r>  0.2417  0.0173  0.0173  0.0000  0.0000  0.0000  0.0000  0.0000  0.0000 </r>
       </set>
       <set comment="band 2">
        <r>  0.2418  0.0173  0.0173  0.0000  0.0000  0.0000  0.0000  0.0000  0.0000 </r>
        <r>  0.1680  0.0249  0.0249  0.0000  0.0000  0.0000  0.0000  0.0000  0.0000 </r>
       </set>
       <set comment="band 3">
        <r>  0.0000  0.0490  0.0490  0.0647  0.0000  0.0000  0.0000  0.0000  0.0000 </r>
        <r>  0.0000  0.0428  0.0428  0.0741  0.0000  0.0000  0.0000  0.0000  0.0000 </r>
       </set>
       <set comment="band 4">
        <r>  0.0000  0.0428  0.0428  0.0741  0.0000  0.0000  0.0000  0.0000  0.0000 </r>
        <r>  0.0000  0.0490  0.0490  0.0647  0.0000  0.0000  0.0000  0.0000  0.0000 </r>
       </set>
       <set comment="band 5">
        <r>  0.0000  0.0002  0.0002  0.0059  0.0000  0.0000  0.0000  0.0000  0.0000 </r>
        <r>  0.0000  0.0000  0.0000  0.1665  0.0000  0.0000  0.0000  0.0000  0.0000 </r>
       </set>
       <set comment="band 6">
        <r>  0.0000  0.0000  0.0000  0.1665  0.0000  0.0000  0.0000  0.0000  0.0000 </r>
        <r>  0.0000  0.0002  0.0002  0.0059  0.0000  0.0000  0.0000  0.0000  0.0000 </r>
       </set>
       <set comment="band 7">
        <r>  0.0298  0.0782  0.0782  0.0000  0.0000  0.0000  0.0000  0.0000  0.0000 </r>
        <r>  0.0929  0.0251  0.0251  0.0000  0.0000  0.0000  0.0000  0.0000  0.0000 </r>
       </set>
       <set comment="band 8">
        <r>  0.0929  0.0251  0.0251  0.0000  0.0000  0.0000  0.0000  0.0000  0.0000 </r>
        <r>  0.0298  0.0782  0.0782  0.0000  0.0000  0.0000  0.0000  0.0000  0.0000 </r>
       </set>
       <set comment="band 9">
        <r>  0.0000  0.0844  0.0844  0.0089  0.0000  0.0000  0.0000  0.0000  0.0000 </r>
        <r>  0.0000  0.0110  0.0110  0.0680  0.0000  0.0000  0.0000  0.0000  0.0000 </r>
       </set>
       <set comment="band 10">
        <r>  0.0000  0.0110  0.0110  0.0680  0.0000  0.0000  0.0000  0.0000  0.0000 </r>
        <r>  0.0000  0.0844  0.0844  0.0089  0.0000  0.0000  0.0000  0.0000  0.0000 </r>
       </set>
       <set comment="band 11">
        <r>  0.0459  0.0121  0.0122  0.0000  0.0000  0.0000  0.0000  0.0000  0.0000 </r>
        <r>  0.0060  0.0933  0.0935  0.0000  0.0000  0.0000  0.0000  0.0000  0.0000 </r>
       </set>
       <set comment="band 12">
        <r>  0.0104  0.0059  0.0019  0.0215  0.0000  0.0000  0.0000  0.0000  0.0000 </r>
        <r>  0.0036  0.0060  0.0894  0.0008  0.0000  0.0000  0.0000  0.0000  0.0000 </r>
       </set>
      </set>
      <set comment="kpoint 109">
       <set comment="band 1">
        <r>  0.2949  0.0118  0.0118  0.0000  0.0000  0.0000  0.0000  0.0000  0.0000 </r>
        <r>  0.1147  0.0304  0.0304  0.0000  0.0000  0.0000  0.0000  0.0000  0.0000 </r>
       </set>
       <set comment="band 2">
        <r>  0.1147  0.0304  0.0304  0.0000  0.0000  0.0000  0.0000  0.0000  0.0000 </r>
        <r>  0.2950  0.0118  0.0118  0.0000  0.0000  0.0000  0.0000  0.0000  0.0000 </r>
       </set>
       <set comment="band 3">
        <r>  0.0000  0.0375  0.0375  0.0821  0.0000  0.0000  0.0000  0.0000  0.0000 </r>
        <r>  0.0000  0.0543  0.0543  0.0567  0.0000  0.0000  0.0000  0.0000  0.0000 </r>
       </set>
       <set comment="band 4">
        <r>  0.0000  0.0543  0.0543  0.0567  0.0000  0.0000  0.0000  0.0000  0.0000 </r>
        <r>  0.0000  0.0375  0.0375  0.0821  0.0000  0.0000  0.0000  0.0000  0.0000 </r>
       </set>
       <set comment="band 5">
        <r>  0.0000  0.0001  0.0001  0.0488  0.0000  0.0000  0.0000  0.0000  0.0000 </r>
        <r>  0.0000  0.0000  0.0000  0.1236  0.0000  0.0000  0.0000  0.0000  0.0000 </r>
       </set>
       <set comment="band 6">
        <r>  0.0000  0.0000  0.0000  0.1236  0.0000  0.0000  0.0000  0.0000  0.0000 </r>
        <r>  0.0000  0.0001  0.0001  0.0488  0.0000  0.0000  0.0000  0.0000  0.0000 </r>
       </set>
       <set comment="band 7">
        <r>  0.0759  0.0395  0.0395  0.0000  0.0000  0.0000  0.0000  0.0000  0.0000 </r>
        <r>  0.0469  0.0639  0.0639  0.0000  0.0000  0.0000  0.0000  0.0000  0.0000 </r>
       </set>
       <set comment="band 8">
        <r>  0.0469  0.0639  0.0639  0.0000  0.0000  0.0000  0.0000  0.0000  0.0000 </r>
        <r>  0.0759  0.0395  0.0395  0.0000  0.0000  0.0000  0.0000  0.0000  0.0000 </r>
       </set>
       <set comment="band 9">
        <r>  0.0000  0.0459  0.0459  0.0399  0.0000  0.0000  0.0000  0.0000  0.0000 </r>
        <r>  0.0000  0.0495  0.0495  0.0369  0.0000  0.0000  0.0000  0.0000  0.0000 </r>
       </set>
       <set comment="band 10">
        <r>  0.0000  0.0496  0.0495  0.0369  0.0000  0.0000  0.0000  0.0000  0.0000 </r>
        <r>  0.0000  0.0459  0.0458  0.0399  0.0000  0.0000  0.0000  0.0000  0.0000 </r>
       </set>
       <set comment="band 11">
        <r>  0.0080  0.0103  0.0022  0.0038  0.0000  0.0000  0.0000  0.0000  0.0000 </r>
        <r>  0.0007  0.0424  0.0086  0.0034  0.0000  0.0000  0.0000  0.0000  0.0000 </r>
       </set>
       <set comment="band 12">
        <r>  0.0069  0.0181  0.0485  0.0003  0.0000  0.0000  0.0000  0.0000  0.0000 </r>
        <r>  0.0262  0.0094  0.0032  0.0236  0.0000  0.0000  0.0000  0.0000  0.0000 </r>
       </set>
      </set>
      <set comment="kpoint 110">
       <set comment="band 1">
        <r>  0.2053  0.0205  0.0212  0.0000  0.0000  0.0000  0.0000  0.0000  0.0000 </r>
        <r>  0.2053  0.0205  0.0212  0.0000  0.0000  0.0000  0.0000  0.0000  0.0000 </r>
       </set>
       <set comment="band 2">
        <r>  0.2044  0.0206  0.0222  0.0000  0.0000  0.0000  0.0000  0.0000  0.0000 </r>
        <r>  0.2043  0.0206  0.0222  0.0000  0.0000  0.0000  0.0000  0.0000  0.0000 </r>
       </set>
       <set comment="band 3">
        <r>  0.0000  0.0462  0.0457  0.0689  0.0000  0.0000  0.0000  0.0000  0.0000 </r>
        <r>  0.0000  0.0462  0.0457  0.0689  0.0000  0.0000  0.0000  0.0000  0.0000 </r>
       </set>
       <set comment="band 4">
        <r>  0.0000  0.0474  0.0443  0.0699  0.0000  0.0000  0.0000  0.0000  0.0000 </r>
        <r>  0.0000  0.0474  0.0443  0.0699  0.0000  0.0000  0.0000  0.0000  0.0000 </r>
       </set>
       <set comment="band 5">
        <r>  0.0017  0.0019  0.0008  0.0838  0.0000  0.0000  0.0000  0.0000  0.0000 </r>
        <r>  0.0017  0.0019  0.0008  0.0838  0.0000  0.0000  0.0000  0.0000  0.0000 </r>
       </set>
       <set comment="band 6">
        <r>  0.0003  0.0006  0.0000  0.0859  0.0000  0.0000  0.0000  0.0000  0.0000 </r>
        <r>  0.0003  0.0006  0.0000  0.0859  0.0000  0.0000  0.0000  0.0000  0.0000 </r>
       </set>
       <set comment="band 7">
        <r>  0.0603  0.0490  0.0511  0.0023  0.0000  0.0000  0.0000  0.0000  0.0000 </r>
        <r>  0.0603  0.0490  0.0511  0.0023  0.0000  0.0000  0.0000  0.0000  0.0000 </r>
       </set>
       <set comment="band 8">
        <r>  0.0605  0.0518  0.0518  0.0005  0.0000  0.0000  0.0000  0.0000  0.0000 </r>
        <r>  0.0605  0.0518  0.0518  0.0005  0.0000  0.0000  0.0000  0.0000  0.0000 </r>
       </set>
       <set comment="band 9">
        <r>  0.0000  0.0465  0.0495  0.0386  0.0000  0.0000  0.0000  0.0000  0.0000 </r>
        <r>  0.0000  0.0465  0.0495  0.0386  0.0000  0.0000  0.0000  0.0000  0.0000 </r>
       </set>
       <set comment="band 10">
        <r>  0.0000  0.0509  0.0439  0.0382  0.0000  0.0000  0.0000  0.0000  0.0000 </r>
        <r>  0.0000  0.0509  0.0439  0.0382  0.0000  0.0000  0.0000  0.0000  0.0000 </r>
       </set>
       <set comment="band 11">
        <r>  0.0280  0.0461  0.0519  0.0000  0.0000  0.0000  0.0000  0.0000  0.0000 </r>
        <r>  0.0244  0.0532  0.0594  0.0000  0.0000  0.0000  0.0000  0.0000  0.0000 </r>
       </set>
       <set comment="band 12">
        <r>  0.0154  0.0080  0.0575  0.0036  0.0000  0.0000  0.0000  0.0000  0.0000 </r>
        <r>  0.0037  0.0027  0.0127  0.0111  0.0000  0.0000  0.0000  0.0000  0.0000 </r>
       </set>
      </set>
      <set comment="kpoint 111">
       <set comment="band 1">
        <r>  0.2058  0.0199  0.0214  0.0000  0.0000  0.0000  0.0000  0.0000  0.0000 </r>
        <r>  0.2058  0.0199  0.0214  0.0000  0.0000  0.0000  0.0000  0.0000  0.0000 </r>
       </set>
       <set comment="band 2">
        <r>  0.2038  0.0200  0.0233  0.0000  0.0000  0.0000  0.0000  0.0000  0.0000 </r>
        <r>  0.2038  0.0200  0.0233  0.0000  0.0000  0.0000  0.0000  0.0000  0.0000 </r>
       </set>
       <set comment="band 3">
        <r>  0.0000  0.0466  0.0456  0.0684  0.0000  0.0000  0.0000  0.0000  0.0000 </r>
        <r>  0.0000  0.0466  0.0456  0.0684  0.0000  0.0000  0.0000  0.0000  0.0000 </r>
       </set>
       <set comment="band 4">
        <r>  0.0001  0.0490  0.0426  0.0704  0.0000  0.0000  0.0000  0.0000  0.0000 </r>
        <r>  0.0001  0.0490  0.0426  0.0704  0.0000  0.0000  0.0000  0.0000  0.0000 </r>
       </set>
       <set comment="band 5">
        <r>  0.0056  0.0051  0.0034  0.0782  0.0000  0.0000  0.0000  0.0000  0.0000 </r>
        <r>  0.0056  0.0051  0.0034  0.0782  0.0000  0.0000  0.0000  0.0000  0.0000 </r>
       </set>
       <set comment="band 6">
        <r>  0.0012  0.0016  0.0004  0.0846  0.0000  0.0000  0.0000  0.0000  0.0000 </r>
        <r>  0.0012  0.0016  0.0004  0.0846  0.0000  0.0000  0.0000  0.0000  0.0000 </r>
       </set>
       <set comment="band 7">
        <r>  0.0569  0.0450  0.0487  0.0077  0.0000  0.0000  0.0000  0.0000  0.0000 </r>
        <r>  0.0569  0.0450  0.0487  0.0077  0.0000  0.0000  0.0000  0.0000  0.0000 </r>
       </set>
       <set comment="band 8">
        <r>  0.0590  0.0515  0.0515  0.0018  0.0000  0.0000  0.0000  0.0000  0.0000 </r>
        <r>  0.0591  0.0515  0.0515  0.0018  0.0000  0.0000  0.0000  0.0000  0.0000 </r>
       </set>
       <set comment="band 9">
        <r>  0.0001  0.0455  0.0511  0.0387  0.0000  0.0000  0.0000  0.0000  0.0000 </r>
        <r>  0.0001  0.0455  0.0511  0.0387  0.0000  0.0000  0.0000  0.0000  0.0000 </r>
       </set>
       <set comment="band 10">
        <r>  0.0001  0.0546  0.0394  0.0379  0.0000  0.0000  0.0000  0.0000  0.0000 </r>
        <r>  0.0002  0.0544  0.0396  0.0379  0.0000  0.0000  0.0000  0.0000  0.0000 </r>
       </set>
       <set comment="band 11">
        <r>  0.0469  0.0108  0.0073  0.0000  0.0000  0.0000  0.0000  0.0000  0.0000 </r>
        <r>  0.0039  0.0939  0.0998  0.0002  0.0000  0.0000  0.0000  0.0000  0.0000 </r>
       </set>
       <set comment="band 12">
        <r>  0.0463  0.0008  0.0025  0.0257  0.0000  0.0000  0.0000  0.0000  0.0000 </r>
        <r>  0.0154  0.0128  0.0244  0.0029  0.0000  0.0000  0.0000  0.0000  0.0000 </r>
       </set>
      </set>
      <set comment="kpoint 112">
       <set comment="band 1">
        <r>  0.2062  0.0192  0.0215  0.0000  0.0000  0.0000  0.0000  0.0000  0.0000 </r>
        <r>  0.2062  0.0192  0.0215  0.0000  0.0000  0.0000  0.0000  0.0000  0.0000 </r>
       </set>
       <set comment="band 2">
        <r>  0.2032  0.0194  0.0244  0.0001  0.0000  0.0000  0.0000  0.0000  0.0000 </r>
        <r>  0.2032  0.0194  0.0244  0.0001  0.0000  0.0000  0.0000  0.0000  0.0000 </r>
       </set>
       <set comment="band 3">
        <r>  0.0000  0.0469  0.0454  0.0680  0.0000  0.0000  0.0000  0.0000  0.0000 </r>
        <r>  0.0000  0.0469  0.0454  0.0680  0.0000  0.0000  0.0000  0.0000  0.0000 </r>
       </set>
       <set comment="band 4">
        <r>  0.0002  0.0505  0.0409  0.0710  0.0000  0.0000  0.0000  0.0000  0.0000 </r>
        <r>  0.0002  0.0505  0.0409  0.0710  0.0000  0.0000  0.0000  0.0000  0.0000 </r>
       </set>
       <set comment="band 5">
        <r>  0.0100  0.0082  0.0065  0.0721  0.0000  0.0000  0.0000  0.0000  0.0000 </r>
        <r>  0.0101  0.0082  0.0065  0.0721  0.0000  0.0000  0.0000  0.0000  0.0000 </r>
       </set>
       <set comment="band 6">
        <r>  0.0026  0.0029  0.0010  0.0827  0.0000  0.0000  0.0000  0.0000  0.0000 </r>
        <r>  0.0026  0.0029  0.0010  0.0827  0.0000  0.0000  0.0000  0.0000  0.0000 </r>
       </set>
       <set comment="band 7">
        <r>  0.0530  0.0410  0.0457  0.0136  0.0000  0.0000  0.0000  0.0000  0.0000 </r>
        <r>  0.0530  0.0410  0.0457  0.0136  0.0000  0.0000  0.0000  0.0000  0.0000 </r>
       </set>
       <set comment="band 8">
        <r>  0.0571  0.0508  0.0509  0.0039  0.0000  0.0000  0.0000  0.0000  0.0000 </r>
        <r>  0.0571  0.0508  0.0509  0.0039  0.0000  0.0000  0.0000  0.0000  0.0000 </r>
       </set>
       <set comment="band 9">
        <r>  0.0003  0.0445  0.0526  0.0387  0.0000  0.0000  0.0000  0.0000  0.0000 </r>
        <r>  0.0003  0.0446  0.0525  0.0387  0.0000  0.0000  0.0000  0.0000  0.0000 </r>
       </set>
       <set comment="band 10">
        <r>  0.0004  0.0580  0.0352  0.0375  0.0000  0.0000  0.0000  0.0000  0.0000 </r>
        <r>  0.0004  0.0580  0.0352  0.0375  0.0000  0.0000  0.0000  0.0000  0.0000 </r>
       </set>
       <set comment="band 11">
        <r>  0.0391  0.0060  0.0043  0.0170  0.0000  0.0000  0.0000  0.0000  0.0000 </r>
        <r>  0.0002  0.0232  0.0497  0.0026  0.0000  0.0000  0.0000  0.0000  0.0000 </r>
       </set>
       <set comment="band 12">
        <r>  0.0234  0.0054  0.0063  0.0098  0.0000  0.0000  0.0000  0.0000  0.0000 </r>
        <r>  0.0285  0.0268  0.0215  0.0047  0.0000  0.0000  0.0000  0.0000  0.0000 </r>
       </set>
      </set>
      <set comment="kpoint 113">
       <set comment="band 1">
        <r>  0.2066  0.0186  0.0216  0.0001  0.0000  0.0000  0.0000  0.0000  0.0000 </r>
        <r>  0.2066  0.0186  0.0216  0.0001  0.0000  0.0000  0.0000  0.0000  0.0000 </r>
       </set>
       <set comment="band 2">
        <r>  0.2025  0.0189  0.0255  0.0001  0.0000  0.0000  0.0000  0.0000  0.0000 </r>
        <r>  0.2025  0.0189  0.0255  0.0001  0.0000  0.0000  0.0000  0.0000  0.0000 </r>
       </set>
       <set comment="band 3">
        <r>  0.0000  0.0472  0.0453  0.0675  0.0000  0.0000  0.0000  0.0000  0.0000 </r>
        <r>  0.0000  0.0472  0.0453  0.0675  0.0000  0.0000  0.0000  0.0000  0.0000 </r>
       </set>
       <set comment="band 4">
        <r>  0.0003  0.0521  0.0393  0.0715  0.0000  0.0000  0.0000  0.0000  0.0000 </r>
        <r>  0.0003  0.0521  0.0393  0.0715  0.0000  0.0000  0.0000  0.0000  0.0000 </r>
       </set>
       <set comment="band 5">
        <r>  0.0141  0.0106  0.0094  0.0665  0.0000  0.0000  0.0000  0.0000  0.0000 </r>
        <r>  0.0141  0.0106  0.0094  0.0665  0.0000  0.0000  0.0000  0.0000  0.0000 </r>
       </set>
       <set comment="band 6">
        <r>  0.0041  0.0045  0.0019  0.0803  0.0000  0.0000  0.0000  0.0000  0.0000 </r>
        <r>  0.0041  0.0045  0.0019  0.0803  0.0000  0.0000  0.0000  0.0000  0.0000 </r>
       </set>
       <set comment="band 7">
        <r>  0.0495  0.0377  0.0430  0.0189  0.0000  0.0000  0.0000  0.0000  0.0000 </r>
        <r>  0.0495  0.0377  0.0430  0.0189  0.0000  0.0000  0.0000  0.0000  0.0000 </r>
       </set>
       <set comment="band 8">
        <r>  0.0550  0.0499  0.0501  0.0064  0.0000  0.0000  0.0000  0.0000  0.0000 </r>
        <r>  0.0550  0.0499  0.0501  0.0064  0.0000  0.0000  0.0000  0.0000  0.0000 </r>
       </set>
       <set comment="band 9">
        <r>  0.0005  0.0437  0.0538  0.0387  0.0000  0.0000  0.0000  0.0000  0.0000 </r>
        <r>  0.0005  0.0437  0.0539  0.0387  0.0000  0.0000  0.0000  0.0000  0.0000 </r>
       </set>
       <set comment="band 10">
        <r>  0.0007  0.0619  0.0304  0.0370  0.0000  0.0000  0.0000  0.0000  0.0000 </r>
        <r>  0.0007  0.0619  0.0304  0.0370  0.0000  0.0000  0.0000  0.0000  0.0000 </r>
       </set>
       <set comment="band 11">
        <r>  0.0062  0.0130  0.0309  0.0041  0.0000  0.0000  0.0000  0.0000  0.0000 </r>
        <r>  0.0068  0.0259  0.0083  0.0037  0.0000  0.0000  0.0000  0.0000  0.0000 </r>
       </set>
       <set comment="band 12">
        <r>  0.0144  0.0242  0.0190  0.0113  0.0000  0.0000  0.0000  0.0000  0.0000 </r>
        <r>  0.0013  0.0197  0.0348  0.0015  0.0000  0.0000  0.0000  0.0000  0.0000 </r>
       </set>
      </set>
      <set comment="kpoint 114">
       <set comment="band 1">
        <r>  0.2071  0.0180  0.0217  0.0001  0.0000  0.0000  0.0000  0.0000  0.0000 </r>
        <r>  0.2071  0.0180  0.0217  0.0001  0.0000  0.0000  0.0000  0.0000  0.0000 </r>
       </set>
       <set comment="band 2">
        <r>  0.2018  0.0183  0.0266  0.0002  0.0000  0.0000  0.0000  0.0000  0.0000 </r>
        <r>  0.2018  0.0183  0.0266  0.0002  0.0000  0.0000  0.0000  0.0000  0.0000 </r>
       </set>
       <set comment="band 3">
        <r>  0.0000  0.0475  0.0451  0.0670  0.0000  0.0000  0.0000  0.0000  0.0000 </r>
        <r>  0.0000  0.0475  0.0451  0.0670  0.0000  0.0000  0.0000  0.0000  0.0000 </r>
       </set>
       <set comment="band 4">
        <r>  0.0005  0.0537  0.0376  0.0721  0.0000  0.0000  0.0000  0.0000  0.0000 </r>
        <r>  0.0005  0.0537  0.0376  0.0721  0.0000  0.0000  0.0000  0.0000  0.0000 </r>
       </set>
       <set comment="band 5">
        <r>  0.0175  0.0124  0.0119  0.0618  0.0000  0.0000  0.0000  0.0000  0.0000 </r>
        <r>  0.0175  0.0124  0.0119  0.0618  0.0000  0.0000  0.0000  0.0000  0.0000 </r>
       </set>
       <set comment="band 6">
        <r>  0.0059  0.0062  0.0029  0.0777  0.0000  0.0000  0.0000  0.0000  0.0000 </r>
        <r>  0.0059  0.0062  0.0029  0.0777  0.0000  0.0000  0.0000  0.0000  0.0000 </r>
       </set>
       <set comment="band 7">
        <r>  0.0467  0.0350  0.0407  0.0234  0.0000  0.0000  0.0000  0.0000  0.0000 </r>
        <r>  0.0467  0.0350  0.0407  0.0234  0.0000  0.0000  0.0000  0.0000  0.0000 </r>
       </set>
       <set comment="band 8">
        <r>  0.0526  0.0490  0.0492  0.0091  0.0000  0.0000  0.0000  0.0000  0.0000 </r>
        <r>  0.0526  0.0490  0.0492  0.0091  0.0000  0.0000  0.0000  0.0000  0.0000 </r>
       </set>
       <set comment="band 9">
        <r>  0.0007  0.0400  0.0528  0.0408  0.0000  0.0000  0.0000  0.0000  0.0000 </r>
        <r>  0.0009  0.0461  0.0571  0.0365  0.0000  0.0000  0.0000  0.0000  0.0000 </r>
       </set>
       <set comment="band 10">
        <r>  0.0009  0.0108  0.0077  0.0026  0.0000  0.0000  0.0000  0.0000  0.0000 </r>
        <r>  0.0014  0.0241  0.0162  0.0058  0.0000  0.0000  0.0000  0.0000  0.0000 </r>
       </set>
       <set comment="band 11">
        <r>  0.0201  0.0007  0.0713  0.0052  0.0000  0.0000  0.0000  0.0000  0.0000 </r>
        <r>  0.0140  0.0077  0.0026  0.0081  0.0000  0.0000  0.0000  0.0000  0.0000 </r>
       </set>
       <set comment="band 12">
        <r>  0.0771  0.0008  0.0014  0.0039  0.0000  0.0000  0.0000  0.0000  0.0000 </r>
        <r>  0.0047  0.0137  0.0023  0.0015  0.0000  0.0000  0.0000  0.0000  0.0000 </r>
       </set>
      </set>
      <set comment="kpoint 115">
       <set comment="band 1">
        <r>  0.2075  0.0175  0.0218  0.0001  0.0000  0.0000  0.0000  0.0000  0.0000 </r>
        <r>  0.2075  0.0175  0.0218  0.0001  0.0000  0.0000  0.0000  0.0000  0.0000 </r>
       </set>
       <set comment="band 2">
        <r>  0.2010  0.0177  0.0276  0.0002  0.0000  0.0000  0.0000  0.0000  0.0000 </r>
        <r>  0.2011  0.0177  0.0276  0.0002  0.0000  0.0000  0.0000  0.0000  0.0000 </r>
       </set>
       <set comment="band 3">
        <r>  0.0000  0.0478  0.0450  0.0666  0.0000  0.0000  0.0000  0.0000  0.0000 </r>
        <r>  0.0000  0.0478  0.0450  0.0666  0.0000  0.0000  0.0000  0.0000  0.0000 </r>
       </set>
       <set comment="band 4">
        <r>  0.0007  0.0554  0.0359  0.0727  0.0000  0.0000  0.0000  0.0000  0.0000 </r>
        <r>  0.0007  0.0554  0.0359  0.0727  0.0000  0.0000  0.0000  0.0000  0.0000 </r>
       </set>
       <set comment="band 5">
        <r>  0.0204  0.0136  0.0139  0.0579  0.0000  0.0000  0.0000  0.0000  0.0000 </r>
        <r>  0.0204  0.0136  0.0139  0.0579  0.0000  0.0000  0.0000  0.0000  0.0000 </r>
       </set>
       <set comment="band 6">
        <r>  0.0076  0.0079  0.0039  0.0751  0.0000  0.0000  0.0000  0.0000  0.0000 </r>
        <r>  0.0076  0.0079  0.0039  0.0751  0.0000  0.0000  0.0000  0.0000  0.0000 </r>
       </set>
       <set comment="band 7">
        <r>  0.0503  0.0480  0.0482  0.0118  0.0000  0.0000  0.0000  0.0000  0.0000 </r>
        <r>  0.0503  0.0480  0.0482  0.0118  0.0000  0.0000  0.0000  0.0000  0.0000 </r>
       </set>
       <set comment="band 8">
        <r>  0.0444  0.0329  0.0389  0.0270  0.0000  0.0000  0.0000  0.0000  0.0000 </r>
        <r>  0.0444  0.0329  0.0389  0.0270  0.0000  0.0000  0.0000  0.0000  0.0000 </r>
       </set>
       <set comment="band 9">
        <r>  0.0011  0.0423  0.0561  0.0386  0.0000  0.0000  0.0000  0.0000  0.0000 </r>
        <r>  0.0011  0.0423  0.0560  0.0386  0.0000  0.0000  0.0000  0.0000  0.0000 </r>
       </set>
       <set comment="band 10">
        <r>  0.0019  0.0699  0.0206  0.0355  0.0000  0.0000  0.0000  0.0000  0.0000 </r>
        <r>  0.0019  0.0699  0.0206  0.0355  0.0000  0.0000  0.0000  0.0000  0.0000 </r>
       </set>
       <set comment="band 11">
        <r>  0.0156  0.0022  0.0224  0.0154  0.0000  0.0000  0.0000  0.0000  0.0000 </r>
        <r>  0.0173  0.0359  0.0227  0.0027  0.0000  0.0000  0.0000  0.0000  0.0000 </r>
       </set>
       <set comment="band 12">
        <r>  0.0007  0.0189  0.0056  0.0213  0.0000  0.0000  0.0000  0.0000  0.0000 </r>
        <r>  0.0263  0.0423  0.0161  0.0140  0.0000  0.0000  0.0000  0.0000  0.0000 </r>
       </set>
      </set>
      <set comment="kpoint 116">
       <set comment="band 1">
        <r>  0.2079  0.0169  0.0219  0.0002  0.0000  0.0000  0.0000  0.0000  0.0000 </r>
        <r>  0.2079  0.0169  0.0219  0.0002  0.0000  0.0000  0.0000  0.0000  0.0000 </r>
       </set>
       <set comment="band 2">
        <r>  0.2003  0.0171  0.0287  0.0003  0.0000  0.0000  0.0000  0.0000  0.0000 </r>
        <r>  0.2003  0.0171  0.0287  0.0003  0.0000  0.0000  0.0000  0.0000  0.0000 </r>
       </set>
       <set comment="band 3">
        <r>  0.0000  0.0481  0.0448  0.0662  0.0000  0.0000  0.0000  0.0000  0.0000 </r>
        <r>  0.0000  0.0481  0.0448  0.0662  0.0000  0.0000  0.0000  0.0000  0.0000 </r>
       </set>
       <set comment="band 4">
        <r>  0.0009  0.0570  0.0342  0.0733  0.0000  0.0000  0.0000  0.0000  0.0000 </r>
        <r>  0.0009  0.0570  0.0342  0.0733  0.0000  0.0000  0.0000  0.0000  0.0000 </r>
       </set>
       <set comment="band 5">
        <r>  0.0229  0.0144  0.0157  0.0546  0.0000  0.0000  0.0000  0.0000  0.0000 </r>
        <r>  0.0229  0.0144  0.0157  0.0546  0.0000  0.0000  0.0000  0.0000  0.0000 </r>
       </set>
       <set comment="band 6">
        <r>  0.0092  0.0095  0.0049  0.0724  0.0000  0.0000  0.0000  0.0000  0.0000 </r>
        <r>  0.0092  0.0095  0.0049  0.0724  0.0000  0.0000  0.0000  0.0000  0.0000 </r>
       </set>
       <set comment="band 7">
        <r>  0.0481  0.0472  0.0473  0.0146  0.0000  0.0000  0.0000  0.0000  0.0000 </r>
        <r>  0.0481  0.0472  0.0473  0.0146  0.0000  0.0000  0.0000  0.0000  0.0000 </r>
       </set>
       <set comment="band 8">
        <r>  0.0425  0.0312  0.0373  0.0300  0.0000  0.0000  0.0000  0.0000  0.0000 </r>
        <r>  0.0425  0.0312  0.0373  0.0300  0.0000  0.0000  0.0000  0.0000  0.0000 </r>
       </set>
       <set comment="band 9">
        <r>  0.0015  0.0417  0.0570  0.0385  0.0000  0.0000  0.0000  0.0000  0.0000 </r>
        <r>  0.0015  0.0417  0.0570  0.0385  0.0000  0.0000  0.0000  0.0000  0.0000 </r>
       </set>
       <set comment="band 10">
        <r>  0.0028  0.0736  0.0159  0.0344  0.0000  0.0000  0.0000  0.0000  0.0000 </r>
        <r>  0.0028  0.0736  0.0159  0.0344  0.0000  0.0000  0.0000  0.0000  0.0000 </r>
       </set>
       <set comment="band 11">
        <r>  0.0069  0.0304  0.0043  0.0092  0.0000  0.0000  0.0000  0.0000  0.0000 </r>
        <r>  0.0038  0.0017  0.0272  0.0005  0.0000  0.0000  0.0000  0.0000  0.0000 </r>
       </set>
       <set comment="band 12">
        <r>  0.0102  0.0092  0.0382  0.0096  0.0000  0.0000  0.0000  0.0000  0.0000 </r>
        <r>  0.0063  0.0086  0.0552  0.0022  0.0000  0.0000  0.0000  0.0000  0.0000 </r>
       </set>
      </set>
      <set comment="kpoint 117">
       <set comment="band 1">
        <r>  0.2083  0.0163  0.0219  0.0002  0.0000  0.0000  0.0000  0.0000  0.0000 </r>
        <r>  0.2083  0.0163  0.0219  0.0002  0.0000  0.0000  0.0000  0.0000  0.0000 </r>
       </set>
       <set comment="band 2">
        <r>  0.1994  0.0165  0.0297  0.0004  0.0000  0.0000  0.0000  0.0000  0.0000 </r>
        <r>  0.1994  0.0165  0.0297  0.0004  0.0000  0.0000  0.0000  0.0000  0.0000 </r>
       </set>
       <set comment="band 3">
        <r>  0.0000  0.0484  0.0447  0.0657  0.0000  0.0000  0.0000  0.0000  0.0000 </r>
        <r>  0.0000  0.0484  0.0447  0.0657  0.0000  0.0000  0.0000  0.0000  0.0000 </r>
       </set>
       <set comment="band 4">
        <r>  0.0011  0.0587  0.0326  0.0740  0.0000  0.0000  0.0000  0.0000  0.0000 </r>
        <r>  0.0011  0.0587  0.0326  0.0740  0.0000  0.0000  0.0000  0.0000  0.0000 </r>
       </set>
       <set comment="band 5">
        <r>  0.0250  0.0148  0.0172  0.0516  0.0000  0.0000  0.0000  0.0000  0.0000 </r>
        <r>  0.0250  0.0148  0.0172  0.0516  0.0000  0.0000  0.0000  0.0000  0.0000 </r>
       </set>
       <set comment="band 6">
        <r>  0.0108  0.0111  0.0058  0.0699  0.0000  0.0000  0.0000  0.0000  0.0000 </r>
        <r>  0.0107  0.0111  0.0058  0.0699  0.0000  0.0000  0.0000  0.0000  0.0000 </r>
       </set>
       <set comment="band 7">
        <r>  0.0459  0.0464  0.0464  0.0172  0.0000  0.0000  0.0000  0.0000  0.0000 </r>
        <r>  0.0459  0.0464  0.0464  0.0172  0.0000  0.0000  0.0000  0.0000  0.0000 </r>
       </set>
       <set comment="band 8">
        <r>  0.0409  0.0298  0.0361  0.0325  0.0000  0.0000  0.0000  0.0000  0.0000 </r>
        <r>  0.0409  0.0298  0.0361  0.0325  0.0000  0.0000  0.0000  0.0000  0.0000 </r>
       </set>
       <set comment="band 9">
        <r>  0.0019  0.0411  0.0579  0.0383  0.0000  0.0000  0.0000  0.0000  0.0000 </r>
        <r>  0.0018  0.0411  0.0579  0.0383  0.0000  0.0000  0.0000  0.0000  0.0000 </r>
       </set>
       <set comment="band 10">
        <r>  0.0039  0.0769  0.0116  0.0331  0.0000  0.0000  0.0000  0.0000  0.0000 </r>
        <r>  0.0039  0.0769  0.0116  0.0331  0.0000  0.0000  0.0000  0.0000  0.0000 </r>
       </set>
       <set comment="band 11">
        <r>  0.0197  0.0160  0.0035  0.0125  0.0000  0.0000  0.0000  0.0000  0.0000 </r>
        <r>  0.0156  0.0040  0.0909  0.0037  0.0000  0.0000  0.0000  0.0000  0.0000 </r>
       </set>
       <set comment="band 12">
        <r>  0.0061  0.0050  0.0076  0.0134  0.0000  0.0000  0.0000  0.0000  0.0000 </r>
        <r>  0.0322  0.0046  0.0015  0.0156  0.0000  0.0000  0.0000  0.0000  0.0000 </r>
       </set>
      </set>
      <set comment="kpoint 118">
       <set comment="band 1">
        <r>  0.2086  0.0158  0.0220  0.0003  0.0000  0.0000  0.0000  0.0000  0.0000 </r>
        <r>  0.2086  0.0158  0.0220  0.0003  0.0000  0.0000  0.0000  0.0000  0.0000 </r>
       </set>
       <set comment="band 2">
        <r>  0.1986  0.0159  0.0307  0.0005  0.0000  0.0000  0.0000  0.0000  0.0000 </r>
        <r>  0.1986  0.0159  0.0307  0.0005  0.0000  0.0000  0.0000  0.0000  0.0000 </r>
       </set>
       <set comment="band 3">
        <r>  0.0000  0.0487  0.0446  0.0653  0.0000  0.0000  0.0000  0.0000  0.0000 </r>
        <r>  0.0000  0.0487  0.0446  0.0653  0.0000  0.0000  0.0000  0.0000  0.0000 </r>
       </set>
       <set comment="band 4">
        <r>  0.0014  0.0604  0.0309  0.0747  0.0000  0.0000  0.0000  0.0000  0.0000 </r>
        <r>  0.0014  0.0604  0.0309  0.0747  0.0000  0.0000  0.0000  0.0000  0.0000 </r>
       </set>
       <set comment="band 5">
        <r>  0.0270  0.0150  0.0185  0.0490  0.0000  0.0000  0.0000  0.0000  0.0000 </r>
        <r>  0.0270  0.0150  0.0185  0.0490  0.0000  0.0000  0.0000  0.0000  0.0000 </r>
       </set>
       <set comment="band 6">
        <r>  0.0121  0.0126  0.0067  0.0676  0.0000  0.0000  0.0000  0.0000  0.0000 </r>
        <r>  0.0122  0.0126  0.0067  0.0676  0.0000  0.0000  0.0000  0.0000  0.0000 </r>
       </set>
       <set comment="band 7">
        <r>  0.0438  0.0457  0.0455  0.0197  0.0000  0.0000  0.0000  0.0000  0.0000 </r>
        <r>  0.0438  0.0457  0.0455  0.0197  0.0000  0.0000  0.0000  0.0000  0.0000 </r>
       </set>
       <set comment="band 8">
        <r>  0.0396  0.0287  0.0350  0.0347  0.0000  0.0000  0.0000  0.0000  0.0000 </r>
        <r>  0.0396  0.0287  0.0350  0.0347  0.0000  0.0000  0.0000  0.0000  0.0000 </r>
       </set>
       <set comment="band 9">
        <r>  0.0023  0.0406  0.0586  0.0382  0.0000  0.0000  0.0000  0.0000  0.0000 </r>
        <r>  0.0023  0.0406  0.0587  0.0382  0.0000  0.0000  0.0000  0.0000  0.0000 </r>
       </set>
       <set comment="band 10">
        <r>  0.0051  0.0796  0.0079  0.0317  0.0000  0.0000  0.0000  0.0000  0.0000 </r>
        <r>  0.0051  0.0796  0.0079  0.0317  0.0000  0.0000  0.0000  0.0000  0.0000 </r>
       </set>
       <set comment="band 11">
        <r>  0.0120  0.0028  0.0234  0.0053  0.0000  0.0000  0.0000  0.0000  0.0000 </r>
        <r>  0.0006  0.0080  0.0617  0.0031  0.0000  0.0000  0.0000  0.0000  0.0000 </r>
       </set>
       <set comment="band 12">
        <r>  0.0556  0.0096  0.0186  0.0017  0.0000  0.0000  0.0000  0.0000  0.0000 </r>
        <r>  0.0101  0.0000  0.0126  0.0051  0.0000  0.0000  0.0000  0.0000  0.0000 </r>
       </set>
      </set>
      <set comment="kpoint 119">
       <set comment="band 1">
        <r>  0.2090  0.0152  0.0221  0.0004  0.0000  0.0000  0.0000  0.0000  0.0000 </r>
        <r>  0.2090  0.0152  0.0221  0.0004  0.0000  0.0000  0.0000  0.0000  0.0000 </r>
       </set>
       <set comment="band 2">
        <r>  0.1977  0.0154  0.0317  0.0007  0.0000  0.0000  0.0000  0.0000  0.0000 </r>
        <r>  0.1977  0.0154  0.0317  0.0007  0.0000  0.0000  0.0000  0.0000  0.0000 </r>
       </set>
       <set comment="band 3">
        <r>  0.0000  0.0490  0.0445  0.0649  0.0000  0.0000  0.0000  0.0000  0.0000 </r>
        <r>  0.0000  0.0490  0.0445  0.0649  0.0000  0.0000  0.0000  0.0000  0.0000 </r>
       </set>
       <set comment="band 4">
        <r>  0.0016  0.0621  0.0293  0.0754  0.0000  0.0000  0.0000  0.0000  0.0000 </r>
        <r>  0.0016  0.0621  0.0293  0.0754  0.0000  0.0000  0.0000  0.0000  0.0000 </r>
       </set>
       <set comment="band 5">
        <r>  0.0287  0.0150  0.0197  0.0467  0.0000  0.0000  0.0000  0.0000  0.0000 </r>
        <r>  0.0287  0.0150  0.0197  0.0467  0.0000  0.0000  0.0000  0.0000  0.0000 </r>
       </set>
       <set comment="band 6">
        <r>  0.0135  0.0139  0.0074  0.0653  0.0000  0.0000  0.0000  0.0000  0.0000 </r>
        <r>  0.0134  0.0140  0.0074  0.0654  0.0000  0.0000  0.0000  0.0000  0.0000 </r>
       </set>
       <set comment="band 7">
        <r>  0.0052  0.0632  0.0706  0.0079  0.0000  0.0000  0.0000  0.0000  0.0000 </r>
        <r>  0.0739  0.0027  0.0039  0.0565  0.0000  0.0000  0.0000  0.0000  0.0000 </r>
       </set>
       <set comment="band 8">
        <r>  0.0027  0.0405  0.0579  0.0391  0.0000  0.0000  0.0000  0.0000  0.0000 </r>
        <r>  0.0026  0.0409  0.0603  0.0377  0.0000  0.0000  0.0000  0.0000  0.0000 </r>
       </set>
       <set comment="band 9">
        <r>  0.0082  0.0938  0.0005  0.0249  0.0000  0.0000  0.0000  0.0000  0.0000 </r>
        <r>  0.0111  0.0790  0.0016  0.0274  0.0000  0.0000  0.0000  0.0000  0.0000 </r>
       </set>
       <set comment="band 10">
        <r>  0.0362  0.0407  0.0160  0.0008  0.0000  0.0000  0.0000  0.0000  0.0000 </r>
        <r>  0.0039  0.0668  0.1092  0.0069  0.0000  0.0000  0.0000  0.0000  0.0000 </r>
       </set>
       <set comment="band 11">
        <r>  0.0135  0.0065  0.0347  0.0222  0.0000  0.0000  0.0000  0.0000  0.0000 </r>
        <r>  0.0014  0.0197  0.0451  0.0020  0.0000  0.0000  0.0000  0.0000  0.0000 </r>
       </set>
       <set comment="band 12">
        <r>  0.0248  0.0056  0.0012  0.0290  0.0000  0.0000  0.0000  0.0000  0.0000 </r>
        <r>  0.0232  0.0209  0.0076  0.0031  0.0000  0.0000  0.0000  0.0000  0.0000 </r>
       </set>
      </set>
      <set comment="kpoint 120">
       <set comment="band 1">
        <r>  0.2093  0.0147  0.0222  0.0004  0.0000  0.0000  0.0000  0.0000  0.0000 </r>
        <r>  0.2093  0.0147  0.0222  0.0004  0.0000  0.0000  0.0000  0.0000  0.0000 </r>
       </set>
       <set comment="band 2">
        <r>  0.1969  0.0148  0.0327  0.0008  0.0000  0.0000  0.0000  0.0000  0.0000 </r>
        <r>  0.1969  0.0148  0.0327  0.0008  0.0000  0.0000  0.0000  0.0000  0.0000 </r>
       </set>
       <set comment="band 3">
        <r>  0.0000  0.0493  0.0443  0.0645  0.0000  0.0000  0.0000  0.0000  0.0000 </r>
        <r>  0.0000  0.0493  0.0443  0.0645  0.0000  0.0000  0.0000  0.0000  0.0000 </r>
       </set>
       <set comment="band 4">
        <r>  0.0019  0.0639  0.0277  0.0762  0.0000  0.0000  0.0000  0.0000  0.0000 </r>
        <r>  0.0019  0.0639  0.0277  0.0762  0.0000  0.0000  0.0000  0.0000  0.0000 </r>
       </set>
       <set comment="band 5">
        <r>  0.0303  0.0149  0.0208  0.0444  0.0000  0.0000  0.0000  0.0000  0.0000 </r>
        <r>  0.0303  0.0149  0.0208  0.0444  0.0000  0.0000  0.0000  0.0000  0.0000 </r>
       </set>
       <set comment="band 6">
        <r>  0.0146  0.0153  0.0081  0.0633  0.0000  0.0000  0.0000  0.0000  0.0000 </r>
        <r>  0.0146  0.0153  0.0081  0.0633  0.0000  0.0000  0.0000  0.0000  0.0000 </r>
       </set>
       <set comment="band 7">
        <r>  0.0400  0.0447  0.0440  0.0242  0.0000  0.0000  0.0000  0.0000  0.0000 </r>
        <r>  0.0400  0.0447  0.0440  0.0242  0.0000  0.0000  0.0000  0.0000  0.0000 </r>
       </set>
       <set comment="band 8">
        <r>  0.0376  0.0269  0.0332  0.0384  0.0000  0.0000  0.0000  0.0000  0.0000 </r>
        <r>  0.0376  0.0269  0.0332  0.0384  0.0000  0.0000  0.0000  0.0000  0.0000 </r>
       </set>
       <set comment="band 9">
        <r>  0.0032  0.0397  0.0600  0.0377  0.0000  0.0000  0.0000  0.0000  0.0000 </r>
        <r>  0.0032  0.0397  0.0601  0.0377  0.0000  0.0000  0.0000  0.0000  0.0000 </r>
       </set>
       <set comment="band 10">
        <r>  0.0077  0.0831  0.0027  0.0286  0.0000  0.0000  0.0000  0.0000  0.0000 </r>
        <r>  0.0077  0.0831  0.0026  0.0286  0.0000  0.0000  0.0000  0.0000  0.0000 </r>
       </set>
       <set comment="band 11">
        <r>  0.0134  0.0185  0.0170  0.0177  0.0000  0.0000  0.0000  0.0000  0.0000 </r>
        <r>  0.0096  0.0012  0.0583  0.0015  0.0000  0.0000  0.0000  0.0000  0.0000 </r>
       </set>
       <set comment="band 12">
        <r>  0.0005  0.0092  0.0019  0.0458  0.0000  0.0000  0.0000  0.0000  0.0000 </r>
        <r>  0.0117  0.0069  0.0121  0.0033  0.0000  0.0000  0.0000  0.0000  0.0000 </r>
       </set>
      </set>
      <set comment="kpoint 121">
       <set comment="band 1">
        <r>  0.2096  0.0142  0.0223  0.0005  0.0000  0.0000  0.0000  0.0000  0.0000 </r>
        <r>  0.2096  0.0142  0.0223  0.0005  0.0000  0.0000  0.0000  0.0000  0.0000 </r>
       </set>
       <set comment="band 2">
        <r>  0.1960  0.0143  0.0336  0.0009  0.0000  0.0000  0.0000  0.0000  0.0000 </r>
        <r>  0.1960  0.0143  0.0336  0.0009  0.0000  0.0000  0.0000  0.0000  0.0000 </r>
       </set>
       <set comment="band 3">
        <r>  0.0000  0.0496  0.0442  0.0641  0.0000  0.0000  0.0000  0.0000  0.0000 </r>
        <r>  0.0000  0.0496  0.0442  0.0641  0.0000  0.0000  0.0000  0.0000  0.0000 </r>
       </set>
       <set comment="band 4">
        <r>  0.0021  0.0657  0.0260  0.0770  0.0000  0.0000  0.0000  0.0000  0.0000 </r>
        <r>  0.0021  0.0657  0.0260  0.0770  0.0000  0.0000  0.0000  0.0000  0.0000 </r>
       </set>
       <set comment="band 5">
        <r>  0.0318  0.0146  0.0218  0.0423  0.0000  0.0000  0.0000  0.0000  0.0000 </r>
        <r>  0.0318  0.0146  0.0218  0.0423  0.0000  0.0000  0.0000  0.0000  0.0000 </r>
       </set>
       <set comment="band 6">
        <r>  0.0156  0.0165  0.0087  0.0613  0.0000  0.0000  0.0000  0.0000  0.0000 </r>
        <r>  0.0156  0.0165  0.0087  0.0613  0.0000  0.0000  0.0000  0.0000  0.0000 </r>
       </set>
       <set comment="band 7">
        <r>  0.0383  0.0443  0.0434  0.0262  0.0000  0.0000  0.0000  0.0000  0.0000 </r>
        <r>  0.0383  0.0443  0.0434  0.0262  0.0000  0.0000  0.0000  0.0000  0.0000 </r>
       </set>
       <set comment="band 8">
        <r>  0.0368  0.0262  0.0324  0.0400  0.0000  0.0000  0.0000  0.0000  0.0000 </r>
        <r>  0.0368  0.0262  0.0324  0.0400  0.0000  0.0000  0.0000  0.0000  0.0000 </r>
       </set>
       <set comment="band 9">
        <r>  0.0037  0.0392  0.0607  0.0375  0.0000  0.0000  0.0000  0.0000  0.0000 </r>
        <r>  0.0037  0.0392  0.0606  0.0375  0.0000  0.0000  0.0000  0.0000  0.0000 </r>
       </set>
       <set comment="band 10">
        <r>  0.0091  0.0838  0.0012  0.0271  0.0000  0.0000  0.0000  0.0000  0.0000 </r>
        <r>  0.0091  0.0838  0.0012  0.0271  0.0000  0.0000  0.0000  0.0000  0.0000 </r>
       </set>
       <set comment="band 11">
        <r>  0.0125  0.0011  0.0090  0.0050  0.0000  0.0000  0.0000  0.0000  0.0000 </r>
        <r>  0.0007  0.0022  0.0587  0.0030  0.0000  0.0000  0.0000  0.0000  0.0000 </r>
       </set>
       <set comment="band 12">
        <r>  0.0076  0.0207  0.0207  0.0061  0.0000  0.0000  0.0000  0.0000  0.0000 </r>
        <r>  0.0353  0.0138  0.0255  0.0268  0.0000  0.0000  0.0000  0.0000  0.0000 </r>
       </set>
      </set>
      <set comment="kpoint 122">
       <set comment="band 1">
        <r>  0.2100  0.0136  0.0223  0.0006  0.0000  0.0000  0.0000  0.0000  0.0000 </r>
        <r>  0.2100  0.0136  0.0223  0.0006  0.0000  0.0000  0.0000  0.0000  0.0000 </r>
       </set>
       <set comment="band 2">
        <r>  0.1951  0.0138  0.0345  0.0011  0.0000  0.0000  0.0000  0.0000  0.0000 </r>
        <r>  0.1951  0.0138  0.0345  0.0011  0.0000  0.0000  0.0000  0.0000  0.0000 </r>
       </set>
       <set comment="band 3">
        <r>  0.0000  0.0499  0.0441  0.0637  0.0000  0.0000  0.0000  0.0000  0.0000 </r>
        <r>  0.0000  0.0499  0.0441  0.0637  0.0000  0.0000  0.0000  0.0000  0.0000 </r>
       </set>
       <set comment="band 4">
        <r>  0.0023  0.0674  0.0244  0.0778  0.0000  0.0000  0.0000  0.0000  0.0000 </r>
        <r>  0.0023  0.0674  0.0244  0.0778  0.0000  0.0000  0.0000  0.0000  0.0000 </r>
       </set>
       <set comment="band 5">
        <r>  0.0331  0.0142  0.0228  0.0403  0.0000  0.0000  0.0000  0.0000  0.0000 </r>
        <r>  0.0331  0.0142  0.0228  0.0403  0.0000  0.0000  0.0000  0.0000  0.0000 </r>
       </set>
       <set comment="band 6">
        <r>  0.0166  0.0177  0.0093  0.0595  0.0000  0.0000  0.0000  0.0000  0.0000 </r>
        <r>  0.0166  0.0177  0.0093  0.0595  0.0000  0.0000  0.0000  0.0000  0.0000 </r>
       </set>
       <set comment="band 7">
        <r>  0.0366  0.0441  0.0428  0.0281  0.0000  0.0000  0.0000  0.0000  0.0000 </r>
        <r>  0.0366  0.0441  0.0428  0.0281  0.0000  0.0000  0.0000  0.0000  0.0000 </r>
       </set>
       <set comment="band 8">
        <r>  0.0360  0.0255  0.0318  0.0414  0.0000  0.0000  0.0000  0.0000  0.0000 </r>
        <r>  0.0360  0.0255  0.0318  0.0414  0.0000  0.0000  0.0000  0.0000  0.0000 </r>
       </set>
       <set comment="band 9">
        <r>  0.0043  0.0388  0.0613  0.0371  0.0000  0.0000  0.0000  0.0000  0.0000 </r>
        <r>  0.0043  0.0388  0.0612  0.0371  0.0000  0.0000  0.0000  0.0000  0.0000 </r>
       </set>
       <set comment="band 10">
        <r>  0.0103  0.0840  0.0003  0.0256  0.0000  0.0000  0.0000  0.0000  0.0000 </r>
        <r>  0.0104  0.0837  0.0003  0.0256  0.0000  0.0000  0.0000  0.0000  0.0000 </r>
       </set>
       <set comment="band 11">
        <r>  0.0201  0.0003  0.0969  0.0100  0.0000  0.0000  0.0000  0.0000  0.0000 </r>
        <r>  0.0165  0.0018  0.1099  0.0112  0.0000  0.0000  0.0000  0.0000  0.0000 </r>
       </set>
       <set comment="band 12">
        <r>  0.0096  0.0024  0.0264  0.0228  0.0000  0.0000  0.0000  0.0000  0.0000 </r>
        <r>  0.0017  0.0087  0.0537  0.0021  0.0000  0.0000  0.0000  0.0000  0.0000 </r>
       </set>
      </set>
      <set comment="kpoint 123">
       <set comment="band 1">
        <r>  0.2103  0.0131  0.0224  0.0007  0.0000  0.0000  0.0000  0.0000  0.0000 </r>
        <r>  0.2103  0.0131  0.0224  0.0007  0.0000  0.0000  0.0000  0.0000  0.0000 </r>
       </set>
       <set comment="band 2">
        <r>  0.1942  0.0132  0.0354  0.0013  0.0000  0.0000  0.0000  0.0000  0.0000 </r>
        <r>  0.1942  0.0132  0.0354  0.0013  0.0000  0.0000  0.0000  0.0000  0.0000 </r>
       </set>
       <set comment="band 3">
        <r>  0.0000  0.0502  0.0440  0.0633  0.0000  0.0000  0.0000  0.0000  0.0000 </r>
        <r>  0.0000  0.0502  0.0440  0.0633  0.0000  0.0000  0.0000  0.0000  0.0000 </r>
       </set>
       <set comment="band 4">
        <r>  0.0025  0.0692  0.0229  0.0787  0.0000  0.0000  0.0000  0.0000  0.0000 </r>
        <r>  0.0025  0.0692  0.0229  0.0787  0.0000  0.0000  0.0000  0.0000  0.0000 </r>
       </set>
       <set comment="band 5">
        <r>  0.0345  0.0137  0.0237  0.0383  0.0000  0.0000  0.0000  0.0000  0.0000 </r>
        <r>  0.0345  0.0137  0.0237  0.0383  0.0000  0.0000  0.0000  0.0000  0.0000 </r>
       </set>
       <set comment="band 6">
        <r>  0.0174  0.0188  0.0098  0.0579  0.0000  0.0000  0.0000  0.0000  0.0000 </r>
        <r>  0.0174  0.0188  0.0098  0.0579  0.0000  0.0000  0.0000  0.0000  0.0000 </r>
       </set>
       <set comment="band 7">
        <r>  0.0351  0.0439  0.0423  0.0299  0.0000  0.0000  0.0000  0.0000  0.0000 </r>
        <r>  0.0351  0.0439  0.0423  0.0299  0.0000  0.0000  0.0000  0.0000  0.0000 </r>
       </set>
       <set comment="band 8">
        <r>  0.0354  0.0250  0.0311  0.0428  0.0000  0.0000  0.0000  0.0000  0.0000 </r>
        <r>  0.0354  0.0250  0.0311  0.0428  0.0000  0.0000  0.0000  0.0000  0.0000 </r>
       </set>
       <set comment="band 9">
        <r>  0.0049  0.0384  0.0618  0.0368  0.0000  0.0000  0.0000  0.0000  0.0000 </r>
        <r>  0.0049  0.0384  0.0618  0.0368  0.0000  0.0000  0.0000  0.0000  0.0000 </r>
       </set>
       <set comment="band 10">
        <r>  0.0115  0.0835  0.0000  0.0242  0.0000  0.0000  0.0000  0.0000  0.0000 </r>
        <r>  0.0116  0.0835  0.0000  0.0242  0.0000  0.0000  0.0000  0.0000  0.0000 </r>
       </set>
       <set comment="band 11">
        <r>  0.0173  0.0003  0.1042  0.0119  0.0000  0.0000  0.0000  0.0000  0.0000 </r>
        <r>  0.0171  0.0003  0.1048  0.0120  0.0000  0.0000  0.0000  0.0000  0.0000 </r>
       </set>
       <set comment="band 12">
        <r>  0.0141  0.0027  0.0380  0.0094  0.0000  0.0000  0.0000  0.0000  0.0000 </r>
        <r>  0.0033  0.0066  0.0754  0.0088  0.0000  0.0000  0.0000  0.0000  0.0000 </r>
       </set>
      </set>
      <set comment="kpoint 124">
       <set comment="band 1">
        <r>  0.2105  0.0126  0.0225  0.0008  0.0000  0.0000  0.0000  0.0000  0.0000 </r>
        <r>  0.2105  0.0126  0.0225  0.0008  0.0000  0.0000  0.0000  0.0000  0.0000 </r>
       </set>
       <set comment="band 2">
        <r>  0.1933  0.0127  0.0362  0.0014  0.0000  0.0000  0.0000  0.0000  0.0000 </r>
        <r>  0.1933  0.0127  0.0362  0.0014  0.0000  0.0000  0.0000  0.0000  0.0000 </r>
       </set>
       <set comment="band 3">
        <r>  0.0000  0.0505  0.0439  0.0630  0.0000  0.0000  0.0000  0.0000  0.0000 </r>
        <r>  0.0000  0.0505  0.0439  0.0630  0.0000  0.0000  0.0000  0.0000  0.0000 </r>
       </set>
       <set comment="band 4">
        <r>  0.0027  0.0710  0.0213  0.0796  0.0000  0.0000  0.0000  0.0000  0.0000 </r>
        <r>  0.0027  0.0710  0.0213  0.0796  0.0000  0.0000  0.0000  0.0000  0.0000 </r>
       </set>
       <set comment="band 5">
        <r>  0.0357  0.0131  0.0247  0.0364  0.0000  0.0000  0.0000  0.0000  0.0000 </r>
        <r>  0.0357  0.0131  0.0247  0.0364  0.0000  0.0000  0.0000  0.0000  0.0000 </r>
       </set>
       <set comment="band 6">
        <r>  0.0182  0.0199  0.0102  0.0563  0.0000  0.0000  0.0000  0.0000  0.0000 </r>
        <r>  0.0182  0.0199  0.0102  0.0563  0.0000  0.0000  0.0000  0.0000  0.0000 </r>
       </set>
       <set comment="band 7">
        <r>  0.0336  0.0438  0.0417  0.0316  0.0000  0.0000  0.0000  0.0000  0.0000 </r>
        <r>  0.0335  0.0438  0.0417  0.0316  0.0000  0.0000  0.0000  0.0000  0.0000 </r>
       </set>
       <set comment="band 8">
        <r>  0.0348  0.0245  0.0305  0.0440  0.0000  0.0000  0.0000  0.0000  0.0000 </r>
        <r>  0.0348  0.0245  0.0305  0.0440  0.0000  0.0000  0.0000  0.0000  0.0000 </r>
       </set>
       <set comment="band 9">
        <r>  0.0055  0.0380  0.0623  0.0364  0.0000  0.0000  0.0000  0.0000  0.0000 </r>
        <r>  0.0055  0.0380  0.0623  0.0364  0.0000  0.0000  0.0000  0.0000  0.0000 </r>
       </set>
       <set comment="band 10">
        <r>  0.0127  0.0827  0.0001  0.0229  0.0000  0.0000  0.0000  0.0000  0.0000 </r>
        <r>  0.0127  0.0827  0.0001  0.0229  0.0000  0.0000  0.0000  0.0000  0.0000 </r>
       </set>
       <set comment="band 11">
        <r>  0.0161  0.0000  0.1047  0.0131  0.0000  0.0000  0.0000  0.0000  0.0000 </r>
        <r>  0.0161  0.0000  0.1047  0.0131  0.0000  0.0000  0.0000  0.0000  0.0000 </r>
       </set>
       <set comment="band 12">
        <r>  0.0140  0.0735  0.0363  0.0031  0.0000  0.0000  0.0000  0.0000  0.0000 </r>
        <r>  0.0149  0.0697  0.0388  0.0036  0.0000  0.0000  0.0000  0.0000  0.0000 </r>
       </set>
      </set>
      <set comment="kpoint 125">
       <set comment="band 1">
        <r>  0.2108  0.0122  0.0225  0.0009  0.0000  0.0000  0.0000  0.0000  0.0000 </r>
        <r>  0.2108  0.0122  0.0225  0.0009  0.0000  0.0000  0.0000  0.0000  0.0000 </r>
       </set>
       <set comment="band 2">
        <r>  0.1925  0.0123  0.0370  0.0016  0.0000  0.0000  0.0000  0.0000  0.0000 </r>
        <r>  0.1925  0.0123  0.0370  0.0016  0.0000  0.0000  0.0000  0.0000  0.0000 </r>
       </set>
       <set comment="band 3">
        <r>  0.0000  0.0508  0.0439  0.0626  0.0000  0.0000  0.0000  0.0000  0.0000 </r>
        <r>  0.0000  0.0508  0.0439  0.0626  0.0000  0.0000  0.0000  0.0000  0.0000 </r>
       </set>
       <set comment="band 4">
        <r>  0.0028  0.0729  0.0198  0.0806  0.0000  0.0000  0.0000  0.0000  0.0000 </r>
        <r>  0.0028  0.0729  0.0198  0.0806  0.0000  0.0000  0.0000  0.0000  0.0000 </r>
       </set>
       <set comment="band 5">
        <r>  0.0370  0.0124  0.0256  0.0345  0.0000  0.0000  0.0000  0.0000  0.0000 </r>
        <r>  0.0370  0.0124  0.0256  0.0345  0.0000  0.0000  0.0000  0.0000  0.0000 </r>
       </set>
       <set comment="band 6">
        <r>  0.0189  0.0209  0.0106  0.0548  0.0000  0.0000  0.0000  0.0000  0.0000 </r>
        <r>  0.0189  0.0209  0.0106  0.0548  0.0000  0.0000  0.0000  0.0000  0.0000 </r>
       </set>
       <set comment="band 7">
        <r>  0.0321  0.0439  0.0411  0.0332  0.0000  0.0000  0.0000  0.0000  0.0000 </r>
        <r>  0.0321  0.0439  0.0412  0.0332  0.0000  0.0000  0.0000  0.0000  0.0000 </r>
       </set>
       <set comment="band 8">
        <r>  0.0343  0.0241  0.0300  0.0453  0.0000  0.0000  0.0000  0.0000  0.0000 </r>
        <r>  0.0343  0.0241  0.0300  0.0453  0.0000  0.0000  0.0000  0.0000  0.0000 </r>
       </set>
       <set comment="band 9">
        <r>  0.0062  0.0375  0.0627  0.0360  0.0000  0.0000  0.0000  0.0000  0.0000 </r>
        <r>  0.0061  0.0375  0.0629  0.0360  0.0000  0.0000  0.0000  0.0000  0.0000 </r>
       </set>
       <set comment="band 10">
        <r>  0.0137  0.0817  0.0005  0.0218  0.0000  0.0000  0.0000  0.0000  0.0000 </r>
        <r>  0.0137  0.0817  0.0005  0.0218  0.0000  0.0000  0.0000  0.0000  0.0000 </r>
       </set>
       <set comment="band 11">
        <r>  0.0060  0.0432  0.0898  0.0134  0.0000  0.0000  0.0000  0.0000  0.0000 </r>
        <r>  0.0116  0.0477  0.0602  0.0094  0.0000  0.0000  0.0000  0.0000  0.0000 </r>
       </set>
       <set comment="band 12">
        <r>  0.0505  0.0009  0.0166  0.0255  0.0000  0.0000  0.0000  0.0000  0.0000 </r>
        <r>  0.0037  0.0207  0.0133  0.0077  0.0000  0.0000  0.0000  0.0000  0.0000 </r>
       </set>
      </set>
      <set comment="kpoint 126">
       <set comment="band 1">
        <r>  0.2111  0.0117  0.0226  0.0011  0.0000  0.0000  0.0000  0.0000  0.0000 </r>
        <r>  0.2111  0.0117  0.0226  0.0011  0.0000  0.0000  0.0000  0.0000  0.0000 </r>
       </set>
       <set comment="band 2">
        <r>  0.1916  0.0118  0.0377  0.0018  0.0000  0.0000  0.0000  0.0000  0.0000 </r>
        <r>  0.1916  0.0118  0.0377  0.0018  0.0000  0.0000  0.0000  0.0000  0.0000 </r>
       </set>
       <set comment="band 3">
        <r>  0.0000  0.0511  0.0438  0.0622  0.0000  0.0000  0.0000  0.0000  0.0000 </r>
        <r>  0.0000  0.0511  0.0438  0.0622  0.0000  0.0000  0.0000  0.0000  0.0000 </r>
       </set>
       <set comment="band 4">
        <r>  0.0029  0.0747  0.0183  0.0816  0.0000  0.0000  0.0000  0.0000  0.0000 </r>
        <r>  0.0029  0.0747  0.0183  0.0816  0.0000  0.0000  0.0000  0.0000  0.0000 </r>
       </set>
       <set comment="band 5">
        <r>  0.0382  0.0117  0.0265  0.0325  0.0000  0.0000  0.0000  0.0000  0.0000 </r>
        <r>  0.0382  0.0117  0.0265  0.0325  0.0000  0.0000  0.0000  0.0000  0.0000 </r>
       </set>
       <set comment="band 6">
        <r>  0.0195  0.0218  0.0110  0.0535  0.0000  0.0000  0.0000  0.0000  0.0000 </r>
        <r>  0.0195  0.0218  0.0110  0.0535  0.0000  0.0000  0.0000  0.0000  0.0000 </r>
       </set>
       <set comment="band 7">
        <r>  0.0307  0.0440  0.0406  0.0348  0.0000  0.0000  0.0000  0.0000  0.0000 </r>
        <r>  0.0307  0.0440  0.0406  0.0348  0.0000  0.0000  0.0000  0.0000  0.0000 </r>
       </set>
       <set comment="band 8">
        <r>  0.0338  0.0238  0.0295  0.0464  0.0000  0.0000  0.0000  0.0000  0.0000 </r>
        <r>  0.0338  0.0238  0.0295  0.0464  0.0000  0.0000  0.0000  0.0000  0.0000 </r>
       </set>
       <set comment="band 9">
        <r>  0.0068  0.0370  0.0633  0.0355  0.0000  0.0000  0.0000  0.0000  0.0000 </r>
        <r>  0.0068  0.0370  0.0632  0.0355  0.0000  0.0000  0.0000  0.0000  0.0000 </r>
       </set>
       <set comment="band 10">
        <r>  0.0146  0.0805  0.0011  0.0207  0.0000  0.0000  0.0000  0.0000  0.0000 </r>
        <r>  0.0146  0.0805  0.0011  0.0207  0.0000  0.0000  0.0000  0.0000  0.0000 </r>
       </set>
       <set comment="band 11">
        <r>  0.0002  0.0188  0.0748  0.0056  0.0000  0.0000  0.0000  0.0000  0.0000 </r>
        <r>  0.0129  0.0095  0.0257  0.0594  0.0000  0.0000  0.0000  0.0000  0.0000 </r>
       </set>
       <set comment="band 12">
        <r>  0.0466  0.0014  0.0041  0.0190  0.0000  0.0000  0.0000  0.0000  0.0000 </r>
        <r>  0.0152  0.0018  0.0059  0.0104  0.0000  0.0000  0.0000  0.0000  0.0000 </r>
       </set>
      </set>
      <set comment="kpoint 127">
       <set comment="band 1">
        <r>  0.2113  0.0112  0.0226  0.0012  0.0000  0.0000  0.0000  0.0000  0.0000 </r>
        <r>  0.2113  0.0112  0.0226  0.0012  0.0000  0.0000  0.0000  0.0000  0.0000 </r>
       </set>
       <set comment="band 2">
        <r>  0.1908  0.0113  0.0384  0.0020  0.0000  0.0000  0.0000  0.0000  0.0000 </r>
        <r>  0.1908  0.0113  0.0384  0.0020  0.0000  0.0000  0.0000  0.0000  0.0000 </r>
       </set>
       <set comment="band 3">
        <r>  0.0000  0.0514  0.0437  0.0619  0.0000  0.0000  0.0000  0.0000  0.0000 </r>
        <r>  0.0000  0.0514  0.0437  0.0619  0.0000  0.0000  0.0000  0.0000  0.0000 </r>
       </set>
       <set comment="band 4">
        <r>  0.0030  0.0766  0.0168  0.0827  0.0000  0.0000  0.0000  0.0000  0.0000 </r>
        <r>  0.0030  0.0766  0.0168  0.0827  0.0000  0.0000  0.0000  0.0000  0.0000 </r>
       </set>
       <set comment="band 5">
        <r>  0.0393  0.0109  0.0274  0.0306  0.0000  0.0000  0.0000  0.0000  0.0000 </r>
        <r>  0.0393  0.0109  0.0274  0.0306  0.0000  0.0000  0.0000  0.0000  0.0000 </r>
       </set>
       <set comment="band 6">
        <r>  0.0200  0.0228  0.0113  0.0522  0.0000  0.0000  0.0000  0.0000  0.0000 </r>
        <r>  0.0200  0.0227  0.0113  0.0521  0.0000  0.0000  0.0000  0.0000  0.0000 </r>
       </set>
       <set comment="band 7">
        <r>  0.0093  0.0626  0.0609  0.0105  0.0000  0.0000  0.0000  0.0000  0.0000 </r>
        <r>  0.0506  0.0199  0.0159  0.0654  0.0000  0.0000  0.0000  0.0000  0.0000 </r>
       </set>
       <set comment="band 8">
        <r>  0.0055  0.0360  0.0674  0.0390  0.0000  0.0000  0.0000  0.0000  0.0000 </r>
        <r>  0.0086  0.0408  0.0559  0.0335  0.0000  0.0000  0.0000  0.0000  0.0000 </r>
       </set>
       <set comment="band 9">
        <r>  0.0174  0.0804  0.0028  0.0208  0.0000  0.0000  0.0000  0.0000  0.0000 </r>
        <r>  0.0169  0.0813  0.0029  0.0199  0.0000  0.0000  0.0000  0.0000  0.0000 </r>
       </set>
       <set comment="band 10">
        <r>  0.0170  0.0350  0.0734  0.0128  0.0000  0.0000  0.0000  0.0000  0.0000 </r>
        <r>  0.0097  0.0211  0.1300  0.0165  0.0000  0.0000  0.0000  0.0000  0.0000 </r>
       </set>
       <set comment="band 11">
        <r>  0.0023  0.0106  0.1411  0.0167  0.0000  0.0000  0.0000  0.0000  0.0000 </r>
        <r>  0.0042  0.0342  0.0612  0.0254  0.0000  0.0000  0.0000  0.0000  0.0000 </r>
       </set>
       <set comment="band 12">
        <r>  0.0130  0.0037  0.0042  0.0256  0.0000  0.0000  0.0000  0.0000  0.0000 </r>
        <r>  0.0019  0.0000  0.0094  0.0652  0.0000  0.0000  0.0000  0.0000  0.0000 </r>
       </set>
      </set>
      <set comment="kpoint 128">
       <set comment="band 1">
        <r>  0.2116  0.0108  0.0227  0.0013  0.0000  0.0000  0.0000  0.0000  0.0000 </r>
        <r>  0.2116  0.0108  0.0227  0.0013  0.0000  0.0000  0.0000  0.0000  0.0000 </r>
       </set>
       <set comment="band 2">
        <r>  0.1900  0.0109  0.0390  0.0022  0.0000  0.0000  0.0000  0.0000  0.0000 </r>
        <r>  0.1900  0.0109  0.0390  0.0022  0.0000  0.0000  0.0000  0.0000  0.0000 </r>
       </set>
       <set comment="band 3">
        <r>  0.0000  0.0517  0.0436  0.0615  0.0000  0.0000  0.0000  0.0000  0.0000 </r>
        <r>  0.0000  0.0517  0.0436  0.0615  0.0000  0.0000  0.0000  0.0000  0.0000 </r>
       </set>
       <set comment="band 4">
        <r>  0.0030  0.0785  0.0153  0.0838  0.0000  0.0000  0.0000  0.0000  0.0000 </r>
        <r>  0.0030  0.0785  0.0153  0.0838  0.0000  0.0000  0.0000  0.0000  0.0000 </r>
       </set>
       <set comment="band 5">
        <r>  0.0405  0.0100  0.0283  0.0286  0.0000  0.0000  0.0000  0.0000  0.0000 </r>
        <r>  0.0405  0.0100  0.0283  0.0286  0.0000  0.0000  0.0000  0.0000  0.0000 </r>
       </set>
       <set comment="band 6">
        <r>  0.0205  0.0236  0.0116  0.0509  0.0000  0.0000  0.0000  0.0000  0.0000 </r>
        <r>  0.0205  0.0236  0.0116  0.0509  0.0000  0.0000  0.0000  0.0000  0.0000 </r>
       </set>
       <set comment="band 7">
        <r>  0.0280  0.0445  0.0395  0.0378  0.0000  0.0000  0.0000  0.0000  0.0000 </r>
        <r>  0.0280  0.0445  0.0396  0.0378  0.0000  0.0000  0.0000  0.0000  0.0000 </r>
       </set>
       <set comment="band 8">
        <r>  0.0330  0.0232  0.0285  0.0487  0.0000  0.0000  0.0000  0.0000  0.0000 </r>
        <r>  0.0330  0.0232  0.0285  0.0487  0.0000  0.0000  0.0000  0.0000  0.0000 </r>
       </set>
       <set comment="band 9">
        <r>  0.0083  0.0360  0.0643  0.0345  0.0000  0.0000  0.0000  0.0000  0.0000 </r>
        <r>  0.0083  0.0360  0.0643  0.0345  0.0000  0.0000  0.0000  0.0000  0.0000 </r>
       </set>
       <set comment="band 10">
        <r>  0.0161  0.0777  0.0027  0.0189  0.0000  0.0000  0.0000  0.0000  0.0000 </r>
        <r>  0.0161  0.0777  0.0027  0.0189  0.0000  0.0000  0.0000  0.0000  0.0000 </r>
       </set>
       <set comment="band 11">
        <r>  0.0111  0.0215  0.0850  0.0168  0.0000  0.0000  0.0000  0.0000  0.0000 </r>
        <r>  0.0101  0.0634  0.0472  0.0064  0.0000  0.0000  0.0000  0.0000  0.0000 </r>
       </set>
       <set comment="band 12">
        <r>  0.0077  0.0062  0.0521  0.0062  0.0000  0.0000  0.0000  0.0000  0.0000 </r>
        <r>  0.0213  0.0092  0.0636  0.0113  0.0000  0.0000  0.0000  0.0000  0.0000 </r>
       </set>
      </set>
      <set comment="kpoint 129">
       <set comment="band 1">
        <r>  0.2118  0.0103  0.0227  0.0015  0.0000  0.0000  0.0000  0.0000  0.0000 </r>
        <r>  0.2118  0.0103  0.0227  0.0015  0.0000  0.0000  0.0000  0.0000  0.0000 </r>
       </set>
       <set comment="band 2">
        <r>  0.1893  0.0105  0.0397  0.0024  0.0000  0.0000  0.0000  0.0000  0.0000 </r>
        <r>  0.1893  0.0105  0.0397  0.0024  0.0000  0.0000  0.0000  0.0000  0.0000 </r>
       </set>
       <set comment="band 3">
        <r>  0.0000  0.0520  0.0436  0.0611  0.0000  0.0000  0.0000  0.0000  0.0000 </r>
        <r>  0.0000  0.0520  0.0436  0.0611  0.0000  0.0000  0.0000  0.0000  0.0000 </r>
       </set>
       <set comment="band 4">
        <r>  0.0030  0.0803  0.0139  0.0850  0.0000  0.0000  0.0000  0.0000  0.0000 </r>
        <r>  0.0030  0.0803  0.0139  0.0850  0.0000  0.0000  0.0000  0.0000  0.0000 </r>
       </set>
       <set comment="band 5">
        <r>  0.0416  0.0091  0.0292  0.0267  0.0000  0.0000  0.0000  0.0000  0.0000 </r>
        <r>  0.0416  0.0091  0.0292  0.0267  0.0000  0.0000  0.0000  0.0000  0.0000 </r>
       </set>
       <set comment="band 6">
        <r>  0.0210  0.0245  0.0118  0.0497  0.0000  0.0000  0.0000  0.0000  0.0000 </r>
        <r>  0.0210  0.0245  0.0118  0.0497  0.0000  0.0000  0.0000  0.0000  0.0000 </r>
       </set>
       <set comment="band 7">
        <r>  0.0266  0.0449  0.0390  0.0392  0.0000  0.0000  0.0000  0.0000  0.0000 </r>
        <r>  0.0266  0.0449  0.0390  0.0392  0.0000  0.0000  0.0000  0.0000  0.0000 </r>
       </set>
       <set comment="band 8">
        <r>  0.0327  0.0230  0.0280  0.0498  0.0000  0.0000  0.0000  0.0000  0.0000 </r>
        <r>  0.0327  0.0230  0.0280  0.0498  0.0000  0.0000  0.0000  0.0000  0.0000 </r>
       </set>
       <set comment="band 9">
        <r>  0.0091  0.0354  0.0648  0.0338  0.0000  0.0000  0.0000  0.0000  0.0000 </r>
        <r>  0.0091  0.0354  0.0648  0.0338  0.0000  0.0000  0.0000  0.0000  0.0000 </r>
       </set>
       <set comment="band 10">
        <r>  0.0167  0.0762  0.0035  0.0181  0.0000  0.0000  0.0000  0.0000  0.0000 </r>
        <r>  0.0167  0.0762  0.0035  0.0181  0.0000  0.0000  0.0000  0.0000  0.0000 </r>
       </set>
       <set comment="band 11">
        <r>  0.0110  0.0018  0.1038  0.0178  0.0000  0.0000  0.0000  0.0000  0.0000 </r>
        <r>  0.0123  0.0029  0.0989  0.0167  0.0000  0.0000  0.0000  0.0000  0.0000 </r>
       </set>
       <set comment="band 12">
        <r>  0.0059  0.0584  0.0301  0.0043  0.0000  0.0000  0.0000  0.0000  0.0000 </r>
        <r>  0.0123  0.0533  0.0314  0.0088  0.0000  0.0000  0.0000  0.0000  0.0000 </r>
       </set>
      </set>
      <set comment="kpoint 130">
       <set comment="band 1">
        <r>  0.2120  0.0099  0.0228  0.0017  0.0000  0.0000  0.0000  0.0000  0.0000 </r>
        <r>  0.2120  0.0099  0.0228  0.0017  0.0000  0.0000  0.0000  0.0000  0.0000 </r>
       </set>
       <set comment="band 2">
        <r>  0.1886  0.0101  0.0402  0.0026  0.0000  0.0000  0.0000  0.0000  0.0000 </r>
        <r>  0.1886  0.0101  0.0402  0.0026  0.0000  0.0000  0.0000  0.0000  0.0000 </r>
       </set>
       <set comment="band 3">
        <r>  0.0000  0.0523  0.0435  0.0608  0.0000  0.0000  0.0000  0.0000  0.0000 </r>
        <r>  0.0000  0.0523  0.0435  0.0608  0.0000  0.0000  0.0000  0.0000  0.0000 </r>
       </set>
       <set comment="band 4">
        <r>  0.0029  0.0822  0.0125  0.0862  0.0000  0.0000  0.0000  0.0000  0.0000 </r>
        <r>  0.0029  0.0822  0.0125  0.0862  0.0000  0.0000  0.0000  0.0000  0.0000 </r>
       </set>
       <set comment="band 5">
        <r>  0.0427  0.0082  0.0300  0.0247  0.0000  0.0000  0.0000  0.0000  0.0000 </r>
        <r>  0.0427  0.0082  0.0300  0.0247  0.0000  0.0000  0.0000  0.0000  0.0000 </r>
       </set>
       <set comment="band 6">
        <r>  0.0214  0.0253  0.0120  0.0486  0.0000  0.0000  0.0000  0.0000  0.0000 </r>
        <r>  0.0214  0.0253  0.0120  0.0486  0.0000  0.0000  0.0000  0.0000  0.0000 </r>
       </set>
       <set comment="band 7">
        <r>  0.0253  0.0454  0.0383  0.0407  0.0000  0.0000  0.0000  0.0000  0.0000 </r>
        <r>  0.0253  0.0454  0.0383  0.0407  0.0000  0.0000  0.0000  0.0000  0.0000 </r>
       </set>
       <set comment="band 8">
        <r>  0.0323  0.0229  0.0276  0.0509  0.0000  0.0000  0.0000  0.0000  0.0000 </r>
        <r>  0.0323  0.0229  0.0276  0.0509  0.0000  0.0000  0.0000  0.0000  0.0000 </r>
       </set>
       <set comment="band 9">
        <r>  0.0100  0.0348  0.0654  0.0331  0.0000  0.0000  0.0000  0.0000  0.0000 </r>
        <r>  0.0100  0.0348  0.0654  0.0331  0.0000  0.0000  0.0000  0.0000  0.0000 </r>
       </set>
       <set comment="band 10">
        <r>  0.0172  0.0746  0.0044  0.0174  0.0000  0.0000  0.0000  0.0000  0.0000 </r>
        <r>  0.0172  0.0746  0.0044  0.0174  0.0000  0.0000  0.0000  0.0000  0.0000 </r>
       </set>
       <set comment="band 11">
        <r>  0.0110  0.0031  0.1011  0.0180  0.0000  0.0000  0.0000  0.0000  0.0000 </r>
        <r>  0.0110  0.0030  0.1014  0.0181  0.0000  0.0000  0.0000  0.0000  0.0000 </r>
       </set>
       <set comment="band 12">
        <r>  0.0067  0.0837  0.0268  0.0037  0.0000  0.0000  0.0000  0.0000  0.0000 </r>
        <r>  0.0096  0.0644  0.0396  0.0074  0.0000  0.0000  0.0000  0.0000  0.0000 </r>
       </set>
      </set>
      <set comment="kpoint 131">
       <set comment="band 1">
        <r>  0.2122  0.0095  0.0228  0.0018  0.0000  0.0000  0.0000  0.0000  0.0000 </r>
        <r>  0.2122  0.0095  0.0228  0.0018  0.0000  0.0000  0.0000  0.0000  0.0000 </r>
       </set>
       <set comment="band 2">
        <r>  0.1879  0.0097  0.0408  0.0028  0.0000  0.0000  0.0000  0.0000  0.0000 </r>
        <r>  0.1879  0.0097  0.0408  0.0028  0.0000  0.0000  0.0000  0.0000  0.0000 </r>
       </set>
       <set comment="band 3">
        <r>  0.0000  0.0525  0.0434  0.0605  0.0000  0.0000  0.0000  0.0000  0.0000 </r>
        <r>  0.0000  0.0525  0.0434  0.0605  0.0000  0.0000  0.0000  0.0000  0.0000 </r>
       </set>
       <set comment="band 4">
        <r>  0.0028  0.0841  0.0111  0.0875  0.0000  0.0000  0.0000  0.0000  0.0000 </r>
        <r>  0.0028  0.0841  0.0111  0.0875  0.0000  0.0000  0.0000  0.0000  0.0000 </r>
       </set>
       <set comment="band 5">
        <r>  0.0437  0.0072  0.0309  0.0227  0.0000  0.0000  0.0000  0.0000  0.0000 </r>
        <r>  0.0437  0.0072  0.0309  0.0227  0.0000  0.0000  0.0000  0.0000  0.0000 </r>
       </set>
       <set comment="band 6">
        <r>  0.0217  0.0262  0.0122  0.0475  0.0000  0.0000  0.0000  0.0000  0.0000 </r>
        <r>  0.0217  0.0262  0.0122  0.0475  0.0000  0.0000  0.0000  0.0000  0.0000 </r>
       </set>
       <set comment="band 7">
        <r>  0.0240  0.0460  0.0376  0.0421  0.0000  0.0000  0.0000  0.0000  0.0000 </r>
        <r>  0.0240  0.0460  0.0376  0.0421  0.0000  0.0000  0.0000  0.0000  0.0000 </r>
       </set>
       <set comment="band 8">
        <r>  0.0321  0.0228  0.0271  0.0520  0.0000  0.0000  0.0000  0.0000  0.0000 </r>
        <r>  0.0321  0.0228  0.0271  0.0520  0.0000  0.0000  0.0000  0.0000  0.0000 </r>
       </set>
       <set comment="band 9">
        <r>  0.0108  0.0340  0.0661  0.0323  0.0000  0.0000  0.0000  0.0000  0.0000 </r>
        <r>  0.0108  0.0340  0.0661  0.0323  0.0000  0.0000  0.0000  0.0000  0.0000 </r>
       </set>
       <set comment="band 10">
        <r>  0.0177  0.0731  0.0053  0.0168  0.0000  0.0000  0.0000  0.0000  0.0000 </r>
        <r>  0.0177  0.0731  0.0053  0.0168  0.0000  0.0000  0.0000  0.0000  0.0000 </r>
       </set>
       <set comment="band 11">
        <r>  0.0103  0.0044  0.1007  0.0189  0.0000  0.0000  0.0000  0.0000  0.0000 </r>
        <r>  0.0101  0.0039  0.1026  0.0191  0.0000  0.0000  0.0000  0.0000  0.0000 </r>
       </set>
       <set comment="band 12">
        <r>  0.0104  0.0596  0.0353  0.0107  0.0000  0.0000  0.0000  0.0000  0.0000 </r>
        <r>  0.0074  0.0772  0.0239  0.0062  0.0000  0.0000  0.0000  0.0000  0.0000 </r>
       </set>
      </set>
      <set comment="kpoint 132">
       <set comment="band 1">
        <r>  0.2123  0.0091  0.0229  0.0020  0.0000  0.0000  0.0000  0.0000  0.0000 </r>
        <r>  0.2123  0.0091  0.0229  0.0020  0.0000  0.0000  0.0000  0.0000  0.0000 </r>
       </set>
       <set comment="band 2">
        <r>  0.1873  0.0093  0.0413  0.0030  0.0000  0.0000  0.0000  0.0000  0.0000 </r>
        <r>  0.1872  0.0093  0.0413  0.0030  0.0000  0.0000  0.0000  0.0000  0.0000 </r>
       </set>
       <set comment="band 3">
        <r>  0.0000  0.0528  0.0434  0.0601  0.0000  0.0000  0.0000  0.0000  0.0000 </r>
        <r>  0.0000  0.0528  0.0434  0.0601  0.0000  0.0000  0.0000  0.0000  0.0000 </r>
       </set>
       <set comment="band 4">
        <r>  0.0026  0.0859  0.0097  0.0888  0.0000  0.0000  0.0000  0.0000  0.0000 </r>
        <r>  0.0026  0.0859  0.0097  0.0888  0.0000  0.0000  0.0000  0.0000  0.0000 </r>
       </set>
       <set comment="band 5">
        <r>  0.0448  0.0062  0.0318  0.0206  0.0000  0.0000  0.0000  0.0000  0.0000 </r>
        <r>  0.0448  0.0062  0.0318  0.0206  0.0000  0.0000  0.0000  0.0000  0.0000 </r>
       </set>
       <set comment="band 6">
        <r>  0.0221  0.0270  0.0124  0.0465  0.0000  0.0000  0.0000  0.0000  0.0000 </r>
        <r>  0.0221  0.0270  0.0124  0.0465  0.0000  0.0000  0.0000  0.0000  0.0000 </r>
       </set>
       <set comment="band 7">
        <r>  0.0227  0.0467  0.0368  0.0436  0.0000  0.0000  0.0000  0.0000  0.0000 </r>
        <r>  0.0227  0.0467  0.0368  0.0436  0.0000  0.0000  0.0000  0.0000  0.0000 </r>
       </set>
       <set comment="band 8">
        <r>  0.0319  0.0228  0.0267  0.0532  0.0000  0.0000  0.0000  0.0000  0.0000 </r>
        <r>  0.0319  0.0228  0.0267  0.0532  0.0000  0.0000  0.0000  0.0000  0.0000 </r>
       </set>
       <set comment="band 9">
        <r>  0.0118  0.0332  0.0669  0.0314  0.0000  0.0000  0.0000  0.0000  0.0000 </r>
        <r>  0.0118  0.0332  0.0669  0.0315  0.0000  0.0000  0.0000  0.0000  0.0000 </r>
       </set>
       <set comment="band 10">
        <r>  0.0180  0.0715  0.0061  0.0162  0.0000  0.0000  0.0000  0.0000  0.0000 </r>
        <r>  0.0180  0.0715  0.0061  0.0162  0.0000  0.0000  0.0000  0.0000  0.0000 </r>
       </set>
       <set comment="band 11">
        <r>  0.0069  0.0136  0.1474  0.0239  0.0000  0.0000  0.0000  0.0000  0.0000 </r>
        <r>  0.0224  0.0462  0.0392  0.0071  0.0000  0.0000  0.0000  0.0000  0.0000 </r>
       </set>
       <set comment="band 12">
        <r>  0.0108  0.0015  0.0283  0.0105  0.0000  0.0000  0.0000  0.0000  0.0000 </r>
        <r>  0.0046  0.0331  0.0005  0.0136  0.0000  0.0000  0.0000  0.0000  0.0000 </r>
       </set>
      </set>
      <set comment="kpoint 133">
       <set comment="band 1">
        <r>  0.2125  0.0087  0.0229  0.0022  0.0000  0.0000  0.0000  0.0000  0.0000 </r>
        <r>  0.2125  0.0087  0.0229  0.0022  0.0000  0.0000  0.0000  0.0000  0.0000 </r>
       </set>
       <set comment="band 2">
        <r>  0.1867  0.0089  0.0417  0.0032  0.0000  0.0000  0.0000  0.0000  0.0000 </r>
        <r>  0.1867  0.0089  0.0417  0.0032  0.0000  0.0000  0.0000  0.0000  0.0000 </r>
       </set>
       <set comment="band 3">
        <r>  0.0000  0.0531  0.0433  0.0598  0.0000  0.0000  0.0000  0.0000  0.0000 </r>
        <r>  0.0000  0.0531  0.0433  0.0598  0.0000  0.0000  0.0000  0.0000  0.0000 </r>
       </set>
       <set comment="band 4">
        <r>  0.0024  0.0878  0.0084  0.0901  0.0000  0.0000  0.0000  0.0000  0.0000 </r>
        <r>  0.0024  0.0878  0.0084  0.0901  0.0000  0.0000  0.0000  0.0000  0.0000 </r>
       </set>
       <set comment="band 5">
        <r>  0.0458  0.0053  0.0327  0.0186  0.0000  0.0000  0.0000  0.0000  0.0000 </r>
        <r>  0.0458  0.0053  0.0327  0.0186  0.0000  0.0000  0.0000  0.0000  0.0000 </r>
       </set>
       <set comment="band 6">
        <r>  0.0224  0.0278  0.0126  0.0455  0.0000  0.0000  0.0000  0.0000  0.0000 </r>
        <r>  0.0224  0.0278  0.0126  0.0455  0.0000  0.0000  0.0000  0.0000  0.0000 </r>
       </set>
       <set comment="band 7">
        <r>  0.0213  0.0476  0.0359  0.0452  0.0000  0.0000  0.0000  0.0000  0.0000 </r>
        <r>  0.0213  0.0476  0.0359  0.0452  0.0000  0.0000  0.0000  0.0000  0.0000 </r>
       </set>
       <set comment="band 8">
        <r>  0.0317  0.0228  0.0263  0.0543  0.0000  0.0000  0.0000  0.0000  0.0000 </r>
        <r>  0.0317  0.0228  0.0263  0.0543  0.0000  0.0000  0.0000  0.0000  0.0000 </r>
       </set>
       <set comment="band 9">
        <r>  0.0128  0.0322  0.0678  0.0304  0.0000  0.0000  0.0000  0.0000  0.0000 </r>
        <r>  0.0128  0.0322  0.0678  0.0304  0.0000  0.0000  0.0000  0.0000  0.0000 </r>
       </set>
       <set comment="band 10">
        <r>  0.0183  0.0698  0.0070  0.0155  0.0000  0.0000  0.0000  0.0000  0.0000 </r>
        <r>  0.0183  0.0699  0.0070  0.0155  0.0000  0.0000  0.0000  0.0000  0.0000 </r>
       </set>
       <set comment="band 11">
        <r>  0.0084  0.0063  0.1047  0.0215  0.0000  0.0000  0.0000  0.0000  0.0000 </r>
        <r>  0.0091  0.0075  0.1011  0.0204  0.0000  0.0000  0.0000  0.0000  0.0000 </r>
       </set>
       <set comment="band 12">
        <r>  0.0058  0.0044  0.0017  0.0278  0.0000  0.0000  0.0000  0.0000  0.0000 </r>
        <r>  0.0194  0.0048  0.0521  0.0092  0.0000  0.0000  0.0000  0.0000  0.0000 </r>
       </set>
      </set>
      <set comment="kpoint 134">
       <set comment="band 1">
        <r>  0.2127  0.0083  0.0229  0.0024  0.0000  0.0000  0.0000  0.0000  0.0000 </r>
        <r>  0.2127  0.0083  0.0229  0.0024  0.0000  0.0000  0.0000  0.0000  0.0000 </r>
       </set>
       <set comment="band 2">
        <r>  0.1861  0.0086  0.0421  0.0034  0.0000  0.0000  0.0000  0.0000  0.0000 </r>
        <r>  0.1861  0.0086  0.0421  0.0034  0.0000  0.0000  0.0000  0.0000  0.0000 </r>
       </set>
       <set comment="band 3">
        <r>  0.0000  0.0534  0.0433  0.0595  0.0000  0.0000  0.0000  0.0000  0.0000 </r>
        <r>  0.0000  0.0534  0.0433  0.0595  0.0000  0.0000  0.0000  0.0000  0.0000 </r>
       </set>
       <set comment="band 4">
        <r>  0.0022  0.0896  0.0072  0.0915  0.0000  0.0000  0.0000  0.0000  0.0000 </r>
        <r>  0.0022  0.0896  0.0072  0.0915  0.0000  0.0000  0.0000  0.0000  0.0000 </r>
       </set>
       <set comment="band 5">
        <r>  0.0468  0.0043  0.0336  0.0165  0.0000  0.0000  0.0000  0.0000  0.0000 </r>
        <r>  0.0468  0.0043  0.0336  0.0165  0.0000  0.0000  0.0000  0.0000  0.0000 </r>
       </set>
       <set comment="band 6">
        <r>  0.0226  0.0285  0.0127  0.0445  0.0000  0.0000  0.0000  0.0000  0.0000 </r>
        <r>  0.0226  0.0285  0.0127  0.0445  0.0000  0.0000  0.0000  0.0000  0.0000 </r>
       </set>
       <set comment="band 7">
        <r>  0.0199  0.0486  0.0348  0.0469  0.0000  0.0000  0.0000  0.0000  0.0000 </r>
        <r>  0.0199  0.0486  0.0348  0.0469  0.0000  0.0000  0.0000  0.0000  0.0000 </r>
       </set>
       <set comment="band 8">
        <r>  0.0316  0.0229  0.0260  0.0555  0.0000  0.0000  0.0000  0.0000  0.0000 </r>
        <r>  0.0316  0.0229  0.0260  0.0555  0.0000  0.0000  0.0000  0.0000  0.0000 </r>
       </set>
       <set comment="band 9">
        <r>  0.0139  0.0311  0.0689  0.0293  0.0000  0.0000  0.0000  0.0000  0.0000 </r>
        <r>  0.0139  0.0311  0.0689  0.0293  0.0000  0.0000  0.0000  0.0000  0.0000 </r>
       </set>
       <set comment="band 10">
        <r>  0.0186  0.0682  0.0078  0.0149  0.0000  0.0000  0.0000  0.0000  0.0000 </r>
        <r>  0.0186  0.0682  0.0078  0.0149  0.0000  0.0000  0.0000  0.0000  0.0000 </r>
       </set>
       <set comment="band 11">
        <r>  0.0074  0.0041  0.1054  0.0222  0.0000  0.0000  0.0000  0.0000  0.0000 </r>
        <r>  0.0095  0.0114  0.0892  0.0181  0.0000  0.0000  0.0000  0.0000  0.0000 </r>
       </set>
       <set comment="band 12">
        <r>  0.0031  0.0134  0.0167  0.0103  0.0000  0.0000  0.0000  0.0000  0.0000 </r>
        <r>  0.0272  0.0066  0.0275  0.0014  0.0000  0.0000  0.0000  0.0000  0.0000 </r>
       </set>
      </set>
      <set comment="kpoint 135">
       <set comment="band 1">
        <r>  0.2128  0.0079  0.0230  0.0026  0.0000  0.0000  0.0000  0.0000  0.0000 </r>
        <r>  0.2128  0.0079  0.0230  0.0026  0.0000  0.0000  0.0000  0.0000  0.0000 </r>
       </set>
       <set comment="band 2">
        <r>  0.1856  0.0083  0.0425  0.0036  0.0000  0.0000  0.0000  0.0000  0.0000 </r>
        <r>  0.1856  0.0083  0.0425  0.0036  0.0000  0.0000  0.0000  0.0000  0.0000 </r>
       </set>
       <set comment="band 3">
        <r>  0.0000  0.0537  0.0433  0.0591  0.0000  0.0000  0.0000  0.0000  0.0000 </r>
        <r>  0.0000  0.0537  0.0433  0.0591  0.0000  0.0000  0.0000  0.0000  0.0000 </r>
       </set>
       <set comment="band 4">
        <r>  0.0019  0.0913  0.0060  0.0928  0.0000  0.0000  0.0000  0.0000  0.0000 </r>
        <r>  0.0019  0.0913  0.0060  0.0928  0.0000  0.0000  0.0000  0.0000  0.0000 </r>
       </set>
       <set comment="band 5">
        <r>  0.0477  0.0034  0.0344  0.0145  0.0000  0.0000  0.0000  0.0000  0.0000 </r>
        <r>  0.0477  0.0034  0.0344  0.0145  0.0000  0.0000  0.0000  0.0000  0.0000 </r>
       </set>
       <set comment="band 6">
        <r>  0.0228  0.0293  0.0128  0.0436  0.0000  0.0000  0.0000  0.0000  0.0000 </r>
        <r>  0.0228  0.0293  0.0128  0.0436  0.0000  0.0000  0.0000  0.0000  0.0000 </r>
       </set>
       <set comment="band 7">
        <r>  0.0028  0.0713  0.0524  0.0119  0.0000  0.0000  0.0000  0.0000  0.0000 </r>
        <r>  0.0377  0.0212  0.0103  0.0893  0.0000  0.0000  0.0000  0.0000  0.0000 </r>
       </set>
       <set comment="band 8">
        <r>  0.0093  0.0255  0.0765  0.0410  0.0000  0.0000  0.0000  0.0000  0.0000 </r>
        <r>  0.0193  0.0385  0.0559  0.0213  0.0000  0.0000  0.0000  0.0000  0.0000 </r>
       </set>
       <set comment="band 9">
        <r>  0.0210  0.0667  0.0099  0.0155  0.0000  0.0000  0.0000  0.0000  0.0000 </r>
        <r>  0.0199  0.0682  0.0112  0.0148  0.0000  0.0000  0.0000  0.0000  0.0000 </r>
       </set>
       <set comment="band 10">
        <r>  0.0077  0.0442  0.0629  0.0232  0.0000  0.0000  0.0000  0.0000  0.0000 </r>
        <r>  0.0063  0.0127  0.1552  0.0165  0.0000  0.0000  0.0000  0.0000  0.0000 </r>
       </set>
       <set comment="band 11">
        <r>  0.0379  0.0166  0.0253  0.0048  0.0000  0.0000  0.0000  0.0000  0.0000 </r>
        <r>  0.0027  0.0205  0.0257  0.0017  0.0000  0.0000  0.0000  0.0000  0.0000 </r>
       </set>
       <set comment="band 12">
        <r>  0.0453  0.0041  0.0009  0.0129  0.0000  0.0000  0.0000  0.0000  0.0000 </r>
        <r>  0.0113  0.0007  0.0045  0.0294  0.0000  0.0000  0.0000  0.0000  0.0000 </r>
       </set>
      </set>
      <set comment="kpoint 136">
       <set comment="band 1">
        <r>  0.2129  0.0075  0.0230  0.0028  0.0000  0.0000  0.0000  0.0000  0.0000 </r>
        <r>  0.2129  0.0075  0.0230  0.0028  0.0000  0.0000  0.0000  0.0000  0.0000 </r>
       </set>
       <set comment="band 2">
        <r>  0.1852  0.0079  0.0428  0.0038  0.0000  0.0000  0.0000  0.0000  0.0000 </r>
        <r>  0.1851  0.0079  0.0428  0.0038  0.0000  0.0000  0.0000  0.0000  0.0000 </r>
       </set>
       <set comment="band 3">
        <r>  0.0000  0.0540  0.0432  0.0588  0.0000  0.0000  0.0000  0.0000  0.0000 </r>
        <r>  0.0000  0.0540  0.0432  0.0588  0.0000  0.0000  0.0000  0.0000  0.0000 </r>
       </set>
       <set comment="band 4">
        <r>  0.0016  0.0930  0.0049  0.0941  0.0000  0.0000  0.0000  0.0000  0.0000 </r>
        <r>  0.0016  0.0930  0.0049  0.0941  0.0000  0.0000  0.0000  0.0000  0.0000 </r>
       </set>
       <set comment="band 5">
        <r>  0.0486  0.0025  0.0352  0.0125  0.0000  0.0000  0.0000  0.0000  0.0000 </r>
        <r>  0.0486  0.0025  0.0352  0.0125  0.0000  0.0000  0.0000  0.0000  0.0000 </r>
       </set>
       <set comment="band 6">
        <r>  0.0230  0.0301  0.0129  0.0427  0.0000  0.0000  0.0000  0.0000  0.0000 </r>
        <r>  0.0230  0.0301  0.0129  0.0427  0.0000  0.0000  0.0000  0.0000  0.0000 </r>
       </set>
       <set comment="band 7">
        <r>  0.0280  0.0341  0.0192  0.0736  0.0000  0.0000  0.0000  0.0000  0.0000 </r>
        <r>  0.0095  0.0618  0.0420  0.0302  0.0000  0.0000  0.0000  0.0000  0.0000 </r>
       </set>
       <set comment="band 8">
        <r>  0.0161  0.0295  0.0699  0.0276  0.0000  0.0000  0.0000  0.0000  0.0000 </r>
        <r>  0.0160  0.0291  0.0706  0.0276  0.0000  0.0000  0.0000  0.0000  0.0000 </r>
       </set>
       <set comment="band 9">
        <r>  0.0189  0.0665  0.0106  0.0139  0.0000  0.0000  0.0000  0.0000  0.0000 </r>
        <r>  0.0202  0.0648  0.0092  0.0148  0.0000  0.0000  0.0000  0.0000  0.0000 </r>
       </set>
       <set comment="band 10">
        <r>  0.0157  0.0254  0.1053  0.0099  0.0000  0.0000  0.0000  0.0000  0.0000 </r>
        <r>  0.0069  0.0104  0.1004  0.0353  0.0000  0.0000  0.0000  0.0000  0.0000 </r>
       </set>
       <set comment="band 11">
        <r>  0.0043  0.0030  0.0673  0.0209  0.0000  0.0000  0.0000  0.0000  0.0000 </r>
        <r>  0.0001  0.0611  0.0155  0.0045  0.0000  0.0000  0.0000  0.0000  0.0000 </r>
       </set>
       <set comment="band 12">
        <r>  0.0142  0.0188  0.0063  0.0246  0.0000  0.0000  0.0000  0.0000  0.0000 </r>
        <r>  0.0083  0.0091  0.0890  0.0034  0.0000  0.0000  0.0000  0.0000  0.0000 </r>
       </set>
      </set>
      <set comment="kpoint 137">
       <set comment="band 1">
        <r>  0.2130  0.0071  0.0230  0.0030  0.0000  0.0000  0.0000  0.0000  0.0000 </r>
        <r>  0.2130  0.0071  0.0230  0.0030  0.0000  0.0000  0.0000  0.0000  0.0000 </r>
       </set>
       <set comment="band 2">
        <r>  0.1848  0.0076  0.0431  0.0040  0.0000  0.0000  0.0000  0.0000  0.0000 </r>
        <r>  0.1847  0.0076  0.0431  0.0040  0.0000  0.0000  0.0000  0.0000  0.0000 </r>
       </set>
       <set comment="band 3">
        <r>  0.0000  0.0543  0.0432  0.0585  0.0000  0.0000  0.0000  0.0000  0.0000 </r>
        <r>  0.0000  0.0543  0.0432  0.0585  0.0000  0.0000  0.0000  0.0000  0.0000 </r>
       </set>
       <set comment="band 4">
        <r>  0.0013  0.0945  0.0038  0.0954  0.0000  0.0000  0.0000  0.0000  0.0000 </r>
        <r>  0.0013  0.0945  0.0038  0.0954  0.0000  0.0000  0.0000  0.0000  0.0000 </r>
       </set>
       <set comment="band 5">
        <r>  0.0494  0.0017  0.0360  0.0106  0.0000  0.0000  0.0000  0.0000  0.0000 </r>
        <r>  0.0494  0.0017  0.0360  0.0106  0.0000  0.0000  0.0000  0.0000  0.0000 </r>
       </set>
       <set comment="band 6">
        <r>  0.0232  0.0308  0.0130  0.0418  0.0000  0.0000  0.0000  0.0000  0.0000 </r>
        <r>  0.0232  0.0308  0.0130  0.0418  0.0000  0.0000  0.0000  0.0000  0.0000 </r>
       </set>
       <set comment="band 7">
        <r>  0.0155  0.0529  0.0301  0.0525  0.0000  0.0000  0.0000  0.0000  0.0000 </r>
        <r>  0.0157  0.0524  0.0298  0.0531  0.0000  0.0000  0.0000  0.0000  0.0000 </r>
       </set>
       <set comment="band 8">
        <r>  0.0164  0.0237  0.0769  0.0274  0.0000  0.0000  0.0000  0.0000  0.0000 </r>
        <r>  0.0199  0.0282  0.0714  0.0213  0.0000  0.0000  0.0000  0.0000  0.0000 </r>
       </set>
       <set comment="band 9">
        <r>  0.0243  0.0693  0.0132  0.0175  0.0000  0.0000  0.0000  0.0000  0.0000 </r>
        <r>  0.0236  0.0684  0.0147  0.0186  0.0000  0.0000  0.0000  0.0000  0.0000 </r>
       </set>
       <set comment="band 10">
        <r>  0.0024  0.0097  0.0635  0.0110  0.0000  0.0000  0.0000  0.0000  0.0000 </r>
        <r>  0.0035  0.0067  0.0460  0.0240  0.0000  0.0000  0.0000  0.0000  0.0000 </r>
       </set>
       <set comment="band 11">
        <r>  0.0026  0.0212  0.0459  0.0207  0.0000  0.0000  0.0000  0.0000  0.0000 </r>
        <r>  0.0055  0.0419  0.0165  0.0088  0.0000  0.0000  0.0000  0.0000  0.0000 </r>
       </set>
       <set comment="band 12">
        <r>  0.0249  0.0168  0.0359  0.0032  0.0000  0.0000  0.0000  0.0000  0.0000 </r>
        <r>  0.0052  0.0130  0.0183  0.0276  0.0000  0.0000  0.0000  0.0000  0.0000 </r>
       </set>
      </set>
      <set comment="kpoint 138">
       <set comment="band 1">
        <r>  0.2131  0.0068  0.0230  0.0033  0.0000  0.0000  0.0000  0.0000  0.0000 </r>
        <r>  0.2131  0.0068  0.0230  0.0033  0.0000  0.0000  0.0000  0.0000  0.0000 </r>
       </set>
       <set comment="band 2">
        <r>  0.1844  0.0073  0.0433  0.0043  0.0000  0.0000  0.0000  0.0000  0.0000 </r>
        <r>  0.1844  0.0073  0.0433  0.0043  0.0000  0.0000  0.0000  0.0000  0.0000 </r>
       </set>
       <set comment="band 3">
        <r>  0.0000  0.0546  0.0432  0.0582  0.0000  0.0000  0.0000  0.0000  0.0000 </r>
        <r>  0.0000  0.0546  0.0432  0.0582  0.0000  0.0000  0.0000  0.0000  0.0000 </r>
       </set>
       <set comment="band 4">
        <r>  0.0011  0.0959  0.0029  0.0965  0.0000  0.0000  0.0000  0.0000  0.0000 </r>
        <r>  0.0010  0.0959  0.0029  0.0965  0.0000  0.0000  0.0000  0.0000  0.0000 </r>
       </set>
       <set comment="band 5">
        <r>  0.0502  0.0011  0.0367  0.0087  0.0000  0.0000  0.0000  0.0000  0.0000 </r>
        <r>  0.0502  0.0011  0.0367  0.0087  0.0000  0.0000  0.0000  0.0000  0.0000 </r>
       </set>
       <set comment="band 6">
        <r>  0.0233  0.0316  0.0131  0.0409  0.0000  0.0000  0.0000  0.0000  0.0000 </r>
        <r>  0.0233  0.0316  0.0131  0.0409  0.0000  0.0000  0.0000  0.0000  0.0000 </r>
       </set>
       <set comment="band 7">
        <r>  0.0135  0.0555  0.0273  0.0555  0.0000  0.0000  0.0000  0.0000  0.0000 </r>
        <r>  0.0135  0.0555  0.0273  0.0555  0.0000  0.0000  0.0000  0.0000  0.0000 </r>
       </set>
       <set comment="band 8">
        <r>  0.0320  0.0248  0.0250  0.0613  0.0000  0.0000  0.0000  0.0000  0.0000 </r>
        <r>  0.0320  0.0248  0.0250  0.0613  0.0000  0.0000  0.0000  0.0000  0.0000 </r>
       </set>
       <set comment="band 9">
        <r>  0.0195  0.0240  0.0763  0.0221  0.0000  0.0000  0.0000  0.0000  0.0000 </r>
        <r>  0.0195  0.0240  0.0763  0.0221  0.0000  0.0000  0.0000  0.0000  0.0000 </r>
       </set>
       <set comment="band 10">
        <r>  0.0184  0.0607  0.0100  0.0120  0.0000  0.0000  0.0000  0.0000  0.0000 </r>
        <r>  0.0184  0.0607  0.0100  0.0120  0.0000  0.0000  0.0000  0.0000  0.0000 </r>
       </set>
       <set comment="band 11">
        <r>  0.0018  0.0145  0.0405  0.0014  0.0000  0.0000  0.0000  0.0000  0.0000 </r>
        <r>  0.0050  0.0263  0.0076  0.0169  0.0000  0.0000  0.0000  0.0000  0.0000 </r>
       </set>
       <set comment="band 12">
        <r>  0.0340  0.0024  0.0033  0.0174  0.0000  0.0000  0.0000  0.0000  0.0000 </r>
        <r>  0.0020  0.0113  0.0116  0.0035  0.0000  0.0000  0.0000  0.0000  0.0000 </r>
       </set>
      </set>
      <set comment="kpoint 139">
       <set comment="band 1">
        <r>  0.2132  0.0064  0.0231  0.0035  0.0000  0.0000  0.0000  0.0000  0.0000 </r>
        <r>  0.2132  0.0064  0.0231  0.0035  0.0000  0.0000  0.0000  0.0000  0.0000 </r>
       </set>
       <set comment="band 2">
        <r>  0.1841  0.0070  0.0435  0.0045  0.0000  0.0000  0.0000  0.0000  0.0000 </r>
        <r>  0.1841  0.0070  0.0435  0.0045  0.0000  0.0000  0.0000  0.0000  0.0000 </r>
       </set>
       <set comment="band 3">
        <r>  0.0000  0.0548  0.0431  0.0579  0.0000  0.0000  0.0000  0.0000  0.0000 </r>
        <r>  0.0000  0.0548  0.0431  0.0579  0.0000  0.0000  0.0000  0.0000  0.0000 </r>
       </set>
       <set comment="band 4">
        <r>  0.0008  0.0972  0.0020  0.0976  0.0000  0.0000  0.0000  0.0000  0.0000 </r>
        <r>  0.0008  0.0972  0.0020  0.0976  0.0000  0.0000  0.0000  0.0000  0.0000 </r>
       </set>
       <set comment="band 5">
        <r>  0.0509  0.0005  0.0373  0.0070  0.0000  0.0000  0.0000  0.0000  0.0000 </r>
        <r>  0.0509  0.0005  0.0373  0.0070  0.0000  0.0000  0.0000  0.0000  0.0000 </r>
       </set>
       <set comment="band 6">
        <r>  0.0235  0.0323  0.0131  0.0401  0.0000  0.0000  0.0000  0.0000  0.0000 </r>
        <r>  0.0235  0.0323  0.0131  0.0401  0.0000  0.0000  0.0000  0.0000  0.0000 </r>
       </set>
       <set comment="band 7">
        <r>  0.0115  0.0583  0.0241  0.0587  0.0000  0.0000  0.0000  0.0000  0.0000 </r>
        <r>  0.0115  0.0583  0.0241  0.0587  0.0000  0.0000  0.0000  0.0000  0.0000 </r>
       </set>
       <set comment="band 8">
        <r>  0.0326  0.0261  0.0251  0.0632  0.0000  0.0000  0.0000  0.0000  0.0000 </r>
        <r>  0.0326  0.0261  0.0251  0.0632  0.0000  0.0000  0.0000  0.0000  0.0000 </r>
       </set>
       <set comment="band 9">
        <r>  0.0214  0.0211  0.0795  0.0193  0.0000  0.0000  0.0000  0.0000  0.0000 </r>
        <r>  0.0214  0.0211  0.0795  0.0193  0.0000  0.0000  0.0000  0.0000  0.0000 </r>
       </set>
       <set comment="band 10">
        <r>  0.0179  0.0582  0.0102  0.0109  0.0000  0.0000  0.0000  0.0000  0.0000 </r>
        <r>  0.0179  0.0582  0.0102  0.0109  0.0000  0.0000  0.0000  0.0000  0.0000 </r>
       </set>
       <set comment="band 11">
        <r>  0.0065  0.0197  0.0676  0.0137  0.0000  0.0000  0.0000  0.0000  0.0000 </r>
        <r>  0.0043  0.0123  0.0841  0.0249  0.0000  0.0000  0.0000  0.0000  0.0000 </r>
       </set>
       <set comment="band 12">
        <r>  0.0036  0.0666  0.0035  0.0142  0.0000  0.0000  0.0000  0.0000  0.0000 </r>
        <r>  0.0010  0.0098  0.1102  0.0097  0.0000  0.0000  0.0000  0.0000  0.0000 </r>
       </set>
      </set>
      <set comment="kpoint 140">
       <set comment="band 1">
        <r>  0.2133  0.0061  0.0231  0.0038  0.0000  0.0000  0.0000  0.0000  0.0000 </r>
        <r>  0.2133  0.0061  0.0231  0.0038  0.0000  0.0000  0.0000  0.0000  0.0000 </r>
       </set>
       <set comment="band 2">
        <r>  0.1839  0.0067  0.0437  0.0047  0.0000  0.0000  0.0000  0.0000  0.0000 </r>
        <r>  0.1839  0.0067  0.0437  0.0047  0.0000  0.0000  0.0000  0.0000  0.0000 </r>
       </set>
       <set comment="band 3">
        <r>  0.0000  0.0551  0.0431  0.0575  0.0000  0.0000  0.0000  0.0000  0.0000 </r>
        <r>  0.0000  0.0551  0.0431  0.0575  0.0000  0.0000  0.0000  0.0000  0.0000 </r>
       </set>
       <set comment="band 4">
        <r>  0.0005  0.0983  0.0013  0.0986  0.0000  0.0000  0.0000  0.0000  0.0000 </r>
        <r>  0.0005  0.0983  0.0013  0.0986  0.0000  0.0000  0.0000  0.0000  0.0000 </r>
       </set>
       <set comment="band 5">
        <r>  0.0515  0.0002  0.0379  0.0054  0.0000  0.0000  0.0000  0.0000  0.0000 </r>
        <r>  0.0515  0.0002  0.0379  0.0054  0.0000  0.0000  0.0000  0.0000  0.0000 </r>
       </set>
       <set comment="band 6">
        <r>  0.0236  0.0331  0.0132  0.0393  0.0000  0.0000  0.0000  0.0000  0.0000 </r>
        <r>  0.0236  0.0331  0.0132  0.0393  0.0000  0.0000  0.0000  0.0000  0.0000 </r>
       </set>
       <set comment="band 7">
        <r>  0.0055  0.0724  0.0156  0.0582  0.0000  0.0000  0.0000  0.0000  0.0000 </r>
        <r>  0.0090  0.0609  0.0114  0.0771  0.0000  0.0000  0.0000  0.0000  0.0000 </r>
       </set>
       <set comment="band 8">
        <r>  0.0069  0.0057  0.0803  0.0752  0.0000  0.0000  0.0000  0.0000  0.0000 </r>
        <r>  0.0496  0.0436  0.0098  0.0198  0.0000  0.0000  0.0000  0.0000  0.0000 </r>
       </set>
       <set comment="band 9">
        <r>  0.0165  0.0492  0.0090  0.0064  0.0000  0.0000  0.0000  0.0000  0.0000 </r>
        <r>  0.0131  0.0486  0.0141  0.0079  0.0000  0.0000  0.0000  0.0000  0.0000 </r>
       </set>
       <set comment="band 10">
        <r>  0.0025  0.0280  0.1496  0.0353  0.0000  0.0000  0.0000  0.0000  0.0000 </r>
        <r>  0.0061  0.0471  0.1097  0.0276  0.0000  0.0000  0.0000  0.0000  0.0000 </r>
       </set>
       <set comment="band 11">
        <r>  0.0022  0.0462  0.0464  0.0062  0.0000  0.0000  0.0000  0.0000  0.0000 </r>
        <r>  0.0012  0.0288  0.0593  0.0020  0.0000  0.0000  0.0000  0.0000  0.0000 </r>
       </set>
       <set comment="band 12">
        <r>  0.0016  0.0481  0.0243  0.0023  0.0000  0.0000  0.0000  0.0000  0.0000 </r>
        <r>  0.0079  0.0074  0.0160  0.0038  0.0000  0.0000  0.0000  0.0000  0.0000 </r>
       </set>
      </set>
      <set comment="kpoint 141">
       <set comment="band 1">
        <r>  0.2133  0.0058  0.0231  0.0040  0.0000  0.0000  0.0000  0.0000  0.0000 </r>
        <r>  0.2133  0.0058  0.0231  0.0040  0.0000  0.0000  0.0000  0.0000  0.0000 </r>
       </set>
       <set comment="band 2">
        <r>  0.1837  0.0065  0.0439  0.0050  0.0000  0.0000  0.0000  0.0000  0.0000 </r>
        <r>  0.1837  0.0065  0.0439  0.0050  0.0000  0.0000  0.0000  0.0000  0.0000 </r>
       </set>
       <set comment="band 3">
        <r>  0.0000  0.0554  0.0431  0.0572  0.0000  0.0000  0.0000  0.0000  0.0000 </r>
        <r>  0.0000  0.0554  0.0431  0.0572  0.0000  0.0000  0.0000  0.0000  0.0000 </r>
       </set>
       <set comment="band 4">
        <r>  0.0003  0.0992  0.0008  0.0993  0.0000  0.0000  0.0000  0.0000  0.0000 </r>
        <r>  0.0003  0.0992  0.0008  0.0993  0.0000  0.0000  0.0000  0.0000  0.0000 </r>
       </set>
       <set comment="band 5">
        <r>  0.0519  0.0000  0.0383  0.0039  0.0000  0.0000  0.0000  0.0000  0.0000 </r>
        <r>  0.0519  0.0000  0.0383  0.0039  0.0000  0.0000  0.0000  0.0000  0.0000 </r>
       </set>
       <set comment="band 6">
        <r>  0.0236  0.0338  0.0132  0.0385  0.0000  0.0000  0.0000  0.0000  0.0000 </r>
        <r>  0.0236  0.0338  0.0132  0.0385  0.0000  0.0000  0.0000  0.0000  0.0000 </r>
       </set>
       <set comment="band 7">
        <r>  0.0065  0.0665  0.0146  0.0671  0.0000  0.0000  0.0000  0.0000  0.0000 </r>
        <r>  0.0065  0.0665  0.0146  0.0671  0.0000  0.0000  0.0000  0.0000  0.0000 </r>
       </set>
       <set comment="band 8">
        <r>  0.0353  0.0311  0.0262  0.0686  0.0000  0.0000  0.0000  0.0000  0.0000 </r>
        <r>  0.0353  0.0311  0.0262  0.0686  0.0000  0.0000  0.0000  0.0000  0.0000 </r>
       </set>
       <set comment="band 9">
        <r>  0.0261  0.0128  0.0889  0.0113  0.0000  0.0000  0.0000  0.0000  0.0000 </r>
        <r>  0.0261  0.0128  0.0889  0.0113  0.0000  0.0000  0.0000  0.0000  0.0000 </r>
       </set>
       <set comment="band 10">
        <r>  0.0152  0.0508  0.0094  0.0072  0.0000  0.0000  0.0000  0.0000  0.0000 </r>
        <r>  0.0152  0.0508  0.0094  0.0072  0.0000  0.0000  0.0000  0.0000  0.0000 </r>
       </set>
       <set comment="band 11">
        <r>  0.0042  0.0298  0.1280  0.0299  0.0000  0.0000  0.0000  0.0000  0.0000 </r>
        <r>  0.0036  0.0235  0.1298  0.0372  0.0000  0.0000  0.0000  0.0000  0.0000 </r>
       </set>
       <set comment="band 12">
        <r>  0.0313  0.0054  0.0057  0.0333  0.0000  0.0000  0.0000  0.0000  0.0000 </r>
        <r>  0.0338  0.0004  0.0069  0.0036  0.0000  0.0000  0.0000  0.0000  0.0000 </r>
       </set>
      </set>
      <set comment="kpoint 142">
       <set comment="band 1">
        <r>  0.2133  0.0055  0.0231  0.0043  0.0000  0.0000  0.0000  0.0000  0.0000 </r>
        <r>  0.2133  0.0055  0.0231  0.0043  0.0000  0.0000  0.0000  0.0000  0.0000 </r>
       </set>
       <set comment="band 2">
        <r>  0.1835  0.0062  0.0439  0.0052  0.0000  0.0000  0.0000  0.0000  0.0000 </r>
        <r>  0.1835  0.0062  0.0439  0.0052  0.0000  0.0000  0.0000  0.0000  0.0000 </r>
       </set>
       <set comment="band 3">
        <r>  0.0000  0.0557  0.0431  0.0569  0.0000  0.0000  0.0000  0.0000  0.0000 </r>
        <r>  0.0000  0.0557  0.0431  0.0569  0.0000  0.0000  0.0000  0.0000  0.0000 </r>
       </set>
       <set comment="band 4">
        <r>  0.0001  0.0998  0.0003  0.0999  0.0000  0.0000  0.0000  0.0000  0.0000 </r>
        <r>  0.0001  0.0998  0.0003  0.0999  0.0000  0.0000  0.0000  0.0000  0.0000 </r>
       </set>
       <set comment="band 5">
        <r>  0.0523  0.0001  0.0386  0.0027  0.0000  0.0000  0.0000  0.0000  0.0000 </r>
        <r>  0.0523  0.0001  0.0386  0.0027  0.0000  0.0000  0.0000  0.0000  0.0000 </r>
       </set>
       <set comment="band 6">
        <r>  0.0237  0.0346  0.0132  0.0377  0.0000  0.0000  0.0000  0.0000  0.0000 </r>
        <r>  0.0237  0.0346  0.0132  0.0377  0.0000  0.0000  0.0000  0.0000  0.0000 </r>
       </set>
       <set comment="band 7">
        <r>  0.0021  0.0782  0.0079  0.0657  0.0000  0.0000  0.0000  0.0000  0.0000 </r>
        <r>  0.0042  0.0676  0.0053  0.0818  0.0000  0.0000  0.0000  0.0000  0.0000 </r>
       </set>
       <set comment="band 8">
        <r>  0.0065  0.0007  0.1205  0.0335  0.0000  0.0000  0.0000  0.0000  0.0000 </r>
        <r>  0.0548  0.0244  0.0458  0.0027  0.0000  0.0000  0.0000  0.0000  0.0000 </r>
       </set>
       <set comment="band 9">
        <r>  0.0215  0.0563  0.0084  0.0096  0.0000  0.0000  0.0000  0.0000  0.0000 </r>
        <r>  0.0158  0.0529  0.0168  0.0109  0.0000  0.0000  0.0000  0.0000  0.0000 </r>
       </set>
       <set comment="band 10">
        <r>  0.0047  0.0316  0.1114  0.0361  0.0000  0.0000  0.0000  0.0000  0.0000 </r>
        <r>  0.0038  0.0320  0.1285  0.0318  0.0000  0.0000  0.0000  0.0000  0.0000 </r>
       </set>
       <set comment="band 11">
        <r>  0.0074  0.0200  0.0123  0.0006  0.0000  0.0000  0.0000  0.0000  0.0000 </r>
        <r>  0.0118  0.0239  0.0064  0.0010  0.0000  0.0000  0.0000  0.0000  0.0000 </r>
       </set>
       <set comment="band 12">
        <r>  0.0213  0.0105  0.0260  0.0206  0.0000  0.0000  0.0000  0.0000  0.0000 </r>
        <r>  0.0175  0.0045  0.0019  0.0045  0.0000  0.0000  0.0000  0.0000  0.0000 </r>
       </set>
      </set>
      <set comment="kpoint 143">
       <set comment="band 1">
        <r>  0.2134  0.0052  0.0231  0.0046  0.0000  0.0000  0.0000  0.0000  0.0000 </r>
        <r>  0.2134  0.0052  0.0231  0.0046  0.0000  0.0000  0.0000  0.0000  0.0000 </r>
       </set>
       <set comment="band 2">
        <r>  0.1835  0.0059  0.0440  0.0054  0.0000  0.0000  0.0000  0.0000  0.0000 </r>
        <r>  0.1834  0.0059  0.0440  0.0054  0.0000  0.0000  0.0000  0.0000  0.0000 </r>
       </set>
       <set comment="band 3">
        <r>  0.0000  0.0560  0.0431  0.0566  0.0000  0.0000  0.0000  0.0000  0.0000 </r>
        <r>  0.0000  0.0560  0.0431  0.0566  0.0000  0.0000  0.0000  0.0000  0.0000 </r>
       </set>
       <set comment="band 4">
        <r>  0.0000  0.1002  0.0001  0.1002  0.0000  0.0000  0.0000  0.0000  0.0000 </r>
        <r>  0.0000  0.1002  0.0001  0.1002  0.0000  0.0000  0.0000  0.0000  0.0000 </r>
       </set>
       <set comment="band 5">
        <r>  0.0525  0.0004  0.0388  0.0017  0.0000  0.0000  0.0000  0.0000  0.0000 </r>
        <r>  0.0525  0.0004  0.0388  0.0017  0.0000  0.0000  0.0000  0.0000  0.0000 </r>
       </set>
       <set comment="band 6">
        <r>  0.0237  0.0353  0.0133  0.0369  0.0000  0.0000  0.0000  0.0000  0.0000 </r>
        <r>  0.0237  0.0353  0.0133  0.0369  0.0000  0.0000  0.0000  0.0000  0.0000 </r>
       </set>
       <set comment="band 7">
        <r>  0.0011  0.0762  0.0024  0.0777  0.0000  0.0000  0.0000  0.0000  0.0000 </r>
        <r>  0.0010  0.0771  0.0026  0.0764  0.0000  0.0000  0.0000  0.0000  0.0000 </r>
       </set>
       <set comment="band 8">
        <r>  0.0333  0.0032  0.0976  0.0018  0.0000  0.0000  0.0000  0.0000  0.0000 </r>
        <r>  0.0297  0.0022  0.1032  0.0030  0.0000  0.0000  0.0000  0.0000  0.0000 </r>
       </set>
       <set comment="band 9">
        <r>  0.0290  0.0676  0.0214  0.0235  0.0000  0.0000  0.0000  0.0000  0.0000 </r>
        <r>  0.0301  0.0679  0.0199  0.0235  0.0000  0.0000  0.0000  0.0000  0.0000 </r>
       </set>
       <set comment="band 10">
        <r>  0.0148  0.0054  0.1408  0.0408  0.0000  0.0000  0.0000  0.0000  0.0000 </r>
        <r>  0.0054  0.0605  0.1129  0.0139  0.0000  0.0000  0.0000  0.0000  0.0000 </r>
       </set>
       <set comment="band 11">
        <r>  0.0072  0.0205  0.0144  0.0096  0.0000  0.0000  0.0000  0.0000  0.0000 </r>
        <r>  0.0078  0.0217  0.0721  0.0102  0.0000  0.0000  0.0000  0.0000  0.0000 </r>
       </set>
       <set comment="band 12">
        <r>  0.0155  0.0052  0.0077  0.0023  0.0000  0.0000  0.0000  0.0000  0.0000 </r>
        <r>  0.0330  0.0091  0.0059  0.0122  0.0000  0.0000  0.0000  0.0000  0.0000 </r>
       </set>
      </set>
      <set comment="kpoint 144">
       <set comment="band 1">
        <r>  0.2134  0.0049  0.0231  0.0049  0.0000  0.0000  0.0000  0.0000  0.0000 </r>
        <r>  0.2134  0.0049  0.0231  0.0049  0.0000  0.0000  0.0000  0.0000  0.0000 </r>
       </set>
       <set comment="band 2">
        <r>  0.1834  0.0057  0.0440  0.0057  0.0000  0.0000  0.0000  0.0000  0.0000 </r>
        <r>  0.1834  0.0057  0.0440  0.0057  0.0000  0.0000  0.0000  0.0000  0.0000 </r>
       </set>
       <set comment="band 3">
        <r>  0.0000  0.0563  0.0431  0.0563  0.0000  0.0000  0.0000  0.0000  0.0000 </r>
        <r>  0.0000  0.0563  0.0431  0.0563  0.0000  0.0000  0.0000  0.0000  0.0000 </r>
       </set>
       <set comment="band 4">
        <r>  0.0000  0.1003  0.0000  0.1003  0.0000  0.0000  0.0000  0.0000  0.0000 </r>
        <r>  0.0000  0.1003  0.0000  0.1003  0.0000  0.0000  0.0000  0.0000  0.0000 </r>
       </set>
       <set comment="band 5">
        <r>  0.0525  0.0009  0.0389  0.0009  0.0000  0.0000  0.0000  0.0000  0.0000 </r>
        <r>  0.0525  0.0009  0.0389  0.0009  0.0000  0.0000  0.0000  0.0000  0.0000 </r>
       </set>
       <set comment="band 6">
        <r>  0.0237  0.0361  0.0133  0.0361  0.0000  0.0000  0.0000  0.0000  0.0000 </r>
        <r>  0.0237  0.0361  0.0133  0.0361  0.0000  0.0000  0.0000  0.0000  0.0000 </r>
       </set>
       <set comment="band 7">
        <r>  0.0000  0.0789  0.0000  0.0789  0.0000  0.0000  0.0000  0.0000  0.0000 </r>
        <r>  0.0000  0.0789  0.0000  0.0789  0.0000  0.0000  0.0000  0.0000  0.0000 </r>
       </set>
       <set comment="band 8">
        <r>  0.0325  0.0000  0.1035  0.0000  0.0000  0.0000  0.0000  0.0000  0.0000 </r>
        <r>  0.0325  0.0000  0.1035  0.0000  0.0000  0.0000  0.0000  0.0000  0.0000 </r>
       </set>
       <set comment="band 9">
        <r>  0.0505  0.0719  0.0358  0.0719  0.0000  0.0000  0.0000  0.0000  0.0000 </r>
        <r>  0.0505  0.0719  0.0358  0.0719  0.0000  0.0000  0.0000  0.0000  0.0000 </r>
       </set>
       <set comment="band 10">
        <r>  0.0000  0.0067  0.0000  0.0067  0.0000  0.0000  0.0000  0.0000  0.0000 </r>
        <r>  0.0000  0.0067  0.0000  0.0067  0.0000  0.0000  0.0000  0.0000  0.0000 </r>
       </set>
       <set comment="band 11">
        <r>  0.0033  0.0366  0.1385  0.0316  0.0000  0.0000  0.0000  0.0000  0.0000 </r>
        <r>  0.0034  0.0343  0.1383  0.0354  0.0000  0.0000  0.0000  0.0000  0.0000 </r>
       </set>
       <set comment="band 12">
        <r>  0.0030  0.0072  0.0133  0.0003  0.0000  0.0000  0.0000  0.0000  0.0000 </r>
        <r>  0.0007  0.0022  0.0023  0.0066  0.0000  0.0000  0.0000  0.0000  0.0000 </r>
       </set>
      </set>
      <set comment="kpoint 145">
       <set comment="band 1">
        <r>  0.2134  0.0049  0.0231  0.0049  0.0000  0.0000  0.0000  0.0000  0.0000 </r>
        <r>  0.2134  0.0049  0.0231  0.0049  0.0000  0.0000  0.0000  0.0000  0.0000 </r>
       </set>
       <set comment="band 2">
        <r>  0.1834  0.0057  0.0440  0.0057  0.0000  0.0000  0.0000  0.0000  0.0000 </r>
        <r>  0.1834  0.0057  0.0440  0.0057  0.0000  0.0000  0.0000  0.0000  0.0000 </r>
       </set>
       <set comment="band 3">
        <r>  0.0000  0.0563  0.0431  0.0563  0.0000  0.0000  0.0000  0.0000  0.0000 </r>
        <r>  0.0000  0.0563  0.0431  0.0563  0.0000  0.0000  0.0000  0.0000  0.0000 </r>
       </set>
       <set comment="band 4">
        <r>  0.0000  0.1003  0.0000  0.1003  0.0000  0.0000  0.0000  0.0000  0.0000 </r>
        <r>  0.0000  0.1003  0.0000  0.1003  0.0000  0.0000  0.0000  0.0000  0.0000 </r>
       </set>
       <set comment="band 5">
        <r>  0.0525  0.0009  0.0389  0.0009  0.0000  0.0000  0.0000  0.0000  0.0000 </r>
        <r>  0.0525  0.0009  0.0389  0.0009  0.0000  0.0000  0.0000  0.0000  0.0000 </r>
       </set>
       <set comment="band 6">
        <r>  0.0237  0.0361  0.0133  0.0361  0.0000  0.0000  0.0000  0.0000  0.0000 </r>
        <r>  0.0237  0.0361  0.0133  0.0361  0.0000  0.0000  0.0000  0.0000  0.0000 </r>
       </set>
       <set comment="band 7">
        <r>  0.0000  0.0789  0.0000  0.0789  0.0000  0.0000  0.0000  0.0000  0.0000 </r>
        <r>  0.0000  0.0789  0.0000  0.0789  0.0000  0.0000  0.0000  0.0000  0.0000 </r>
       </set>
       <set comment="band 8">
        <r>  0.0325  0.0000  0.1035  0.0000  0.0000  0.0000  0.0000  0.0000  0.0000 </r>
        <r>  0.0325  0.0000  0.1035  0.0000  0.0000  0.0000  0.0000  0.0000  0.0000 </r>
       </set>
       <set comment="band 9">
        <r>  0.0505  0.0719  0.0358  0.0719  0.0000  0.0000  0.0000  0.0000  0.0000 </r>
        <r>  0.0505  0.0719  0.0358  0.0719  0.0000  0.0000  0.0000  0.0000  0.0000 </r>
       </set>
       <set comment="band 10">
        <r>  0.0000  0.0067  0.0000  0.0067  0.0000  0.0000  0.0000  0.0000  0.0000 </r>
        <r>  0.0000  0.0067  0.0000  0.0067  0.0000  0.0000  0.0000  0.0000  0.0000 </r>
       </set>
       <set comment="band 11">
        <r>  0.0038  0.0340  0.1417  0.0306  0.0000  0.0000  0.0000  0.0000  0.0000 </r>
        <r>  0.0038  0.0376  0.1360  0.0304  0.0000  0.0000  0.0000  0.0000  0.0000 </r>
       </set>
       <set comment="band 12">
        <r>  0.0058  0.0223  0.0239  0.0287  0.0000  0.0000  0.0000  0.0000  0.0000 </r>
        <r>  0.0011  0.0301  0.0068  0.0180  0.0000  0.0000  0.0000  0.0000  0.0000 </r>
       </set>
      </set>
      <set comment="kpoint 146">
       <set comment="band 1">
        <r>  0.2143  0.0057  0.0199  0.0057  0.0000  0.0000  0.0000  0.0000  0.0000 </r>
        <r>  0.2143  0.0057  0.0199  0.0057  0.0000  0.0000  0.0000  0.0000  0.0000 </r>
       </set>
       <set comment="band 2">
        <r>  0.1817  0.0067  0.0438  0.0067  0.0000  0.0000  0.0000  0.0000  0.0000 </r>
        <r>  0.1817  0.0067  0.0438  0.0067  0.0000  0.0000  0.0000  0.0000  0.0000 </r>
       </set>
       <set comment="band 3">
        <r>  0.0004  0.0534  0.0477  0.0534  0.0000  0.0000  0.0000  0.0000  0.0000 </r>
        <r>  0.0004  0.0534  0.0477  0.0534  0.0000  0.0000  0.0000  0.0000  0.0000 </r>
       </set>
       <set comment="band 4">
        <r>  0.0000  0.1006  0.0000  0.1006  0.0000  0.0000  0.0000  0.0000  0.0000 </r>
        <r>  0.0000  0.1006  0.0000  0.1006  0.0000  0.0000  0.0000  0.0000  0.0000 </r>
       </set>
       <set comment="band 5">
        <r>  0.0528  0.0010  0.0398  0.0010  0.0000  0.0000  0.0000  0.0000  0.0000 </r>
        <r>  0.0528  0.0010  0.0397  0.0010  0.0000  0.0000  0.0000  0.0000  0.0000 </r>
       </set>
       <set comment="band 6">
        <r>  0.0204  0.0377  0.0110  0.0377  0.0000  0.0000  0.0000  0.0000  0.0000 </r>
        <r>  0.0204  0.0377  0.0110  0.0377  0.0000  0.0000  0.0000  0.0000  0.0000 </r>
       </set>
       <set comment="band 7">
        <r>  0.0024  0.0712  0.0083  0.0754  0.0000  0.0000  0.0000  0.0000  0.0000 </r>
        <r>  0.0027  0.0709  0.0078  0.0708  0.0000  0.0000  0.0000  0.0000  0.0000 </r>
       </set>
       <set comment="band 8">
        <r>  0.0584  0.0668  0.0306  0.0698  0.0000  0.0000  0.0000  0.0000  0.0000 </r>
        <r>  0.0498  0.0687  0.0430  0.0686  0.0000  0.0000  0.0000  0.0000  0.0000 </r>
       </set>
       <set comment="band 9">
        <r>  0.0014  0.0098  0.0067  0.0065  0.0000  0.0000  0.0000  0.0000  0.0000 </r>
        <r>  0.0024  0.0058  0.0052  0.0041  0.0000  0.0000  0.0000  0.0000  0.0000 </r>
       </set>
       <set comment="band 10">
        <r>  0.0046  0.0476  0.0611  0.0335  0.0000  0.0000  0.0000  0.0000  0.0000 </r>
        <r>  0.0074  0.0153  0.1808  0.0099  0.0000  0.0000  0.0000  0.0000  0.0000 </r>
       </set>
       <set comment="band 11">
        <r>  0.0186  0.0090  0.0665  0.0072  0.0000  0.0000  0.0000  0.0000  0.0000 </r>
        <r>  0.0115  0.0028  0.0067  0.0406  0.0000  0.0000  0.0000  0.0000  0.0000 </r>
       </set>
       <set comment="band 12">
        <r>  0.0055  0.0125  0.0037  0.0099  0.0000  0.0000  0.0000  0.0000  0.0000 </r>
        <r>  0.0412  0.0049  0.0127  0.0053  0.0000  0.0000  0.0000  0.0000  0.0000 </r>
       </set>
      </set>
      <set comment="kpoint 147">
       <set comment="band 1">
        <r>  0.2147  0.0066  0.0169  0.0066  0.0000  0.0000  0.0000  0.0000  0.0000 </r>
        <r>  0.2147  0.0066  0.0169  0.0066  0.0000  0.0000  0.0000  0.0000  0.0000 </r>
       </set>
       <set comment="band 2">
        <r>  0.1798  0.0078  0.0435  0.0078  0.0000  0.0000  0.0000  0.0000  0.0000 </r>
        <r>  0.1798  0.0078  0.0435  0.0078  0.0000  0.0000  0.0000  0.0000  0.0000 </r>
       </set>
       <set comment="band 3">
        <r>  0.0013  0.0507  0.0520  0.0507  0.0000  0.0000  0.0000  0.0000  0.0000 </r>
        <r>  0.0013  0.0507  0.0520  0.0507  0.0000  0.0000  0.0000  0.0000  0.0000 </r>
       </set>
       <set comment="band 4">
        <r>  0.0000  0.1010  0.0000  0.1010  0.0000  0.0000  0.0000  0.0000  0.0000 </r>
        <r>  0.0000  0.1010  0.0000  0.1010  0.0000  0.0000  0.0000  0.0000  0.0000 </r>
       </set>
       <set comment="band 5">
        <r>  0.0531  0.0012  0.0407  0.0012  0.0000  0.0000  0.0000  0.0000  0.0000 </r>
        <r>  0.0531  0.0012  0.0407  0.0012  0.0000  0.0000  0.0000  0.0000  0.0000 </r>
       </set>
       <set comment="band 6">
        <r>  0.0165  0.0389  0.0081  0.0389  0.0000  0.0000  0.0000  0.0000  0.0000 </r>
        <r>  0.0165  0.0389  0.0081  0.0388  0.0000  0.0000  0.0000  0.0000  0.0000 </r>
       </set>
       <set comment="band 7">
        <r>  0.0000  0.0760  0.0000  0.0789  0.0000  0.0000  0.0000  0.0000  0.0000 </r>
        <r>  0.0000  0.0782  0.0000  0.0755  0.0000  0.0000  0.0000  0.0000  0.0000 </r>
       </set>
       <set comment="band 8">
        <r>  0.0457  0.0000  0.1010  0.0001  0.0000  0.0000  0.0000  0.0000  0.0000 </r>
        <r>  0.0290  0.0016  0.1243  0.0022  0.0000  0.0000  0.0000  0.0000  0.0000 </r>
       </set>
       <set comment="band 9">
        <r>  0.0243  0.0547  0.0192  0.0124  0.0000  0.0000  0.0000  0.0000  0.0000 </r>
        <r>  0.0278  0.0536  0.0142  0.0124  0.0000  0.0000  0.0000  0.0000  0.0000 </r>
       </set>
       <set comment="band 10">
        <r>  0.0100  0.0234  0.0290  0.0256  0.0000  0.0000  0.0000  0.0000  0.0000 </r>
        <r>  0.0036  0.0159  0.0432  0.0163  0.0000  0.0000  0.0000  0.0000  0.0000 </r>
       </set>
       <set comment="band 11">
        <r>  0.0020  0.0352  0.0105  0.0110  0.0000  0.0000  0.0000  0.0000  0.0000 </r>
        <r>  0.0215  0.0023  0.0969  0.0024  0.0000  0.0000  0.0000  0.0000  0.0000 </r>
       </set>
       <set comment="band 12">
        <r>  0.0421  0.0061  0.0093  0.0437  0.0000  0.0000  0.0000  0.0000  0.0000 </r>
        <r>  0.0082  0.0256  0.0529  0.0011  0.0000  0.0000  0.0000  0.0000  0.0000 </r>
       </set>
      </set>
      <set comment="kpoint 148">
       <set comment="band 1">
        <r>  0.2147  0.0074  0.0142  0.0074  0.0000  0.0000  0.0000  0.0000  0.0000 </r>
        <r>  0.2147  0.0074  0.0142  0.0074  0.0000  0.0000  0.0000  0.0000  0.0000 </r>
       </set>
       <set comment="band 2">
        <r>  0.1777  0.0089  0.0432  0.0089  0.0000  0.0000  0.0000  0.0000  0.0000 </r>
        <r>  0.1777  0.0089  0.0432  0.0089  0.0000  0.0000  0.0000  0.0000  0.0000 </r>
       </set>
       <set comment="band 3">
        <r>  0.0024  0.0482  0.0561  0.0482  0.0000  0.0000  0.0000  0.0000  0.0000 </r>
        <r>  0.0024  0.0482  0.0561  0.0482  0.0000  0.0000  0.0000  0.0000  0.0000 </r>
       </set>
       <set comment="band 4">
        <r>  0.0000  0.1013  0.0000  0.1013  0.0000  0.0000  0.0000  0.0000  0.0000 </r>
        <r>  0.0000  0.1013  0.0000  0.1013  0.0000  0.0000  0.0000  0.0000  0.0000 </r>
       </set>
       <set comment="band 5">
        <r>  0.0535  0.0013  0.0418  0.0013  0.0000  0.0000  0.0000  0.0000  0.0000 </r>
        <r>  0.0535  0.0013  0.0418  0.0013  0.0000  0.0000  0.0000  0.0000  0.0000 </r>
       </set>
       <set comment="band 6">
        <r>  0.0116  0.0392  0.0042  0.0392  0.0000  0.0000  0.0000  0.0000  0.0000 </r>
        <r>  0.0116  0.0392  0.0042  0.0392  0.0000  0.0000  0.0000  0.0000  0.0000 </r>
       </set>
       <set comment="band 7">
        <r>  0.0000  0.0765  0.0000  0.0765  0.0000  0.0000  0.0000  0.0000  0.0000 </r>
        <r>  0.0000  0.0765  0.0000  0.0765  0.0000  0.0000  0.0000  0.0000  0.0000 </r>
       </set>
       <set comment="band 8">
        <r>  0.0407  0.0015  0.1196  0.0015  0.0000  0.0000  0.0000  0.0000  0.0000 </r>
        <r>  0.0407  0.0015  0.1196  0.0015  0.0000  0.0000  0.0000  0.0000  0.0000 </r>
       </set>
       <set comment="band 9">
        <r>  0.0608  0.0631  0.0368  0.0631  0.0000  0.0000  0.0000  0.0000  0.0000 </r>
        <r>  0.0608  0.0631  0.0368  0.0631  0.0000  0.0000  0.0000  0.0000  0.0000 </r>
       </set>
       <set comment="band 10">
        <r>  0.0000  0.0067  0.0000  0.0067  0.0000  0.0000  0.0000  0.0000  0.0000 </r>
        <r>  0.0000  0.0067  0.0000  0.0067  0.0000  0.0000  0.0000  0.0000  0.0000 </r>
       </set>
       <set comment="band 11">
        <r>  0.0045  0.0105  0.0410  0.0089  0.0000  0.0000  0.0000  0.0000  0.0000 </r>
        <r>  0.0132  0.0230  0.0179  0.0213  0.0000  0.0000  0.0000  0.0000  0.0000 </r>
       </set>
       <set comment="band 12">
        <r>  0.0148  0.0203  0.0923  0.0210  0.0000  0.0000  0.0000  0.0000  0.0000 </r>
        <r>  0.0097  0.0272  0.0860  0.0131  0.0000  0.0000  0.0000  0.0000  0.0000 </r>
       </set>
      </set>
      <set comment="kpoint 149">
       <set comment="band 1">
        <r>  0.2143  0.0080  0.0118  0.0080  0.0000  0.0000  0.0000  0.0000  0.0000 </r>
        <r>  0.2143  0.0080  0.0118  0.0080  0.0000  0.0000  0.0000  0.0000  0.0000 </r>
       </set>
       <set comment="band 2">
        <r>  0.1755  0.0102  0.0428  0.0102  0.0000  0.0000  0.0000  0.0000  0.0000 </r>
        <r>  0.1755  0.0102  0.0428  0.0102  0.0000  0.0000  0.0000  0.0000  0.0000 </r>
       </set>
       <set comment="band 3">
        <r>  0.0038  0.0460  0.0599  0.0460  0.0000  0.0000  0.0000  0.0000  0.0000 </r>
        <r>  0.0038  0.0460  0.0599  0.0460  0.0000  0.0000  0.0000  0.0000  0.0000 </r>
       </set>
       <set comment="band 4">
        <r>  0.0000  0.1018  0.0000  0.1018  0.0000  0.0000  0.0000  0.0000  0.0000 </r>
        <r>  0.0000  0.1018  0.0000  0.1018  0.0000  0.0000  0.0000  0.0000  0.0000 </r>
       </set>
       <set comment="band 5">
        <r>  0.0540  0.0014  0.0430  0.0014  0.0000  0.0000  0.0000  0.0000  0.0000 </r>
        <r>  0.0540  0.0014  0.0430  0.0014  0.0000  0.0000  0.0000  0.0000  0.0000 </r>
       </set>
       <set comment="band 6">
        <r>  0.0051  0.0369  0.0002  0.0369  0.0000  0.0000  0.0000  0.0000  0.0000 </r>
        <r>  0.0051  0.0369  0.0002  0.0369  0.0000  0.0000  0.0000  0.0000  0.0000 </r>
       </set>
       <set comment="band 7">
        <r>  0.0000  0.0760  0.0000  0.0760  0.0000  0.0000  0.0000  0.0000  0.0000 </r>
        <r>  0.0000  0.0760  0.0000  0.0760  0.0000  0.0000  0.0000  0.0000  0.0000 </r>
       </set>
       <set comment="band 8">
        <r>  0.0457  0.0052  0.1256  0.0052  0.0000  0.0000  0.0000  0.0000  0.0000 </r>
        <r>  0.0457  0.0052  0.1256  0.0052  0.0000  0.0000  0.0000  0.0000  0.0000 </r>
       </set>
       <set comment="band 9">
        <r>  0.0637  0.0605  0.0366  0.0605  0.0000  0.0000  0.0000  0.0000  0.0000 </r>
        <r>  0.0637  0.0605  0.0366  0.0605  0.0000  0.0000  0.0000  0.0000  0.0000 </r>
       </set>
       <set comment="band 10">
        <r>  0.0000  0.0065  0.0000  0.0065  0.0000  0.0000  0.0000  0.0000  0.0000 </r>
        <r>  0.0000  0.0065  0.0000  0.0065  0.0000  0.0000  0.0000  0.0000  0.0000 </r>
       </set>
       <set comment="band 11">
        <r>  0.0080  0.0086  0.0281  0.0076  0.0000  0.0000  0.0000  0.0000  0.0000 </r>
        <r>  0.0163  0.0188  0.0120  0.0147  0.0000  0.0000  0.0000  0.0000  0.0000 </r>
       </set>
       <set comment="band 12">
        <r>  0.0042  0.0267  0.0038  0.0324  0.0000  0.0000  0.0000  0.0000  0.0000 </r>
        <r>  0.0142  0.0025  0.0896  0.0025  0.0000  0.0000  0.0000  0.0000  0.0000 </r>
       </set>
      </set>
      <set comment="kpoint 150">
       <set comment="band 1">
        <r>  0.2136  0.0085  0.0097  0.0085  0.0000  0.0000  0.0000  0.0000  0.0000 </r>
        <r>  0.2136  0.0085  0.0097  0.0085  0.0000  0.0000  0.0000  0.0000  0.0000 </r>
       </set>
       <set comment="band 2">
        <r>  0.1732  0.0115  0.0425  0.0115  0.0000  0.0000  0.0000  0.0000  0.0000 </r>
        <r>  0.1732  0.0115  0.0425  0.0115  0.0000  0.0000  0.0000  0.0000  0.0000 </r>
       </set>
       <set comment="band 3">
        <r>  0.0054  0.0440  0.0634  0.0440  0.0000  0.0000  0.0000  0.0000  0.0000 </r>
        <r>  0.0054  0.0440  0.0634  0.0440  0.0000  0.0000  0.0000  0.0000  0.0000 </r>
       </set>
       <set comment="band 4">
        <r>  0.0000  0.1022  0.0000  0.1022  0.0000  0.0000  0.0000  0.0000  0.0000 </r>
        <r>  0.0000  0.1022  0.0000  0.1022  0.0000  0.0000  0.0000  0.0000  0.0000 </r>
       </set>
       <set comment="band 5">
        <r>  0.0547  0.0015  0.0444  0.0015  0.0000  0.0000  0.0000  0.0000  0.0000 </r>
        <r>  0.0547  0.0015  0.0444  0.0015  0.0000  0.0000  0.0000  0.0000  0.0000 </r>
       </set>
       <set comment="band 6">
        <r>  0.0000  0.0269  0.0088  0.0236  0.0000  0.0000  0.0000  0.0000  0.0000 </r>
        <r>  0.0000  0.0284  0.0080  0.0255  0.0000  0.0000  0.0000  0.0000  0.0000 </r>
       </set>
       <set comment="band 7">
        <r>  0.0001  0.0745  0.0000  0.0756  0.0000  0.0000  0.0000  0.0000  0.0000 </r>
        <r>  0.0000  0.0701  0.0001  0.0820  0.0000  0.0000  0.0000  0.0000  0.0000 </r>
       </set>
       <set comment="band 8">
        <r>  0.0018  0.0541  0.1503  0.0632  0.0000  0.0000  0.0000  0.0000  0.0000 </r>
        <r>  0.1051  0.0002  0.0320  0.0015  0.0000  0.0000  0.0000  0.0000  0.0000 </r>
       </set>
       <set comment="band 9">
        <r>  0.0233  0.0253  0.0011  0.0005  0.0000  0.0000  0.0000  0.0000  0.0000 </r>
        <r>  0.0070  0.0406  0.0197  0.0037  0.0000  0.0000  0.0000  0.0000  0.0000 </r>
       </set>
       <set comment="band 10">
        <r>  0.0178  0.0141  0.0136  0.0119  0.0000  0.0000  0.0000  0.0000  0.0000 </r>
        <r>  0.0160  0.0093  0.0155  0.0118  0.0000  0.0000  0.0000  0.0000  0.0000 </r>
       </set>
       <set comment="band 11">
        <r>  0.0096  0.0177  0.0231  0.0119  0.0000  0.0000  0.0000  0.0000  0.0000 </r>
        <r>  0.0165  0.0129  0.0362  0.0132  0.0000  0.0000  0.0000  0.0000  0.0000 </r>
       </set>
       <set comment="band 12">
        <r>  0.0129  0.0031  0.0887  0.0214  0.0000  0.0000  0.0000  0.0000  0.0000 </r>
        <r>  0.0247  0.0294  0.0858  0.0078  0.0000  0.0000  0.0000  0.0000  0.0000 </r>
       </set>
      </set>
      <set comment="kpoint 151">
       <set comment="band 1">
        <r>  0.2129  0.0089  0.0079  0.0089  0.0000  0.0000  0.0000  0.0000  0.0000 </r>
        <r>  0.2129  0.0089  0.0079  0.0089  0.0000  0.0000  0.0000  0.0000  0.0000 </r>
       </set>
       <set comment="band 2">
        <r>  0.1707  0.0129  0.0421  0.0129  0.0000  0.0000  0.0000  0.0000  0.0000 </r>
        <r>  0.1707  0.0129  0.0421  0.0129  0.0000  0.0000  0.0000  0.0000  0.0000 </r>
       </set>
       <set comment="band 3">
        <r>  0.0070  0.0423  0.0665  0.0423  0.0000  0.0000  0.0000  0.0000  0.0000 </r>
        <r>  0.0070  0.0423  0.0665  0.0423  0.0000  0.0000  0.0000  0.0000  0.0000 </r>
       </set>
       <set comment="band 4">
        <r>  0.0000  0.1027  0.0000  0.1027  0.0000  0.0000  0.0000  0.0000  0.0000 </r>
        <r>  0.0000  0.1027  0.0000  0.1027  0.0000  0.0000  0.0000  0.0000  0.0000 </r>
       </set>
       <set comment="band 5">
        <r>  0.0554  0.0016  0.0460  0.0016  0.0000  0.0000  0.0000  0.0000  0.0000 </r>
        <r>  0.0554  0.0016  0.0460  0.0016  0.0000  0.0000  0.0000  0.0000  0.0000 </r>
       </set>
       <set comment="band 6">
        <r>  0.0000  0.0753  0.0000  0.0753  0.0000  0.0000  0.0000  0.0000  0.0000 </r>
        <r>  0.0000  0.0753  0.0000  0.0753  0.0000  0.0000  0.0000  0.0000  0.0000 </r>
       </set>
       <set comment="band 7">
        <r>  0.0090  0.0086  0.0497  0.0086  0.0000  0.0000  0.0000  0.0000  0.0000 </r>
        <r>  0.0090  0.0086  0.0497  0.0086  0.0000  0.0000  0.0000  0.0000  0.0000 </r>
       </set>
       <set comment="band 8">
        <r>  0.0686  0.0559  0.0352  0.0559  0.0000  0.0000  0.0000  0.0000  0.0000 </r>
        <r>  0.0686  0.0559  0.0352  0.0559  0.0000  0.0000  0.0000  0.0000  0.0000 </r>
       </set>
       <set comment="band 9">
        <r>  0.0384  0.0361  0.0801  0.0361  0.0000  0.0000  0.0000  0.0000  0.0000 </r>
        <r>  0.0384  0.0361  0.0801  0.0361  0.0000  0.0000  0.0000  0.0000  0.0000 </r>
       </set>
       <set comment="band 10">
        <r>  0.0000  0.0061  0.0000  0.0061  0.0000  0.0000  0.0000  0.0000  0.0000 </r>
        <r>  0.0000  0.0061  0.0000  0.0061  0.0000  0.0000  0.0000  0.0000  0.0000 </r>
       </set>
       <set comment="band 11">
        <r>  0.0124  0.0068  0.0231  0.0073  0.0000  0.0000  0.0000  0.0000  0.0000 </r>
        <r>  0.0255  0.0120  0.0160  0.0111  0.0000  0.0000  0.0000  0.0000  0.0000 </r>
       </set>
       <set comment="band 12">
        <r>  0.0079  0.0247  0.0526  0.0145  0.0000  0.0000  0.0000  0.0000  0.0000 </r>
        <r>  0.0012  0.0055  0.0840  0.0062  0.0000  0.0000  0.0000  0.0000  0.0000 </r>
       </set>
      </set>
      <set comment="kpoint 152">
       <set comment="band 1">
        <r>  0.2121  0.0091  0.0064  0.0091  0.0000  0.0000  0.0000  0.0000  0.0000 </r>
        <r>  0.2121  0.0091  0.0064  0.0091  0.0000  0.0000  0.0000  0.0000  0.0000 </r>
       </set>
       <set comment="band 2">
        <r>  0.1681  0.0144  0.0417  0.0144  0.0000  0.0000  0.0000  0.0000  0.0000 </r>
        <r>  0.1681  0.0144  0.0417  0.0144  0.0000  0.0000  0.0000  0.0000  0.0000 </r>
       </set>
       <set comment="band 3">
        <r>  0.0086  0.0408  0.0695  0.0408  0.0000  0.0000  0.0000  0.0000  0.0000 </r>
        <r>  0.0086  0.0408  0.0695  0.0408  0.0000  0.0000  0.0000  0.0000  0.0000 </r>
       </set>
       <set comment="band 4">
        <r>  0.0000  0.1032  0.0000  0.1032  0.0000  0.0000  0.0000  0.0000  0.0000 </r>
        <r>  0.0000  0.1032  0.0000  0.1032  0.0000  0.0000  0.0000  0.0000  0.0000 </r>
       </set>
       <set comment="band 5">
        <r>  0.0564  0.0017  0.0479  0.0017  0.0000  0.0000  0.0000  0.0000  0.0000 </r>
        <r>  0.0564  0.0017  0.0479  0.0017  0.0000  0.0000  0.0000  0.0000  0.0000 </r>
       </set>
       <set comment="band 6">
        <r>  0.0000  0.0750  0.0000  0.0750  0.0000  0.0000  0.0000  0.0000  0.0000 </r>
        <r>  0.0000  0.0750  0.0000  0.0750  0.0000  0.0000  0.0000  0.0000  0.0000 </r>
       </set>
       <set comment="band 7">
        <r>  0.0186  0.0023  0.0768  0.0023  0.0000  0.0000  0.0000  0.0000  0.0000 </r>
        <r>  0.0186  0.0023  0.0768  0.0023  0.0000  0.0000  0.0000  0.0000  0.0000 </r>
       </set>
       <set comment="band 8">
        <r>  0.0715  0.0535  0.0332  0.0521  0.0000  0.0000  0.0000  0.0000  0.0000 </r>
        <r>  0.0696  0.0557  0.0351  0.0542  0.0000  0.0000  0.0000  0.0000  0.0000 </r>
       </set>
       <set comment="band 9">
        <r>  0.0005  0.0056  0.0009  0.0073  0.0000  0.0000  0.0000  0.0000  0.0000 </r>
        <r>  0.0004  0.0063  0.0010  0.0069  0.0000  0.0000  0.0000  0.0000  0.0000 </r>
       </set>
       <set comment="band 10">
        <r>  0.0200  0.0039  0.0018  0.0038  0.0000  0.0000  0.0000  0.0000  0.0000 </r>
        <r>  0.0145  0.0026  0.0055  0.0011  0.0000  0.0000  0.0000  0.0000  0.0000 </r>
       </set>
       <set comment="band 11">
        <r>  0.0200  0.0154  0.0075  0.0220  0.0000  0.0000  0.0000  0.0000  0.0000 </r>
        <r>  0.0185  0.0017  0.0342  0.0049  0.0000  0.0000  0.0000  0.0000  0.0000 </r>
       </set>
       <set comment="band 12">
        <r>  0.0183  0.0088  0.0472  0.0338  0.0000  0.0000  0.0000  0.0000  0.0000 </r>
        <r>  0.0106  0.0385  0.0543  0.0019  0.0000  0.0000  0.0000  0.0000  0.0000 </r>
       </set>
      </set>
      <set comment="kpoint 153">
       <set comment="band 1">
        <r>  0.2113  0.0092  0.0052  0.0092  0.0000  0.0000  0.0000  0.0000  0.0000 </r>
        <r>  0.2113  0.0092  0.0052  0.0092  0.0000  0.0000  0.0000  0.0000  0.0000 </r>
       </set>
       <set comment="band 2">
        <r>  0.1654  0.0159  0.0413  0.0159  0.0000  0.0000  0.0000  0.0000  0.0000 </r>
        <r>  0.1654  0.0159  0.0413  0.0159  0.0000  0.0000  0.0000  0.0000  0.0000 </r>
       </set>
       <set comment="band 3">
        <r>  0.0100  0.0396  0.0722  0.0396  0.0000  0.0000  0.0000  0.0000  0.0000 </r>
        <r>  0.0100  0.0396  0.0722  0.0396  0.0000  0.0000  0.0000  0.0000  0.0000 </r>
       </set>
       <set comment="band 4">
        <r>  0.0000  0.1037  0.0000  0.1037  0.0000  0.0000  0.0000  0.0000  0.0000 </r>
        <r>  0.0000  0.1037  0.0000  0.1037  0.0000  0.0000  0.0000  0.0000  0.0000 </r>
       </set>
       <set comment="band 5">
        <r>  0.0576  0.0018  0.0499  0.0018  0.0000  0.0000  0.0000  0.0000  0.0000 </r>
        <r>  0.0576  0.0018  0.0499  0.0018  0.0000  0.0000  0.0000  0.0000  0.0000 </r>
       </set>
       <set comment="band 6">
        <r>  0.0000  0.0749  0.0000  0.0748  0.0000  0.0000  0.0000  0.0000  0.0000 </r>
        <r>  0.0000  0.0749  0.0000  0.0748  0.0000  0.0000  0.0000  0.0000  0.0000 </r>
       </set>
       <set comment="band 7">
        <r>  0.0236  0.0005  0.0892  0.0005  0.0000  0.0000  0.0000  0.0000  0.0000 </r>
        <r>  0.0236  0.0005  0.0892  0.0005  0.0000  0.0000  0.0000  0.0000  0.0000 </r>
       </set>
       <set comment="band 8">
        <r>  0.0724  0.0520  0.0327  0.0520  0.0000  0.0000  0.0000  0.0000  0.0000 </r>
        <r>  0.0723  0.0521  0.0328  0.0521  0.0000  0.0000  0.0000  0.0000  0.0000 </r>
       </set>
       <set comment="band 9">
        <r>  0.0000  0.0057  0.0000  0.0053  0.0000  0.0000  0.0000  0.0000  0.0000 </r>
        <r>  0.0000  0.0053  0.0000  0.0057  0.0000  0.0000  0.0000  0.0000  0.0000 </r>
       </set>
       <set comment="band 10">
        <r>  0.0075  0.0038  0.0341  0.0025  0.0000  0.0000  0.0000  0.0000  0.0000 </r>
        <r>  0.0427  0.0207  0.0036  0.0238  0.0000  0.0000  0.0000  0.0000  0.0000 </r>
       </set>
       <set comment="band 11">
        <r>  0.0204  0.0108  0.0482  0.0179  0.0000  0.0000  0.0000  0.0000  0.0000 </r>
        <r>  0.0016  0.0030  0.0740  0.0124  0.0000  0.0000  0.0000  0.0000  0.0000 </r>
       </set>
       <set comment="band 12">
        <r>  0.0260  0.0107  0.0117  0.0133  0.0000  0.0000  0.0000  0.0000  0.0000 </r>
        <r>  0.0043  0.0084  0.0402  0.0219  0.0000  0.0000  0.0000  0.0000  0.0000 </r>
       </set>
      </set>
      <set comment="kpoint 154">
       <set comment="band 1">
        <r>  0.2106  0.0091  0.0042  0.0091  0.0000  0.0000  0.0000  0.0000  0.0000 </r>
        <r>  0.2106  0.0091  0.0042  0.0091  0.0000  0.0000  0.0000  0.0000  0.0000 </r>
       </set>
       <set comment="band 2">
        <r>  0.1625  0.0175  0.0408  0.0175  0.0000  0.0000  0.0000  0.0000  0.0000 </r>
        <r>  0.1625  0.0175  0.0408  0.0175  0.0000  0.0000  0.0000  0.0000  0.0000 </r>
       </set>
       <set comment="band 3">
        <r>  0.0112  0.0385  0.0748  0.0385  0.0000  0.0000  0.0000  0.0000  0.0000 </r>
        <r>  0.0112  0.0385  0.0748  0.0385  0.0000  0.0000  0.0000  0.0000  0.0000 </r>
       </set>
       <set comment="band 4">
        <r>  0.0000  0.1043  0.0000  0.1043  0.0000  0.0000  0.0000  0.0000  0.0000 </r>
        <r>  0.0000  0.1043  0.0000  0.1043  0.0000  0.0000  0.0000  0.0000  0.0000 </r>
       </set>
       <set comment="band 5">
        <r>  0.0590  0.0018  0.0523  0.0018  0.0000  0.0000  0.0000  0.0000  0.0000 </r>
        <r>  0.0590  0.0018  0.0523  0.0018  0.0000  0.0000  0.0000  0.0000  0.0000 </r>
       </set>
       <set comment="band 6">
        <r>  0.0000  0.0747  0.0000  0.0747  0.0000  0.0000  0.0000  0.0000  0.0000 </r>
        <r>  0.0000  0.0747  0.0000  0.0747  0.0000  0.0000  0.0000  0.0000  0.0000 </r>
       </set>
       <set comment="band 7">
        <r>  0.0266  0.0000  0.0960  0.0000  0.0000  0.0000  0.0000  0.0000  0.0000 </r>
        <r>  0.0266  0.0000  0.0960  0.0000  0.0000  0.0000  0.0000  0.0000  0.0000 </r>
       </set>
       <set comment="band 8">
        <r>  0.0737  0.0503  0.0310  0.0503  0.0000  0.0000  0.0000  0.0000  0.0000 </r>
        <r>  0.0736  0.0504  0.0311  0.0504  0.0000  0.0000  0.0000  0.0000  0.0000 </r>
       </set>
       <set comment="band 9">
        <r>  0.0000  0.0052  0.0000  0.0051  0.0000  0.0000  0.0000  0.0000  0.0000 </r>
        <r>  0.0000  0.0051  0.0000  0.0052  0.0000  0.0000  0.0000  0.0000  0.0000 </r>
       </set>
       <set comment="band 10">
        <r>  0.0419  0.0155  0.0033  0.0158  0.0000  0.0000  0.0000  0.0000  0.0000 </r>
        <r>  0.0224  0.0068  0.0157  0.0067  0.0000  0.0000  0.0000  0.0000  0.0000 </r>
       </set>
       <set comment="band 11">
        <r>  0.0057  0.0089  0.0440  0.0068  0.0000  0.0000  0.0000  0.0000  0.0000 </r>
        <r>  0.0432  0.0341  0.0061  0.0451  0.0000  0.0000  0.0000  0.0000  0.0000 </r>
       </set>
       <set comment="band 12">
        <r>  0.0149  0.0091  0.0011  0.0150  0.0000  0.0000  0.0000  0.0000  0.0000 </r>
        <r>  0.0310  0.0086  0.0115  0.0059  0.0000  0.0000  0.0000  0.0000  0.0000 </r>
       </set>
      </set>
      <set comment="kpoint 155">
       <set comment="band 1">
        <r>  0.2100  0.0090  0.0033  0.0090  0.0000  0.0000  0.0000  0.0000  0.0000 </r>
        <r>  0.2100  0.0090  0.0033  0.0090  0.0000  0.0000  0.0000  0.0000  0.0000 </r>
       </set>
       <set comment="band 2">
        <r>  0.1594  0.0192  0.0403  0.0192  0.0000  0.0000  0.0000  0.0000  0.0000 </r>
        <r>  0.1594  0.0192  0.0403  0.0192  0.0000  0.0000  0.0000  0.0000  0.0000 </r>
       </set>
       <set comment="band 3">
        <r>  0.0122  0.0376  0.0773  0.0376  0.0000  0.0000  0.0000  0.0000  0.0000 </r>
        <r>  0.0122  0.0376  0.0773  0.0376  0.0000  0.0000  0.0000  0.0000  0.0000 </r>
       </set>
       <set comment="band 4">
        <r>  0.0000  0.1049  0.0000  0.1049  0.0000  0.0000  0.0000  0.0000  0.0000 </r>
        <r>  0.0000  0.1049  0.0000  0.1049  0.0000  0.0000  0.0000  0.0000  0.0000 </r>
       </set>
       <set comment="band 5">
        <r>  0.0607  0.0018  0.0549  0.0018  0.0000  0.0000  0.0000  0.0000  0.0000 </r>
        <r>  0.0607  0.0018  0.0549  0.0018  0.0000  0.0000  0.0000  0.0000  0.0000 </r>
       </set>
       <set comment="band 6">
        <r>  0.0000  0.0746  0.0000  0.0746  0.0000  0.0000  0.0000  0.0000  0.0000 </r>
        <r>  0.0000  0.0746  0.0000  0.0746  0.0000  0.0000  0.0000  0.0000  0.0000 </r>
       </set>
       <set comment="band 7">
        <r>  0.0284  0.0000  0.1002  0.0000  0.0000  0.0000  0.0000  0.0000  0.0000 </r>
        <r>  0.0284  0.0000  0.1002  0.0000  0.0000  0.0000  0.0000  0.0000  0.0000 </r>
       </set>
       <set comment="band 8">
        <r>  0.0746  0.0489  0.0290  0.0489  0.0000  0.0000  0.0000  0.0000  0.0000 </r>
        <r>  0.0746  0.0489  0.0290  0.0489  0.0000  0.0000  0.0000  0.0000  0.0000 </r>
       </set>
       <set comment="band 9">
        <r>  0.0000  0.0047  0.0000  0.0047  0.0000  0.0000  0.0000  0.0000  0.0000 </r>
        <r>  0.0000  0.0047  0.0000  0.0047  0.0000  0.0000  0.0000  0.0000  0.0000 </r>
       </set>
       <set comment="band 10">
        <r>  0.0062  0.0059  0.0136  0.0050  0.0000  0.0000  0.0000  0.0000  0.0000 </r>
        <r>  0.0542  0.0080  0.0025  0.0103  0.0000  0.0000  0.0000  0.0000  0.0000 </r>
       </set>
       <set comment="band 11">
        <r>  0.0256  0.0440  0.0229  0.0356  0.0000  0.0000  0.0000  0.0000  0.0000 </r>
        <r>  0.0211  0.0332  0.0309  0.0391  0.0000  0.0000  0.0000  0.0000  0.0000 </r>
       </set>
       <set comment="band 12">
        <r>  0.0038  0.0395  0.0280  0.0758  0.0000  0.0000  0.0000  0.0000  0.0000 </r>
        <r>  0.0014  0.0007  0.0470  0.0334  0.0000  0.0000  0.0000  0.0000  0.0000 </r>
       </set>
      </set>
      <set comment="kpoint 156">
       <set comment="band 1">
        <r>  0.2095  0.0087  0.0026  0.0087  0.0000  0.0000  0.0000  0.0000  0.0000 </r>
        <r>  0.2095  0.0087  0.0026  0.0087  0.0000  0.0000  0.0000  0.0000  0.0000 </r>
       </set>
       <set comment="band 2">
        <r>  0.1562  0.0210  0.0398  0.0210  0.0000  0.0000  0.0000  0.0000  0.0000 </r>
        <r>  0.1562  0.0210  0.0398  0.0210  0.0000  0.0000  0.0000  0.0000  0.0000 </r>
       </set>
       <set comment="band 3">
        <r>  0.0130  0.0368  0.0798  0.0368  0.0000  0.0000  0.0000  0.0000  0.0000 </r>
        <r>  0.0130  0.0368  0.0798  0.0368  0.0000  0.0000  0.0000  0.0000  0.0000 </r>
       </set>
       <set comment="band 4">
        <r>  0.0000  0.1055  0.0000  0.1055  0.0000  0.0000  0.0000  0.0000  0.0000 </r>
        <r>  0.0000  0.1055  0.0000  0.1055  0.0000  0.0000  0.0000  0.0000  0.0000 </r>
       </set>
       <set comment="band 5">
        <r>  0.0628  0.0018  0.0579  0.0018  0.0000  0.0000  0.0000  0.0000  0.0000 </r>
        <r>  0.0628  0.0018  0.0579  0.0018  0.0000  0.0000  0.0000  0.0000  0.0000 </r>
       </set>
       <set comment="band 6">
        <r>  0.0000  0.0746  0.0000  0.0746  0.0000  0.0000  0.0000  0.0000  0.0000 </r>
        <r>  0.0000  0.0746  0.0000  0.0746  0.0000  0.0000  0.0000  0.0000  0.0000 </r>
       </set>
       <set comment="band 7">
        <r>  0.0297  0.0003  0.1029  0.0003  0.0000  0.0000  0.0000  0.0000  0.0000 </r>
        <r>  0.0297  0.0003  0.1029  0.0003  0.0000  0.0000  0.0000  0.0000  0.0000 </r>
       </set>
       <set comment="band 8">
        <r>  0.0751  0.0476  0.0267  0.0476  0.0000  0.0000  0.0000  0.0000  0.0000 </r>
        <r>  0.0751  0.0476  0.0267  0.0476  0.0000  0.0000  0.0000  0.0000  0.0000 </r>
       </set>
       <set comment="band 9">
        <r>  0.0000  0.0042  0.0000  0.0042  0.0000  0.0000  0.0000  0.0000  0.0000 </r>
        <r>  0.0000  0.0042  0.0000  0.0042  0.0000  0.0000  0.0000  0.0000  0.0000 </r>
       </set>
       <set comment="band 10">
        <r>  0.0066  0.0520  0.0371  0.0520  0.0000  0.0000  0.0000  0.0000  0.0000 </r>
        <r>  0.0066  0.0520  0.0371  0.0520  0.0000  0.0000  0.0000  0.0000  0.0000 </r>
       </set>
       <set comment="band 11">
        <r>  0.0146  0.0034  0.0119  0.0035  0.0000  0.0000  0.0000  0.0000  0.0000 </r>
        <r>  0.0495  0.0082  0.0028  0.0082  0.0000  0.0000  0.0000  0.0000  0.0000 </r>
       </set>
       <set comment="band 12">
        <r>  0.0037  0.0150  0.0454  0.0064  0.0000  0.0000  0.0000  0.0000  0.0000 </r>
        <r>  0.0026  0.0307  0.0599  0.0054  0.0000  0.0000  0.0000  0.0000  0.0000 </r>
       </set>
      </set>
      <set comment="kpoint 157">
       <set comment="band 1">
        <r>  0.2092  0.0084  0.0021  0.0084  0.0000  0.0000  0.0000  0.0000  0.0000 </r>
        <r>  0.2092  0.0084  0.0021  0.0084  0.0000  0.0000  0.0000  0.0000  0.0000 </r>
       </set>
       <set comment="band 2">
        <r>  0.1528  0.0229  0.0393  0.0229  0.0000  0.0000  0.0000  0.0000  0.0000 </r>
        <r>  0.1528  0.0229  0.0393  0.0229  0.0000  0.0000  0.0000  0.0000  0.0000 </r>
       </set>
       <set comment="band 3">
        <r>  0.0136  0.0362  0.0823  0.0361  0.0000  0.0000  0.0000  0.0000  0.0000 </r>
        <r>  0.0136  0.0361  0.0823  0.0361  0.0000  0.0000  0.0000  0.0000  0.0000 </r>
       </set>
       <set comment="band 4">
        <r>  0.0000  0.1062  0.0000  0.1062  0.0000  0.0000  0.0000  0.0000  0.0000 </r>
        <r>  0.0000  0.1061  0.0000  0.1061  0.0000  0.0000  0.0000  0.0000  0.0000 </r>
       </set>
       <set comment="band 5">
        <r>  0.0653  0.0017  0.0612  0.0017  0.0000  0.0000  0.0000  0.0000  0.0000 </r>
        <r>  0.0653  0.0017  0.0612  0.0017  0.0000  0.0000  0.0000  0.0000  0.0000 </r>
       </set>
       <set comment="band 6">
        <r>  0.0000  0.0745  0.0000  0.0745  0.0000  0.0000  0.0000  0.0000  0.0000 </r>
        <r>  0.0000  0.0745  0.0000  0.0745  0.0000  0.0000  0.0000  0.0000  0.0000 </r>
       </set>
       <set comment="band 7">
        <r>  0.0305  0.0007  0.1047  0.0007  0.0000  0.0000  0.0000  0.0000  0.0000 </r>
        <r>  0.0305  0.0007  0.1047  0.0007  0.0000  0.0000  0.0000  0.0000  0.0000 </r>
       </set>
       <set comment="band 8">
        <r>  0.0752  0.0465  0.0240  0.0465  0.0000  0.0000  0.0000  0.0000  0.0000 </r>
        <r>  0.0752  0.0465  0.0240  0.0465  0.0000  0.0000  0.0000  0.0000  0.0000 </r>
       </set>
       <set comment="band 9">
        <r>  0.0000  0.0037  0.0000  0.0037  0.0000  0.0000  0.0000  0.0000  0.0000 </r>
        <r>  0.0000  0.0037  0.0000  0.0037  0.0000  0.0000  0.0000  0.0000  0.0000 </r>
       </set>
       <set comment="band 10">
        <r>  0.0033  0.0532  0.0378  0.0532  0.0000  0.0000  0.0000  0.0000  0.0000 </r>
        <r>  0.0033  0.0532  0.0378  0.0532  0.0000  0.0000  0.0000  0.0000  0.0000 </r>
       </set>
       <set comment="band 11">
        <r>  0.0634  0.0392  0.0222  0.0392  0.0000  0.0000  0.0000  0.0000  0.0000 </r>
        <r>  0.0518  0.0373  0.0255  0.0373  0.0000  0.0000  0.0000  0.0000  0.0000 </r>
       </set>
       <set comment="band 12">
        <r>  0.0319  0.0014  0.0099  0.0015  0.0000  0.0000  0.0000  0.0000  0.0000 </r>
        <r>  0.0374  0.0060  0.0051  0.0060  0.0000  0.0000  0.0000  0.0000  0.0000 </r>
       </set>
      </set>
      <set comment="kpoint 158">
       <set comment="band 1">
        <r>  0.2090  0.0080  0.0017  0.0080  0.0000  0.0000  0.0000  0.0000  0.0000 </r>
        <r>  0.2090  0.0080  0.0017  0.0080  0.0000  0.0000  0.0000  0.0000  0.0000 </r>
       </set>
       <set comment="band 2">
        <r>  0.1493  0.0248  0.0387  0.0248  0.0000  0.0000  0.0000  0.0000  0.0000 </r>
        <r>  0.1493  0.0248  0.0387  0.0248  0.0000  0.0000  0.0000  0.0000  0.0000 </r>
       </set>
       <set comment="band 3">
        <r>  0.0139  0.0356  0.0848  0.0356  0.0000  0.0000  0.0000  0.0000  0.0000 </r>
        <r>  0.0139  0.0356  0.0848  0.0356  0.0000  0.0000  0.0000  0.0000  0.0000 </r>
       </set>
       <set comment="band 4">
        <r>  0.0000  0.1068  0.0000  0.1068  0.0000  0.0000  0.0000  0.0000  0.0000 </r>
        <r>  0.0000  0.1068  0.0000  0.1068  0.0000  0.0000  0.0000  0.0000  0.0000 </r>
       </set>
       <set comment="band 5">
        <r>  0.0683  0.0015  0.0649  0.0015  0.0000  0.0000  0.0000  0.0000  0.0000 </r>
        <r>  0.0683  0.0015  0.0649  0.0015  0.0000  0.0000  0.0000  0.0000  0.0000 </r>
       </set>
       <set comment="band 6">
        <r>  0.0000  0.0745  0.0000  0.0745  0.0000  0.0000  0.0000  0.0000  0.0000 </r>
        <r>  0.0000  0.0745  0.0000  0.0745  0.0000  0.0000  0.0000  0.0000  0.0000 </r>
       </set>
       <set comment="band 7">
        <r>  0.0311  0.0013  0.1059  0.0013  0.0000  0.0000  0.0000  0.0000  0.0000 </r>
        <r>  0.0311  0.0013  0.1059  0.0013  0.0000  0.0000  0.0000  0.0000  0.0000 </r>
       </set>
       <set comment="band 8">
        <r>  0.0748  0.0456  0.0209  0.0456  0.0000  0.0000  0.0000  0.0000  0.0000 </r>
        <r>  0.0748  0.0456  0.0209  0.0456  0.0000  0.0000  0.0000  0.0000  0.0000 </r>
       </set>
       <set comment="band 9">
        <r>  0.0000  0.0032  0.0000  0.0032  0.0000  0.0000  0.0000  0.0000  0.0000 </r>
        <r>  0.0000  0.0032  0.0000  0.0032  0.0000  0.0000  0.0000  0.0000  0.0000 </r>
       </set>
       <set comment="band 10">
        <r>  0.0008  0.0535  0.0392  0.0535  0.0000  0.0000  0.0000  0.0000  0.0000 </r>
        <r>  0.0008  0.0540  0.0389  0.0540  0.0000  0.0000  0.0000  0.0000  0.0000 </r>
       </set>
       <set comment="band 11">
        <r>  0.0563  0.0148  0.0120  0.0149  0.0000  0.0000  0.0000  0.0000  0.0000 </r>
        <r>  0.0444  0.0138  0.0140  0.0138  0.0000  0.0000  0.0000  0.0000  0.0000 </r>
       </set>
       <set comment="band 12">
        <r>  0.0030  0.0138  0.0122  0.0063  0.0000  0.0000  0.0000  0.0000  0.0000 </r>
        <r>  0.0056  0.0552  0.0455  0.0287  0.0000  0.0000  0.0000  0.0000  0.0000 </r>
       </set>
      </set>
      <set comment="kpoint 159">
       <set comment="band 1">
        <r>  0.2089  0.0076  0.0013  0.0076  0.0000  0.0000  0.0000  0.0000  0.0000 </r>
        <r>  0.2089  0.0076  0.0013  0.0076  0.0000  0.0000  0.0000  0.0000  0.0000 </r>
       </set>
       <set comment="band 2">
        <r>  0.1456  0.0268  0.0381  0.0268  0.0000  0.0000  0.0000  0.0000  0.0000 </r>
        <r>  0.1456  0.0268  0.0381  0.0268  0.0000  0.0000  0.0000  0.0000  0.0000 </r>
       </set>
       <set comment="band 3">
        <r>  0.0140  0.0351  0.0874  0.0351  0.0000  0.0000  0.0000  0.0000  0.0000 </r>
        <r>  0.0140  0.0351  0.0874  0.0351  0.0000  0.0000  0.0000  0.0000  0.0000 </r>
       </set>
       <set comment="band 4">
        <r>  0.0000  0.1074  0.0000  0.1074  0.0000  0.0000  0.0000  0.0000  0.0000 </r>
        <r>  0.0000  0.1074  0.0000  0.1074  0.0000  0.0000  0.0000  0.0000  0.0000 </r>
       </set>
       <set comment="band 5">
        <r>  0.0717  0.0014  0.0689  0.0014  0.0000  0.0000  0.0000  0.0000  0.0000 </r>
        <r>  0.0717  0.0014  0.0689  0.0014  0.0000  0.0000  0.0000  0.0000  0.0000 </r>
       </set>
       <set comment="band 6">
        <r>  0.0000  0.0745  0.0000  0.0745  0.0000  0.0000  0.0000  0.0000  0.0000 </r>
        <r>  0.0000  0.0745  0.0000  0.0745  0.0000  0.0000  0.0000  0.0000  0.0000 </r>
       </set>
       <set comment="band 7">
        <r>  0.0315  0.0021  0.1066  0.0021  0.0000  0.0000  0.0000  0.0000  0.0000 </r>
        <r>  0.0315  0.0021  0.1066  0.0021  0.0000  0.0000  0.0000  0.0000  0.0000 </r>
       </set>
       <set comment="band 8">
        <r>  0.0740  0.0450  0.0176  0.0450  0.0000  0.0000  0.0000  0.0000  0.0000 </r>
        <r>  0.0740  0.0450  0.0176  0.0450  0.0000  0.0000  0.0000  0.0000  0.0000 </r>
       </set>
       <set comment="band 9">
        <r>  0.0000  0.0027  0.0000  0.0027  0.0000  0.0000  0.0000  0.0000  0.0000 </r>
        <r>  0.0000  0.0027  0.0000  0.0027  0.0000  0.0000  0.0000  0.0000  0.0000 </r>
       </set>
       <set comment="band 10">
        <r>  0.0000  0.0537  0.0399  0.0537  0.0000  0.0000  0.0000  0.0000  0.0000 </r>
        <r>  0.0000  0.0525  0.0404  0.0526  0.0000  0.0000  0.0000  0.0000  0.0000 </r>
       </set>
       <set comment="band 11">
        <r>  0.0679  0.0371  0.0237  0.0371  0.0000  0.0000  0.0000  0.0000  0.0000 </r>
        <r>  0.0646  0.0369  0.0239  0.0370  0.0000  0.0000  0.0000  0.0000  0.0000 </r>
       </set>
       <set comment="band 12">
        <r>  0.0003  0.0289  0.0033  0.0214  0.0000  0.0000  0.0000  0.0000  0.0000 </r>
        <r>  0.0014  0.0302  0.0194  0.0355  0.0000  0.0000  0.0000  0.0000  0.0000 </r>
       </set>
      </set>
      <set comment="kpoint 160">
       <set comment="band 1">
        <r>  0.2088  0.0071  0.0010  0.0071  0.0000  0.0000  0.0000  0.0000  0.0000 </r>
        <r>  0.2088  0.0071  0.0010  0.0071  0.0000  0.0000  0.0000  0.0000  0.0000 </r>
       </set>
       <set comment="band 2">
        <r>  0.1418  0.0289  0.0375  0.0289  0.0000  0.0000  0.0000  0.0000  0.0000 </r>
        <r>  0.1418  0.0289  0.0375  0.0289  0.0000  0.0000  0.0000  0.0000  0.0000 </r>
       </set>
       <set comment="band 3">
        <r>  0.0140  0.0346  0.0901  0.0346  0.0000  0.0000  0.0000  0.0000  0.0000 </r>
        <r>  0.0140  0.0346  0.0901  0.0346  0.0000  0.0000  0.0000  0.0000  0.0000 </r>
       </set>
       <set comment="band 4">
        <r>  0.0000  0.1080  0.0000  0.1080  0.0000  0.0000  0.0000  0.0000  0.0000 </r>
        <r>  0.0000  0.1080  0.0000  0.1080  0.0000  0.0000  0.0000  0.0000  0.0000 </r>
       </set>
       <set comment="band 5">
        <r>  0.0755  0.0012  0.0732  0.0012  0.0000  0.0000  0.0000  0.0000  0.0000 </r>
        <r>  0.0755  0.0012  0.0732  0.0012  0.0000  0.0000  0.0000  0.0000  0.0000 </r>
       </set>
       <set comment="band 6">
        <r>  0.0000  0.0746  0.0000  0.0746  0.0000  0.0000  0.0000  0.0000  0.0000 </r>
        <r>  0.0000  0.0746  0.0000  0.0746  0.0000  0.0000  0.0000  0.0000  0.0000 </r>
       </set>
       <set comment="band 7">
        <r>  0.0316  0.0030  0.1068  0.0030  0.0000  0.0000  0.0000  0.0000  0.0000 </r>
        <r>  0.0316  0.0030  0.1068  0.0030  0.0000  0.0000  0.0000  0.0000  0.0000 </r>
       </set>
       <set comment="band 8">
        <r>  0.0729  0.0446  0.0142  0.0446  0.0000  0.0000  0.0000  0.0000  0.0000 </r>
        <r>  0.0729  0.0446  0.0142  0.0446  0.0000  0.0000  0.0000  0.0000  0.0000 </r>
       </set>
       <set comment="band 9">
        <r>  0.0000  0.0022  0.0000  0.0022  0.0000  0.0000  0.0000  0.0000  0.0000 </r>
        <r>  0.0000  0.0022  0.0000  0.0022  0.0000  0.0000  0.0000  0.0000  0.0000 </r>
       </set>
       <set comment="band 10">
        <r>  0.0016  0.0506  0.0405  0.0506  0.0000  0.0000  0.0000  0.0000  0.0000 </r>
        <r>  0.0018  0.0512  0.0400  0.0512  0.0000  0.0000  0.0000  0.0000  0.0000 </r>
       </set>
       <set comment="band 11">
        <r>  0.0189  0.0020  0.0006  0.0024  0.0000  0.0000  0.0000  0.0000  0.0000 </r>
        <r>  0.0463  0.0086  0.0023  0.0089  0.0000  0.0000  0.0000  0.0000  0.0000 </r>
       </set>
       <set comment="band 12">
        <r>  0.0023  0.0366  0.0928  0.0214  0.0000  0.0000  0.0000  0.0000  0.0000 </r>
        <r>  0.0002  0.0100  0.0913  0.0064  0.0000  0.0000  0.0000  0.0000  0.0000 </r>
       </set>
      </set>
      <set comment="kpoint 161">
       <set comment="band 1">
        <r>  0.2089  0.0066  0.0008  0.0066  0.0000  0.0000  0.0000  0.0000  0.0000 </r>
        <r>  0.2089  0.0066  0.0008  0.0066  0.0000  0.0000  0.0000  0.0000  0.0000 </r>
       </set>
       <set comment="band 2">
        <r>  0.1377  0.0311  0.0368  0.0311  0.0000  0.0000  0.0000  0.0000  0.0000 </r>
        <r>  0.1377  0.0311  0.0368  0.0311  0.0000  0.0000  0.0000  0.0000  0.0000 </r>
       </set>
       <set comment="band 3">
        <r>  0.0137  0.0342  0.0930  0.0342  0.0000  0.0000  0.0000  0.0000  0.0000 </r>
        <r>  0.0137  0.0342  0.0930  0.0342  0.0000  0.0000  0.0000  0.0000  0.0000 </r>
       </set>
       <set comment="band 4">
        <r>  0.0000  0.1086  0.0000  0.1086  0.0000  0.0000  0.0000  0.0000  0.0000 </r>
        <r>  0.0000  0.1086  0.0000  0.1086  0.0000  0.0000  0.0000  0.0000  0.0000 </r>
       </set>
       <set comment="band 5">
        <r>  0.0798  0.0010  0.0775  0.0010  0.0000  0.0000  0.0000  0.0000  0.0000 </r>
        <r>  0.0798  0.0010  0.0775  0.0010  0.0000  0.0000  0.0000  0.0000  0.0000 </r>
       </set>
       <set comment="band 6">
        <r>  0.0000  0.0746  0.0000  0.0746  0.0000  0.0000  0.0000  0.0000  0.0000 </r>
        <r>  0.0000  0.0746  0.0000  0.0746  0.0000  0.0000  0.0000  0.0000  0.0000 </r>
       </set>
       <set comment="band 7">
        <r>  0.0316  0.0042  0.1065  0.0042  0.0000  0.0000  0.0000  0.0000  0.0000 </r>
        <r>  0.0316  0.0042  0.1065  0.0042  0.0000  0.0000  0.0000  0.0000  0.0000 </r>
       </set>
       <set comment="band 8">
        <r>  0.0707  0.0459  0.0105  0.0419  0.0000  0.0000  0.0000  0.0000  0.0000 </r>
        <r>  0.0707  0.0458  0.0105  0.0419  0.0000  0.0000  0.0000  0.0000  0.0000 </r>
       </set>
       <set comment="band 9">
        <r>  0.0027  0.0347  0.0452  0.0339  0.0000  0.0000  0.0000  0.0000  0.0000 </r>
        <r>  0.0173  0.0612  0.0272  0.0622  0.0000  0.0000  0.0000  0.0000  0.0000 </r>
       </set>
       <set comment="band 10">
        <r>  0.0524  0.0125  0.0077  0.0125  0.0000  0.0000  0.0000  0.0000  0.0000 </r>
        <r>  0.0404  0.0102  0.0137  0.0102  0.0000  0.0000  0.0000  0.0000  0.0000 </r>
       </set>
       <set comment="band 11">
        <r>  0.0028  0.0094  0.0549  0.0186  0.0000  0.0000  0.0000  0.0000  0.0000 </r>
        <r>  0.0004  0.0141  0.0871  0.0085  0.0000  0.0000  0.0000  0.0000  0.0000 </r>
       </set>
       <set comment="band 12">
        <r>  0.0407  0.0099  0.0207  0.0098  0.0000  0.0000  0.0000  0.0000  0.0000 </r>
        <r>  0.0214  0.0107  0.0090  0.0141  0.0000  0.0000  0.0000  0.0000  0.0000 </r>
       </set>
      </set>
      <set comment="kpoint 162">
       <set comment="band 1">
        <r>  0.2091  0.0060  0.0006  0.0060  0.0000  0.0000  0.0000  0.0000  0.0000 </r>
        <r>  0.2091  0.0060  0.0006  0.0060  0.0000  0.0000  0.0000  0.0000  0.0000 </r>
       </set>
       <set comment="band 2">
        <r>  0.1335  0.0334  0.0361  0.0334  0.0000  0.0000  0.0000  0.0000  0.0000 </r>
        <r>  0.1335  0.0334  0.0361  0.0334  0.0000  0.0000  0.0000  0.0000  0.0000 </r>
       </set>
       <set comment="band 3">
        <r>  0.0132  0.0338  0.0961  0.0338  0.0000  0.0000  0.0000  0.0000  0.0000 </r>
        <r>  0.0132  0.0338  0.0961  0.0338  0.0000  0.0000  0.0000  0.0000  0.0000 </r>
       </set>
       <set comment="band 4">
        <r>  0.0000  0.1091  0.0000  0.1091  0.0000  0.0000  0.0000  0.0000  0.0000 </r>
        <r>  0.0000  0.1091  0.0000  0.1091  0.0000  0.0000  0.0000  0.0000  0.0000 </r>
       </set>
       <set comment="band 5">
        <r>  0.0843  0.0008  0.0819  0.0008  0.0000  0.0000  0.0000  0.0000  0.0000 </r>
        <r>  0.0843  0.0008  0.0819  0.0008  0.0000  0.0000  0.0000  0.0000  0.0000 </r>
       </set>
       <set comment="band 6">
        <r>  0.0000  0.0747  0.0000  0.0747  0.0000  0.0000  0.0000  0.0000  0.0000 </r>
        <r>  0.0000  0.0747  0.0000  0.0747  0.0000  0.0000  0.0000  0.0000  0.0000 </r>
       </set>
       <set comment="band 7">
        <r>  0.0314  0.0055  0.1057  0.0055  0.0000  0.0000  0.0000  0.0000  0.0000 </r>
        <r>  0.0314  0.0055  0.1057  0.0055  0.0000  0.0000  0.0000  0.0000  0.0000 </r>
       </set>
       <set comment="band 8">
        <r>  0.0705  0.0446  0.0073  0.0446  0.0000  0.0000  0.0000  0.0000  0.0000 </r>
        <r>  0.0705  0.0446  0.0073  0.0446  0.0000  0.0000  0.0000  0.0000  0.0000 </r>
       </set>
       <set comment="band 9">
        <r>  0.0000  0.0013  0.0000  0.0013  0.0000  0.0000  0.0000  0.0000  0.0000 </r>
        <r>  0.0000  0.0013  0.0000  0.0013  0.0000  0.0000  0.0000  0.0000  0.0000 </r>
       </set>
       <set comment="band 10">
        <r>  0.0611  0.0395  0.0238  0.0395  0.0000  0.0000  0.0000  0.0000  0.0000 </r>
        <r>  0.0613  0.0400  0.0234  0.0400  0.0000  0.0000  0.0000  0.0000  0.0000 </r>
       </set>
       <set comment="band 11">
        <r>  0.0122  0.0437  0.0357  0.0437  0.0000  0.0000  0.0000  0.0000  0.0000 </r>
        <r>  0.0109  0.0437  0.0364  0.0437  0.0000  0.0000  0.0000  0.0000  0.0000 </r>
       </set>
       <set comment="band 12">
        <r>  0.0032  0.0339  0.0047  0.0302  0.0000  0.0000  0.0000  0.0000  0.0000 </r>
        <r>  0.0023  0.0302  0.0046  0.0345  0.0000  0.0000  0.0000  0.0000  0.0000 </r>
       </set>
      </set>
      <set comment="kpoint 163">
       <set comment="band 1">
        <r>  0.2093  0.0055  0.0005  0.0055  0.0000  0.0000  0.0000  0.0000  0.0000 </r>
        <r>  0.2093  0.0055  0.0005  0.0055  0.0000  0.0000  0.0000  0.0000  0.0000 </r>
       </set>
       <set comment="band 2">
        <r>  0.1290  0.0358  0.0354  0.0358  0.0000  0.0000  0.0000  0.0000  0.0000 </r>
        <r>  0.1290  0.0358  0.0354  0.0358  0.0000  0.0000  0.0000  0.0000  0.0000 </r>
       </set>
       <set comment="band 3">
        <r>  0.0126  0.0333  0.0995  0.0333  0.0000  0.0000  0.0000  0.0000  0.0000 </r>
        <r>  0.0126  0.0333  0.0995  0.0333  0.0000  0.0000  0.0000  0.0000  0.0000 </r>
       </set>
       <set comment="band 4">
        <r>  0.0000  0.1096  0.0000  0.1096  0.0000  0.0000  0.0000  0.0000  0.0000 </r>
        <r>  0.0000  0.1096  0.0000  0.1096  0.0000  0.0000  0.0000  0.0000  0.0000 </r>
       </set>
       <set comment="band 5">
        <r>  0.0887  0.0006  0.0860  0.0006  0.0000  0.0000  0.0000  0.0000  0.0000 </r>
        <r>  0.0887  0.0006  0.0860  0.0006  0.0000  0.0000  0.0000  0.0000  0.0000 </r>
       </set>
       <set comment="band 6">
        <r>  0.0000  0.0747  0.0000  0.0747  0.0000  0.0000  0.0000  0.0000  0.0000 </r>
        <r>  0.0000  0.0747  0.0000  0.0747  0.0000  0.0000  0.0000  0.0000  0.0000 </r>
       </set>
       <set comment="band 7">
        <r>  0.0310  0.0071  0.1045  0.0071  0.0000  0.0000  0.0000  0.0000  0.0000 </r>
        <r>  0.0310  0.0071  0.1045  0.0071  0.0000  0.0000  0.0000  0.0000  0.0000 </r>
       </set>
       <set comment="band 8">
        <r>  0.0696  0.0456  0.0043  0.0440  0.0000  0.0000  0.0000  0.0000  0.0000 </r>
        <r>  0.0696  0.0457  0.0043  0.0441  0.0000  0.0000  0.0000  0.0000  0.0000 </r>
       </set>
       <set comment="band 9">
        <r>  0.0015  0.0080  0.0521  0.0076  0.0000  0.0000  0.0000  0.0000  0.0000 </r>
        <r>  0.0698  0.0647  0.0057  0.0655  0.0000  0.0000  0.0000  0.0000  0.0000 </r>
       </set>
       <set comment="band 10">
        <r>  0.0895  0.0357  0.0016  0.0360  0.0000  0.0000  0.0000  0.0000  0.0000 </r>
        <r>  0.0204  0.0010  0.0275  0.0009  0.0000  0.0000  0.0000  0.0000  0.0000 </r>
       </set>
       <set comment="band 11">
        <r>  0.0112  0.0409  0.0009  0.0063  0.0000  0.0000  0.0000  0.0000  0.0000 </r>
        <r>  0.0163  0.0026  0.0061  0.0294  0.0000  0.0000  0.0000  0.0000  0.0000 </r>
       </set>
       <set comment="band 12">
        <r>  0.0025  0.0114  0.0263  0.0151  0.0000  0.0000  0.0000  0.0000  0.0000 </r>
        <r>  0.0026  0.0073  0.0435  0.0081  0.0000  0.0000  0.0000  0.0000  0.0000 </r>
       </set>
      </set>
      <set comment="kpoint 164">
       <set comment="band 1">
        <r>  0.2095  0.0050  0.0003  0.0050  0.0000  0.0000  0.0000  0.0000  0.0000 </r>
        <r>  0.2095  0.0050  0.0003  0.0050  0.0000  0.0000  0.0000  0.0000  0.0000 </r>
       </set>
       <set comment="band 2">
        <r>  0.1244  0.0383  0.0345  0.0383  0.0000  0.0000  0.0000  0.0000  0.0000 </r>
        <r>  0.1244  0.0383  0.0345  0.0383  0.0000  0.0000  0.0000  0.0000  0.0000 </r>
       </set>
       <set comment="band 3">
        <r>  0.0118  0.0327  0.1032  0.0327  0.0000  0.0000  0.0000  0.0000  0.0000 </r>
        <r>  0.0118  0.0327  0.1032  0.0327  0.0000  0.0000  0.0000  0.0000  0.0000 </r>
       </set>
       <set comment="band 4">
        <r>  0.0000  0.1099  0.0000  0.1099  0.0000  0.0000  0.0000  0.0000  0.0000 </r>
        <r>  0.0000  0.1099  0.0000  0.1099  0.0000  0.0000  0.0000  0.0000  0.0000 </r>
       </set>
       <set comment="band 5">
        <r>  0.0930  0.0004  0.0897  0.0004  0.0000  0.0000  0.0000  0.0000  0.0000 </r>
        <r>  0.0930  0.0004  0.0897  0.0004  0.0000  0.0000  0.0000  0.0000  0.0000 </r>
       </set>
       <set comment="band 6">
        <r>  0.0000  0.0748  0.0000  0.0748  0.0000  0.0000  0.0000  0.0000  0.0000 </r>
        <r>  0.0000  0.0748  0.0000  0.0748  0.0000  0.0000  0.0000  0.0000  0.0000 </r>
       </set>
       <set comment="band 7">
        <r>  0.0303  0.0090  0.1027  0.0090  0.0000  0.0000  0.0000  0.0000  0.0000 </r>
        <r>  0.0303  0.0090  0.1027  0.0090  0.0000  0.0000  0.0000  0.0000  0.0000 </r>
       </set>
       <set comment="band 8">
        <r>  0.0705  0.0459  0.0020  0.0459  0.0000  0.0000  0.0000  0.0000  0.0000 </r>
        <r>  0.0705  0.0459  0.0020  0.0459  0.0000  0.0000  0.0000  0.0000  0.0000 </r>
       </set>
       <set comment="band 9">
        <r>  0.0000  0.0006  0.0000  0.0006  0.0000  0.0000  0.0000  0.0000  0.0000 </r>
        <r>  0.0000  0.0006  0.0000  0.0006  0.0000  0.0000  0.0000  0.0000  0.0000 </r>
       </set>
       <set comment="band 10">
        <r>  0.0616  0.0330  0.0223  0.0330  0.0000  0.0000  0.0000  0.0000  0.0000 </r>
        <r>  0.0616  0.0329  0.0223  0.0329  0.0000  0.0000  0.0000  0.0000  0.0000 </r>
       </set>
       <set comment="band 11">
        <r>  0.0239  0.0375  0.0290  0.0375  0.0000  0.0000  0.0000  0.0000  0.0000 </r>
        <r>  0.0253  0.0371  0.0286  0.0371  0.0000  0.0000  0.0000  0.0000  0.0000 </r>
       </set>
       <set comment="band 12">
        <r>  0.0248  0.0072  0.0057  0.0241  0.0000  0.0000  0.0000  0.0000  0.0000 </r>
        <r>  0.0058  0.0128  0.0293  0.0424  0.0000  0.0000  0.0000  0.0000  0.0000 </r>
       </set>
      </set>
      <set comment="kpoint 165">
       <set comment="band 1">
        <r>  0.2098  0.0045  0.0003  0.0045  0.0000  0.0000  0.0000  0.0000  0.0000 </r>
        <r>  0.2098  0.0045  0.0003  0.0045  0.0000  0.0000  0.0000  0.0000  0.0000 </r>
       </set>
       <set comment="band 2">
        <r>  0.1194  0.0409  0.0337  0.0409  0.0000  0.0000  0.0000  0.0000  0.0000 </r>
        <r>  0.1194  0.0409  0.0337  0.0409  0.0000  0.0000  0.0000  0.0000  0.0000 </r>
       </set>
       <set comment="band 3">
        <r>  0.0109  0.0321  0.1073  0.0321  0.0000  0.0000  0.0000  0.0000  0.0000 </r>
        <r>  0.0109  0.0321  0.1073  0.0321  0.0000  0.0000  0.0000  0.0000  0.0000 </r>
       </set>
       <set comment="band 4">
        <r>  0.0000  0.1102  0.0000  0.1102  0.0000  0.0000  0.0000  0.0000  0.0000 </r>
        <r>  0.0000  0.1102  0.0000  0.1102  0.0000  0.0000  0.0000  0.0000  0.0000 </r>
       </set>
       <set comment="band 5">
        <r>  0.0968  0.0003  0.0930  0.0003  0.0000  0.0000  0.0000  0.0000  0.0000 </r>
        <r>  0.0968  0.0003  0.0930  0.0003  0.0000  0.0000  0.0000  0.0000  0.0000 </r>
       </set>
       <set comment="band 6">
        <r>  0.0000  0.0749  0.0000  0.0749  0.0000  0.0000  0.0000  0.0000  0.0000 </r>
        <r>  0.0000  0.0749  0.0000  0.0749  0.0000  0.0000  0.0000  0.0000  0.0000 </r>
       </set>
       <set comment="band 7">
        <r>  0.0295  0.0112  0.1004  0.0112  0.0000  0.0000  0.0000  0.0000  0.0000 </r>
        <r>  0.0295  0.0112  0.1004  0.0112  0.0000  0.0000  0.0000  0.0000  0.0000 </r>
       </set>
       <set comment="band 8">
        <r>  0.0723  0.0474  0.0005  0.0464  0.0000  0.0000  0.0000  0.0000  0.0000 </r>
        <r>  0.0723  0.0474  0.0005  0.0464  0.0000  0.0000  0.0000  0.0000  0.0000 </r>
       </set>
       <set comment="band 9">
        <r>  0.0604  0.0275  0.0203  0.0285  0.0000  0.0000  0.0000  0.0000  0.0000 </r>
        <r>  0.0632  0.0280  0.0222  0.0291  0.0000  0.0000  0.0000  0.0000  0.0000 </r>
       </set>
       <set comment="band 10">
        <r>  0.0264  0.0366  0.0247  0.0365  0.0000  0.0000  0.0000  0.0000  0.0000 </r>
        <r>  0.0377  0.0329  0.0226  0.0329  0.0000  0.0000  0.0000  0.0000  0.0000 </r>
       </set>
       <set comment="band 11">
        <r>  0.0207  0.0054  0.0121  0.0062  0.0000  0.0000  0.0000  0.0000  0.0000 </r>
        <r>  0.0011  0.0160  0.0089  0.0139  0.0000  0.0000  0.0000  0.0000  0.0000 </r>
       </set>
       <set comment="band 12">
        <r>  0.0008  0.0284  0.0079  0.0080  0.0000  0.0000  0.0000  0.0000  0.0000 </r>
        <r>  0.0001  0.0151  0.0050  0.0161  0.0000  0.0000  0.0000  0.0000  0.0000 </r>
       </set>
      </set>
      <set comment="kpoint 166">
       <set comment="band 1">
        <r>  0.2102  0.0040  0.0002  0.0040  0.0000  0.0000  0.0000  0.0000  0.0000 </r>
        <r>  0.2102  0.0040  0.0002  0.0040  0.0000  0.0000  0.0000  0.0000  0.0000 </r>
       </set>
       <set comment="band 2">
        <r>  0.1143  0.0437  0.0327  0.0437  0.0000  0.0000  0.0000  0.0000  0.0000 </r>
        <r>  0.1143  0.0437  0.0327  0.0437  0.0000  0.0000  0.0000  0.0000  0.0000 </r>
       </set>
       <set comment="band 3">
        <r>  0.0099  0.0313  0.1118  0.0313  0.0000  0.0000  0.0000  0.0000  0.0000 </r>
        <r>  0.0099  0.0313  0.1118  0.0313  0.0000  0.0000  0.0000  0.0000  0.0000 </r>
       </set>
       <set comment="band 4">
        <r>  0.0000  0.1104  0.0000  0.1104  0.0000  0.0000  0.0000  0.0000  0.0000 </r>
        <r>  0.0000  0.1104  0.0000  0.1104  0.0000  0.0000  0.0000  0.0000  0.0000 </r>
       </set>
       <set comment="band 5">
        <r>  0.0999  0.0002  0.0957  0.0002  0.0000  0.0000  0.0000  0.0000  0.0000 </r>
        <r>  0.0999  0.0002  0.0957  0.0002  0.0000  0.0000  0.0000  0.0000  0.0000 </r>
       </set>
       <set comment="band 6">
        <r>  0.0000  0.0750  0.0000  0.0750  0.0000  0.0000  0.0000  0.0000  0.0000 </r>
        <r>  0.0000  0.0750  0.0000  0.0750  0.0000  0.0000  0.0000  0.0000  0.0000 </r>
       </set>
       <set comment="band 7">
        <r>  0.0285  0.0136  0.0975  0.0136  0.0000  0.0000  0.0000  0.0000  0.0000 </r>
        <r>  0.0285  0.0136  0.0975  0.0136  0.0000  0.0000  0.0000  0.0000  0.0000 </r>
       </set>
       <set comment="band 8">
        <r>  0.0779  0.0489  0.0000  0.0489  0.0000  0.0000  0.0000  0.0000  0.0000 </r>
        <r>  0.0779  0.0489  0.0000  0.0489  0.0000  0.0000  0.0000  0.0000  0.0000 </r>
       </set>
       <set comment="band 9">
        <r>  0.0000  0.0001  0.0000  0.0001  0.0000  0.0000  0.0000  0.0000  0.0000 </r>
        <r>  0.0000  0.0001  0.0000  0.0001  0.0000  0.0000  0.0000  0.0000  0.0000 </r>
       </set>
       <set comment="band 10">
        <r>  0.0090  0.0156  0.0308  0.0154  0.0000  0.0000  0.0000  0.0000  0.0000 </r>
        <r>  0.0899  0.0441  0.0040  0.0448  0.0000  0.0000  0.0000  0.0000  0.0000 </r>
       </set>
       <set comment="band 11">
        <r>  0.0541  0.0022  0.0038  0.0029  0.0000  0.0000  0.0000  0.0000  0.0000 </r>
        <r>  0.0058  0.0098  0.0019  0.0086  0.0000  0.0000  0.0000  0.0000  0.0000 </r>
       </set>
       <set comment="band 12">
        <r>  0.0039  0.0153  0.0569  0.0052  0.0000  0.0000  0.0000  0.0000  0.0000 </r>
        <r>  0.0016  0.0002  0.0622  0.0141  0.0000  0.0000  0.0000  0.0000  0.0000 </r>
       </set>
      </set>
      <set comment="kpoint 167">
       <set comment="band 1">
        <r>  0.2105  0.0035  0.0001  0.0035  0.0000  0.0000  0.0000  0.0000  0.0000 </r>
        <r>  0.2105  0.0035  0.0001  0.0035  0.0000  0.0000  0.0000  0.0000  0.0000 </r>
       </set>
       <set comment="band 2">
        <r>  0.1088  0.0466  0.0317  0.0466  0.0000  0.0000  0.0000  0.0000  0.0000 </r>
        <r>  0.1088  0.0466  0.0317  0.0466  0.0000  0.0000  0.0000  0.0000  0.0000 </r>
       </set>
       <set comment="band 3">
        <r>  0.0088  0.0304  0.1169  0.0304  0.0000  0.0000  0.0000  0.0000  0.0000 </r>
        <r>  0.0088  0.0304  0.1169  0.0304  0.0000  0.0000  0.0000  0.0000  0.0000 </r>
       </set>
       <set comment="band 4">
        <r>  0.0000  0.1105  0.0000  0.1105  0.0000  0.0000  0.0000  0.0000  0.0000 </r>
        <r>  0.0000  0.1105  0.0000  0.1105  0.0000  0.0000  0.0000  0.0000  0.0000 </r>
       </set>
       <set comment="band 5">
        <r>  0.1021  0.0002  0.0980  0.0002  0.0000  0.0000  0.0000  0.0000  0.0000 </r>
        <r>  0.1021  0.0002  0.0980  0.0002  0.0000  0.0000  0.0000  0.0000  0.0000 </r>
       </set>
       <set comment="band 6">
        <r>  0.0000  0.0751  0.0000  0.0751  0.0000  0.0000  0.0000  0.0000  0.0000 </r>
        <r>  0.0000  0.0750  0.0000  0.0751  0.0000  0.0000  0.0000  0.0000  0.0000 </r>
       </set>
       <set comment="band 7">
        <r>  0.0272  0.0165  0.0939  0.0165  0.0000  0.0000  0.0000  0.0000  0.0000 </r>
        <r>  0.0272  0.0165  0.0939  0.0165  0.0000  0.0000  0.0000  0.0000  0.0000 </r>
       </set>
       <set comment="band 8">
        <r>  0.0865  0.0510  0.0007  0.0510  0.0000  0.0000  0.0000  0.0000  0.0000 </r>
        <r>  0.0865  0.0510  0.0007  0.0510  0.0000  0.0000  0.0000  0.0000  0.0000 </r>
       </set>
       <set comment="band 9">
        <r>  0.0000  0.0000  0.0000  0.0000  0.0000  0.0000  0.0000  0.0000  0.0000 </r>
        <r>  0.0000  0.0000  0.0000  0.0000  0.0000  0.0000  0.0000  0.0000  0.0000 </r>
       </set>
       <set comment="band 10">
        <r>  0.0540  0.0182  0.0184  0.0182  0.0000  0.0000  0.0000  0.0000  0.0000 </r>
        <r>  0.0539  0.0182  0.0184  0.0182  0.0000  0.0000  0.0000  0.0000  0.0000 </r>
       </set>
       <set comment="band 11">
        <r>  0.0444  0.0307  0.0173  0.0307  0.0000  0.0000  0.0000  0.0000  0.0000 </r>
        <r>  0.0446  0.0307  0.0173  0.0307  0.0000  0.0000  0.0000  0.0000  0.0000 </r>
       </set>
       <set comment="band 12">
        <r>  0.0018  0.0179  0.0244  0.0425  0.0000  0.0000  0.0000  0.0000  0.0000 </r>
        <r>  0.0074  0.0110  0.0432  0.0024  0.0000  0.0000  0.0000  0.0000  0.0000 </r>
       </set>
      </set>
      <set comment="kpoint 168">
       <set comment="band 1">
        <r>  0.2109  0.0030  0.0001  0.0030  0.0000  0.0000  0.0000  0.0000  0.0000 </r>
        <r>  0.2109  0.0030  0.0001  0.0030  0.0000  0.0000  0.0000  0.0000  0.0000 </r>
       </set>
       <set comment="band 2">
        <r>  0.1029  0.0497  0.0305  0.0497  0.0000  0.0000  0.0000  0.0000  0.0000 </r>
        <r>  0.1029  0.0497  0.0305  0.0497  0.0000  0.0000  0.0000  0.0000  0.0000 </r>
       </set>
       <set comment="band 3">
        <r>  0.0077  0.0293  0.1225  0.0293  0.0000  0.0000  0.0000  0.0000  0.0000 </r>
        <r>  0.0077  0.0293  0.1225  0.0293  0.0000  0.0000  0.0000  0.0000  0.0000 </r>
       </set>
       <set comment="band 4">
        <r>  0.0000  0.1105  0.0000  0.1105  0.0000  0.0000  0.0000  0.0000  0.0000 </r>
        <r>  0.0000  0.1105  0.0000  0.1105  0.0000  0.0000  0.0000  0.0000  0.0000 </r>
       </set>
       <set comment="band 5">
        <r>  0.1032  0.0002  0.0999  0.0002  0.0000  0.0000  0.0000  0.0000  0.0000 </r>
        <r>  0.1032  0.0002  0.0999  0.0002  0.0000  0.0000  0.0000  0.0000  0.0000 </r>
       </set>
       <set comment="band 6">
        <r>  0.0000  0.0751  0.0000  0.0751  0.0000  0.0000  0.0000  0.0000  0.0000 </r>
        <r>  0.0000  0.0751  0.0000  0.0751  0.0000  0.0000  0.0000  0.0000  0.0000 </r>
       </set>
       <set comment="band 7">
        <r>  0.0257  0.0198  0.0896  0.0198  0.0000  0.0000  0.0000  0.0000  0.0000 </r>
        <r>  0.0257  0.0198  0.0896  0.0198  0.0000  0.0000  0.0000  0.0000  0.0000 </r>
       </set>
       <set comment="band 8">
        <r>  0.0993  0.0531  0.0026  0.0531  0.0000  0.0000  0.0000  0.0000  0.0000 </r>
        <r>  0.0993  0.0531  0.0026  0.0531  0.0000  0.0000  0.0000  0.0000  0.0000 </r>
       </set>
       <set comment="band 9">
        <r>  0.0000  0.0000  0.0000  0.0000  0.0000  0.0000  0.0000  0.0000  0.0000 </r>
        <r>  0.0000  0.0000  0.0000  0.0000  0.0000  0.0000  0.0000  0.0000  0.0000 </r>
       </set>
       <set comment="band 10">
        <r>  0.0465  0.0125  0.0159  0.0125  0.0000  0.0000  0.0000  0.0000  0.0000 </r>
        <r>  0.0465  0.0125  0.0159  0.0125  0.0000  0.0000  0.0000  0.0000  0.0000 </r>
       </set>
       <set comment="band 11">
        <r>  0.0512  0.0285  0.0138  0.0285  0.0000  0.0000  0.0000  0.0000  0.0000 </r>
        <r>  0.0508  0.0286  0.0138  0.0286  0.0000  0.0000  0.0000  0.0000  0.0000 </r>
       </set>
       <set comment="band 12">
        <r>  0.0210  0.0001  0.0078  0.0019  0.0000  0.0000  0.0000  0.0000  0.0000 </r>
        <r>  0.0026  0.0342  0.0016  0.0402  0.0000  0.0000  0.0000  0.0000  0.0000 </r>
       </set>
      </set>
      <set comment="kpoint 169">
       <set comment="band 1">
        <r>  0.2112  0.0025  0.0001  0.0025  0.0000  0.0000  0.0000  0.0000  0.0000 </r>
        <r>  0.2112  0.0025  0.0001  0.0025  0.0000  0.0000  0.0000  0.0000  0.0000 </r>
       </set>
       <set comment="band 2">
        <r>  0.0967  0.0530  0.0293  0.0530  0.0000  0.0000  0.0000  0.0000  0.0000 </r>
        <r>  0.0967  0.0530  0.0293  0.0530  0.0000  0.0000  0.0000  0.0000  0.0000 </r>
       </set>
       <set comment="band 3">
        <r>  0.0065  0.0279  0.1287  0.0279  0.0000  0.0000  0.0000  0.0000  0.0000 </r>
        <r>  0.0065  0.0279  0.1287  0.0279  0.0000  0.0000  0.0000  0.0000  0.0000 </r>
       </set>
       <set comment="band 4">
        <r>  0.0000  0.1104  0.0000  0.1105  0.0000  0.0000  0.0000  0.0000  0.0000 </r>
        <r>  0.0000  0.1104  0.0000  0.1105  0.0000  0.0000  0.0000  0.0000  0.0000 </r>
       </set>
       <set comment="band 5">
        <r>  0.1030  0.0002  0.1017  0.0002  0.0000  0.0000  0.0000  0.0000  0.0000 </r>
        <r>  0.1030  0.0002  0.1017  0.0002  0.0000  0.0000  0.0000  0.0000  0.0000 </r>
       </set>
       <set comment="band 6">
        <r>  0.0000  0.0752  0.0000  0.0752  0.0000  0.0000  0.0000  0.0000  0.0000 </r>
        <r>  0.0000  0.0752  0.0000  0.0752  0.0000  0.0000  0.0000  0.0000  0.0000 </r>
       </set>
       <set comment="band 7">
        <r>  0.0239  0.0235  0.0846  0.0235  0.0000  0.0000  0.0000  0.0000  0.0000 </r>
        <r>  0.0239  0.0235  0.0846  0.0235  0.0000  0.0000  0.0000  0.0000  0.0000 </r>
       </set>
       <set comment="band 8">
        <r>  0.1162  0.0544  0.0055  0.0544  0.0000  0.0000  0.0000  0.0000  0.0000 </r>
        <r>  0.1162  0.0544  0.0055  0.0544  0.0000  0.0000  0.0000  0.0000  0.0000 </r>
       </set>
       <set comment="band 9">
        <r>  0.0000  0.0001  0.0000  0.0001  0.0000  0.0000  0.0000  0.0000  0.0000 </r>
        <r>  0.0000  0.0001  0.0000  0.0001  0.0000  0.0000  0.0000  0.0000  0.0000 </r>
       </set>
       <set comment="band 10">
        <r>  0.0366  0.0073  0.0127  0.0073  0.0000  0.0000  0.0000  0.0000  0.0000 </r>
        <r>  0.0366  0.0073  0.0127  0.0073  0.0000  0.0000  0.0000  0.0000  0.0000 </r>
       </set>
       <set comment="band 11">
        <r>  0.0574  0.0262  0.0106  0.0261  0.0000  0.0000  0.0000  0.0000  0.0000 </r>
        <r>  0.0573  0.0262  0.0106  0.0262  0.0000  0.0000  0.0000  0.0000  0.0000 </r>
       </set>
       <set comment="band 12">
        <r>  0.0170  0.0049  0.0004  0.0049  0.0000  0.0000  0.0000  0.0000  0.0000 </r>
        <r>  0.0194  0.0039  0.0020  0.0039  0.0000  0.0000  0.0000  0.0000  0.0000 </r>
       </set>
      </set>
      <set comment="kpoint 170">
       <set comment="band 1">
        <r>  0.2115  0.0021  0.0000  0.0021  0.0000  0.0000  0.0000  0.0000  0.0000 </r>
        <r>  0.2115  0.0021  0.0000  0.0021  0.0000  0.0000  0.0000  0.0000  0.0000 </r>
       </set>
       <set comment="band 2">
        <r>  0.0900  0.0566  0.0279  0.0566  0.0000  0.0000  0.0000  0.0000  0.0000 </r>
        <r>  0.0900  0.0566  0.0279  0.0566  0.0000  0.0000  0.0000  0.0000  0.0000 </r>
       </set>
       <set comment="band 3">
        <r>  0.0053  0.0263  0.1356  0.0263  0.0000  0.0000  0.0000  0.0000  0.0000 </r>
        <r>  0.0053  0.0263  0.1356  0.0263  0.0000  0.0000  0.0000  0.0000  0.0000 </r>
       </set>
       <set comment="band 4">
        <r>  0.0000  0.1103  0.0000  0.1103  0.0000  0.0000  0.0000  0.0000  0.0000 </r>
        <r>  0.0000  0.1103  0.0000  0.1103  0.0000  0.0000  0.0000  0.0000  0.0000 </r>
       </set>
       <set comment="band 5">
        <r>  0.0000  0.0753  0.0000  0.0753  0.0000  0.0000  0.0000  0.0000  0.0000 </r>
        <r>  0.0000  0.0753  0.0000  0.0753  0.0000  0.0000  0.0000  0.0000  0.0000 </r>
       </set>
       <set comment="band 6">
        <r>  0.1014  0.0003  0.1035  0.0003  0.0000  0.0000  0.0000  0.0000  0.0000 </r>
        <r>  0.1014  0.0003  0.1035  0.0003  0.0000  0.0000  0.0000  0.0000  0.0000 </r>
       </set>
       <set comment="band 7">
        <r>  0.0219  0.0277  0.0786  0.0277  0.0000  0.0000  0.0000  0.0000  0.0000 </r>
        <r>  0.0219  0.0277  0.0786  0.0277  0.0000  0.0000  0.0000  0.0000  0.0000 </r>
       </set>
       <set comment="band 8">
        <r>  0.1358  0.0540  0.0089  0.0540  0.0000  0.0000  0.0000  0.0000  0.0000 </r>
        <r>  0.1358  0.0540  0.0089  0.0540  0.0000  0.0000  0.0000  0.0000  0.0000 </r>
       </set>
       <set comment="band 9">
        <r>  0.0000  0.0002  0.0000  0.0002  0.0000  0.0000  0.0000  0.0000  0.0000 </r>
        <r>  0.0000  0.0002  0.0000  0.0002  0.0000  0.0000  0.0000  0.0000  0.0000 </r>
       </set>
       <set comment="band 10">
        <r>  0.0259  0.0033  0.0092  0.0033  0.0000  0.0000  0.0000  0.0000  0.0000 </r>
        <r>  0.0259  0.0033  0.0092  0.0033  0.0000  0.0000  0.0000  0.0000  0.0000 </r>
       </set>
       <set comment="band 11">
        <r>  0.0635  0.0235  0.0078  0.0235  0.0000  0.0000  0.0000  0.0000  0.0000 </r>
        <r>  0.0635  0.0235  0.0078  0.0235  0.0000  0.0000  0.0000  0.0000  0.0000 </r>
       </set>
       <set comment="band 12">
        <r>  0.0158  0.0113  0.0056  0.0159  0.0000  0.0000  0.0000  0.0000  0.0000 </r>
        <r>  0.0081  0.0223  0.0059  0.0288  0.0000  0.0000  0.0000  0.0000  0.0000 </r>
       </set>
      </set>
      <set comment="kpoint 171">
       <set comment="band 1">
        <r>  0.2119  0.0017  0.0000  0.0017  0.0000  0.0000  0.0000  0.0000  0.0000 </r>
        <r>  0.2119  0.0017  0.0000  0.0017  0.0000  0.0000  0.0000  0.0000  0.0000 </r>
       </set>
       <set comment="band 2">
        <r>  0.0828  0.0604  0.0263  0.0604  0.0000  0.0000  0.0000  0.0000  0.0000 </r>
        <r>  0.0828  0.0604  0.0263  0.0604  0.0000  0.0000  0.0000  0.0000  0.0000 </r>
       </set>
       <set comment="band 3">
        <r>  0.0042  0.0243  0.1433  0.0243  0.0000  0.0000  0.0000  0.0000  0.0000 </r>
        <r>  0.0042  0.0243  0.1433  0.0243  0.0000  0.0000  0.0000  0.0000  0.0000 </r>
       </set>
       <set comment="band 4">
        <r>  0.0000  0.1100  0.0000  0.1100  0.0000  0.0000  0.0000  0.0000  0.0000 </r>
        <r>  0.0000  0.1100  0.0000  0.1100  0.0000  0.0000  0.0000  0.0000  0.0000 </r>
       </set>
       <set comment="band 5">
        <r>  0.0000  0.0754  0.0000  0.0754  0.0000  0.0000  0.0000  0.0000  0.0000 </r>
        <r>  0.0000  0.0754  0.0000  0.0754  0.0000  0.0000  0.0000  0.0000  0.0000 </r>
       </set>
       <set comment="band 6">
        <r>  0.0981  0.0005  0.1056  0.0005  0.0000  0.0000  0.0000  0.0000  0.0000 </r>
        <r>  0.0981  0.0005  0.1056  0.0005  0.0000  0.0000  0.0000  0.0000  0.0000 </r>
       </set>
       <set comment="band 7">
        <r>  0.0196  0.0324  0.0716  0.0324  0.0000  0.0000  0.0000  0.0000  0.0000 </r>
        <r>  0.0196  0.0324  0.0716  0.0324  0.0000  0.0000  0.0000  0.0000  0.0000 </r>
       </set>
       <set comment="band 8">
        <r>  0.1563  0.0515  0.0118  0.0515  0.0000  0.0000  0.0000  0.0000  0.0000 </r>
        <r>  0.1564  0.0515  0.0118  0.0515  0.0000  0.0000  0.0000  0.0000  0.0000 </r>
       </set>
       <set comment="band 9">
        <r>  0.0000  0.0003  0.0000  0.0003  0.0000  0.0000  0.0000  0.0000  0.0000 </r>
        <r>  0.0000  0.0003  0.0000  0.0003  0.0000  0.0000  0.0000  0.0000  0.0000 </r>
       </set>
       <set comment="band 10">
        <r>  0.0605  0.0200  0.0051  0.0204  0.0000  0.0000  0.0000  0.0000  0.0000 </r>
        <r>  0.0784  0.0214  0.0028  0.0211  0.0000  0.0000  0.0000  0.0000  0.0000 </r>
       </set>
       <set comment="band 11">
        <r>  0.0182  0.0062  0.0058  0.0041  0.0000  0.0000  0.0000  0.0000  0.0000 </r>
        <r>  0.0131  0.0089  0.0015  0.0066  0.0000  0.0000  0.0000  0.0000  0.0000 </r>
       </set>
       <set comment="band 12">
        <r>  0.0234  0.0073  0.0018  0.0046  0.0000  0.0000  0.0000  0.0000  0.0000 </r>
        <r>  0.0176  0.0186  0.0010  0.0134  0.0000  0.0000  0.0000  0.0000  0.0000 </r>
       </set>
      </set>
      <set comment="kpoint 172">
       <set comment="band 1">
        <r>  0.2122  0.0014  0.0000  0.0014  0.0000  0.0000  0.0000  0.0000  0.0000 </r>
        <r>  0.2122  0.0014  0.0000  0.0014  0.0000  0.0000  0.0000  0.0000  0.0000 </r>
       </set>
       <set comment="band 2">
        <r>  0.0749  0.0647  0.0244  0.0647  0.0000  0.0000  0.0000  0.0000  0.0000 </r>
        <r>  0.0749  0.0647  0.0244  0.0647  0.0000  0.0000  0.0000  0.0000  0.0000 </r>
       </set>
       <set comment="band 3">
        <r>  0.0031  0.0219  0.1518  0.0219  0.0000  0.0000  0.0000  0.0000  0.0000 </r>
        <r>  0.0031  0.0219  0.1518  0.0219  0.0000  0.0000  0.0000  0.0000  0.0000 </r>
       </set>
       <set comment="band 4">
        <r>  0.0000  0.1098  0.0000  0.1098  0.0000  0.0000  0.0000  0.0000  0.0000 </r>
        <r>  0.0000  0.1098  0.0000  0.1098  0.0000  0.0000  0.0000  0.0000  0.0000 </r>
       </set>
       <set comment="band 5">
        <r>  0.0000  0.0754  0.0000  0.0754  0.0000  0.0000  0.0000  0.0000  0.0000 </r>
        <r>  0.0000  0.0754  0.0000  0.0754  0.0000  0.0000  0.0000  0.0000  0.0000 </r>
       </set>
       <set comment="band 6">
        <r>  0.0926  0.0007  0.1082  0.0007  0.0000  0.0000  0.0000  0.0000  0.0000 </r>
        <r>  0.0926  0.0007  0.1082  0.0007  0.0000  0.0000  0.0000  0.0000  0.0000 </r>
       </set>
       <set comment="band 7">
        <r>  0.0171  0.0376  0.0638  0.0376  0.0000  0.0000  0.0000  0.0000  0.0000 </r>
        <r>  0.0171  0.0376  0.0638  0.0376  0.0000  0.0000  0.0000  0.0000  0.0000 </r>
       </set>
       <set comment="band 8">
        <r>  0.1772  0.0472  0.0138  0.0472  0.0000  0.0000  0.0000  0.0000  0.0000 </r>
        <r>  0.1772  0.0472  0.0138  0.0472  0.0000  0.0000  0.0000  0.0000  0.0000 </r>
       </set>
       <set comment="band 9">
        <r>  0.0000  0.0004  0.0000  0.0004  0.0000  0.0000  0.0000  0.0000  0.0000 </r>
        <r>  0.0000  0.0004  0.0000  0.0004  0.0000  0.0000  0.0000  0.0000  0.0000 </r>
       </set>
       <set comment="band 10">
        <r>  0.0749  0.0178  0.0037  0.0174  0.0000  0.0000  0.0000  0.0000  0.0000 </r>
        <r>  0.0753  0.0175  0.0036  0.0178  0.0000  0.0000  0.0000  0.0000  0.0000 </r>
       </set>
       <set comment="band 11">
        <r>  0.0145  0.0087  0.0006  0.0084  0.0000  0.0000  0.0000  0.0000  0.0000 </r>
        <r>  0.0145  0.0086  0.0007  0.0083  0.0000  0.0000  0.0000  0.0000  0.0000 </r>
       </set>
       <set comment="band 12">
        <r>  0.0010  0.0012  0.0345  0.0008  0.0000  0.0000  0.0000  0.0000  0.0000 </r>
        <r>  0.0010  0.0009  0.0347  0.0012  0.0000  0.0000  0.0000  0.0000  0.0000 </r>
       </set>
      </set>
      <set comment="kpoint 173">
       <set comment="band 1">
        <r>  0.2125  0.0011  0.0000  0.0011  0.0000  0.0000  0.0000  0.0000  0.0000 </r>
        <r>  0.2125  0.0011  0.0000  0.0011  0.0000  0.0000  0.0000  0.0000  0.0000 </r>
       </set>
       <set comment="band 2">
        <r>  0.0663  0.0693  0.0222  0.0693  0.0000  0.0000  0.0000  0.0000  0.0000 </r>
        <r>  0.0663  0.0693  0.0222  0.0693  0.0000  0.0000  0.0000  0.0000  0.0000 </r>
       </set>
       <set comment="band 3">
        <r>  0.0022  0.0191  0.1610  0.0191  0.0000  0.0000  0.0000  0.0000  0.0000 </r>
        <r>  0.0022  0.0191  0.1610  0.0191  0.0000  0.0000  0.0000  0.0000  0.0000 </r>
       </set>
       <set comment="band 4">
        <r>  0.0000  0.1095  0.0000  0.1095  0.0000  0.0000  0.0000  0.0000  0.0000 </r>
        <r>  0.0000  0.1095  0.0000  0.1095  0.0000  0.0000  0.0000  0.0000  0.0000 </r>
       </set>
       <set comment="band 5">
        <r>  0.0000  0.0755  0.0000  0.0755  0.0000  0.0000  0.0000  0.0000  0.0000 </r>
        <r>  0.0000  0.0755  0.0000  0.0755  0.0000  0.0000  0.0000  0.0000  0.0000 </r>
       </set>
       <set comment="band 6">
        <r>  0.0144  0.0432  0.0550  0.0432  0.0000  0.0000  0.0000  0.0000  0.0000 </r>
        <r>  0.0144  0.0432  0.0550  0.0432  0.0000  0.0000  0.0000  0.0000  0.0000 </r>
       </set>
       <set comment="band 7">
        <r>  0.0843  0.0011  0.1116  0.0011  0.0000  0.0000  0.0000  0.0000  0.0000 </r>
        <r>  0.0843  0.0011  0.1116  0.0011  0.0000  0.0000  0.0000  0.0000  0.0000 </r>
       </set>
       <set comment="band 8">
        <r>  0.1993  0.0415  0.0144  0.0415  0.0000  0.0000  0.0000  0.0000  0.0000 </r>
        <r>  0.1993  0.0415  0.0144  0.0415  0.0000  0.0000  0.0000  0.0000  0.0000 </r>
       </set>
       <set comment="band 9">
        <r>  0.0000  0.0006  0.0000  0.0005  0.0000  0.0000  0.0000  0.0000  0.0000 </r>
        <r>  0.0000  0.0006  0.0000  0.0005  0.0000  0.0000  0.0000  0.0000  0.0000 </r>
       </set>
       <set comment="band 10">
        <r>  0.0799  0.0144  0.0023  0.0144  0.0000  0.0000  0.0000  0.0000  0.0000 </r>
        <r>  0.0810  0.0147  0.0021  0.0147  0.0000  0.0000  0.0000  0.0000  0.0000 </r>
       </set>
       <set comment="band 11">
        <r>  0.0030  0.0035  0.0198  0.0087  0.0000  0.0000  0.0000  0.0000  0.0000 </r>
        <r>  0.0064  0.0008  0.0253  0.0050  0.0000  0.0000  0.0000  0.0000  0.0000 </r>
       </set>
       <set comment="band 12">
        <r>  0.0029  0.0082  0.0114  0.0459  0.0000  0.0000  0.0000  0.0000  0.0000 </r>
        <r>  0.0005  0.0148  0.0253  0.0328  0.0000  0.0000  0.0000  0.0000  0.0000 </r>
       </set>
      </set>
      <set comment="kpoint 174">
       <set comment="band 1">
        <r>  0.2127  0.0008  0.0000  0.0008  0.0000  0.0000  0.0000  0.0000  0.0000 </r>
        <r>  0.2127  0.0008  0.0000  0.0008  0.0000  0.0000  0.0000  0.0000  0.0000 </r>
       </set>
       <set comment="band 2">
        <r>  0.0568  0.0745  0.0197  0.0745  0.0000  0.0000  0.0000  0.0000  0.0000 </r>
        <r>  0.0568  0.0745  0.0197  0.0745  0.0000  0.0000  0.0000  0.0000  0.0000 </r>
       </set>
       <set comment="band 3">
        <r>  0.0014  0.0160  0.1710  0.0160  0.0000  0.0000  0.0000  0.0000  0.0000 </r>
        <r>  0.0014  0.0160  0.1710  0.0160  0.0000  0.0000  0.0000  0.0000  0.0000 </r>
       </set>
       <set comment="band 4">
        <r>  0.0000  0.1092  0.0000  0.1092  0.0000  0.0000  0.0000  0.0000  0.0000 </r>
        <r>  0.0000  0.1092  0.0000  0.1092  0.0000  0.0000  0.0000  0.0000  0.0000 </r>
       </set>
       <set comment="band 5">
        <r>  0.0000  0.0756  0.0000  0.0755  0.0000  0.0000  0.0000  0.0000  0.0000 </r>
        <r>  0.0000  0.0755  0.0000  0.0756  0.0000  0.0000  0.0000  0.0000  0.0000 </r>
       </set>
       <set comment="band 6">
        <r>  0.0116  0.0492  0.0453  0.0492  0.0000  0.0000  0.0000  0.0000  0.0000 </r>
        <r>  0.0116  0.0492  0.0453  0.0492  0.0000  0.0000  0.0000  0.0000  0.0000 </r>
       </set>
       <set comment="band 7">
        <r>  0.0725  0.0016  0.1162  0.0016  0.0000  0.0000  0.0000  0.0000  0.0000 </r>
        <r>  0.0725  0.0016  0.1162  0.0016  0.0000  0.0000  0.0000  0.0000  0.0000 </r>
       </set>
       <set comment="band 8">
        <r>  0.0002  0.0006  0.0000  0.0007  0.0000  0.0000  0.0000  0.0000  0.0000 </r>
        <r>  0.0002  0.0006  0.0000  0.0007  0.0000  0.0000  0.0000  0.0000  0.0000 </r>
       </set>
       <set comment="band 9">
        <r>  0.0050  0.0001  0.0016  0.0001  0.0000  0.0000  0.0000  0.0000  0.0000 </r>
        <r>  0.0051  0.0001  0.0011  0.0001  0.0000  0.0000  0.0000  0.0000  0.0000 </r>
       </set>
       <set comment="band 10">
        <r>  0.0857  0.0113  0.0013  0.0113  0.0000  0.0000  0.0000  0.0000  0.0000 </r>
        <r>  0.0852  0.0115  0.0013  0.0115  0.0000  0.0000  0.0000  0.0000  0.0000 </r>
       </set>
       <set comment="band 11">
        <r>  0.0019  0.0066  0.0233  0.0044  0.0000  0.0000  0.0000  0.0000  0.0000 </r>
        <r>  0.0046  0.0032  0.0292  0.0014  0.0000  0.0000  0.0000  0.0000  0.0000 </r>
       </set>
       <set comment="band 12">
        <r>  0.0013  0.0205  0.0031  0.0115  0.0000  0.0000  0.0000  0.0000  0.0000 </r>
        <r>  0.0009  0.0217  0.0022  0.0111  0.0000  0.0000  0.0000  0.0000  0.0000 </r>
       </set>
      </set>
      <set comment="kpoint 175">
       <set comment="band 1">
        <r>  0.2129  0.0005  0.0000  0.0005  0.0000  0.0000  0.0000  0.0000  0.0000 </r>
        <r>  0.2129  0.0005  0.0000  0.0005  0.0000  0.0000  0.0000  0.0000  0.0000 </r>
       </set>
       <set comment="band 2">
        <r>  0.0464  0.0804  0.0166  0.0804  0.0000  0.0000  0.0000  0.0000  0.0000 </r>
        <r>  0.0464  0.0804  0.0166  0.0804  0.0000  0.0000  0.0000  0.0000  0.0000 </r>
       </set>
       <set comment="band 3">
        <r>  0.0008  0.0126  0.1813  0.0126  0.0000  0.0000  0.0000  0.0000  0.0000 </r>
        <r>  0.0008  0.0126  0.1813  0.0126  0.0000  0.0000  0.0000  0.0000  0.0000 </r>
       </set>
       <set comment="band 4">
        <r>  0.0000  0.1089  0.0000  0.1089  0.0000  0.0000  0.0000  0.0000  0.0000 </r>
        <r>  0.0000  0.1089  0.0000  0.1089  0.0000  0.0000  0.0000  0.0000  0.0000 </r>
       </set>
       <set comment="band 5">
        <r>  0.0000  0.0756  0.0000  0.0756  0.0000  0.0000  0.0000  0.0000  0.0000 </r>
        <r>  0.0000  0.0756  0.0000  0.0756  0.0000  0.0000  0.0000  0.0000  0.0000 </r>
       </set>
       <set comment="band 6">
        <r>  0.0088  0.0554  0.0351  0.0554  0.0000  0.0000  0.0000  0.0000  0.0000 </r>
        <r>  0.0088  0.0554  0.0351  0.0554  0.0000  0.0000  0.0000  0.0000  0.0000 </r>
       </set>
       <set comment="band 7">
        <r>  0.0566  0.0023  0.1223  0.0023  0.0000  0.0000  0.0000  0.0000  0.0000 </r>
        <r>  0.0566  0.0023  0.1223  0.0023  0.0000  0.0000  0.0000  0.0000  0.0000 </r>
       </set>
       <set comment="band 8">
        <r>  0.2524  0.0275  0.0114  0.0275  0.0000  0.0000  0.0000  0.0000  0.0000 </r>
        <r>  0.2524  0.0275  0.0114  0.0275  0.0000  0.0000  0.0000  0.0000  0.0000 </r>
       </set>
       <set comment="band 9">
        <r>  0.0000  0.0006  0.0000  0.0006  0.0000  0.0000  0.0000  0.0000  0.0000 </r>
        <r>  0.0000  0.0006  0.0000  0.0006  0.0000  0.0000  0.0000  0.0000  0.0000 </r>
       </set>
       <set comment="band 10">
        <r>  0.0012  0.0002  0.0005  0.0002  0.0000  0.0000  0.0000  0.0000  0.0000 </r>
        <r>  0.0012  0.0002  0.0005  0.0002  0.0000  0.0000  0.0000  0.0000  0.0000 </r>
       </set>
       <set comment="band 11">
        <r>  0.0899  0.0084  0.0007  0.0084  0.0000  0.0000  0.0000  0.0000  0.0000 </r>
        <r>  0.0899  0.0084  0.0007  0.0084  0.0000  0.0000  0.0000  0.0000  0.0000 </r>
       </set>
       <set comment="band 12">
        <r>  0.0056  0.0120  0.0060  0.0125  0.0000  0.0000  0.0000  0.0000  0.0000 </r>
        <r>  0.0071  0.0094  0.0109  0.0101  0.0000  0.0000  0.0000  0.0000  0.0000 </r>
       </set>
      </set>
      <set comment="kpoint 176">
       <set comment="band 1">
        <r>  0.2131  0.0004  0.0000  0.0004  0.0000  0.0000  0.0000  0.0000  0.0000 </r>
        <r>  0.2131  0.0004  0.0000  0.0004  0.0000  0.0000  0.0000  0.0000  0.0000 </r>
       </set>
       <set comment="band 2">
        <r>  0.0351  0.0869  0.0131  0.0869  0.0000  0.0000  0.0000  0.0000  0.0000 </r>
        <r>  0.0351  0.0869  0.0131  0.0869  0.0000  0.0000  0.0000  0.0000  0.0000 </r>
       </set>
       <set comment="band 3">
        <r>  0.0004  0.0090  0.1916  0.0090  0.0000  0.0000  0.0000  0.0000  0.0000 </r>
        <r>  0.0004  0.0090  0.1916  0.0090  0.0000  0.0000  0.0000  0.0000  0.0000 </r>
       </set>
       <set comment="band 4">
        <r>  0.0000  0.1086  0.0000  0.1086  0.0000  0.0000  0.0000  0.0000  0.0000 </r>
        <r>  0.0000  0.1086  0.0000  0.1086  0.0000  0.0000  0.0000  0.0000  0.0000 </r>
       </set>
       <set comment="band 5">
        <r>  0.0000  0.0756  0.0000  0.0756  0.0000  0.0000  0.0000  0.0000  0.0000 </r>
        <r>  0.0000  0.0756  0.0000  0.0756  0.0000  0.0000  0.0000  0.0000  0.0000 </r>
       </set>
       <set comment="band 6">
        <r>  0.0061  0.0615  0.0248  0.0615  0.0000  0.0000  0.0000  0.0000  0.0000 </r>
        <r>  0.0061  0.0615  0.0248  0.0615  0.0000  0.0000  0.0000  0.0000  0.0000 </r>
       </set>
       <set comment="band 7">
        <r>  0.0372  0.0030  0.1299  0.0030  0.0000  0.0000  0.0000  0.0000  0.0000 </r>
        <r>  0.0372  0.0030  0.1299  0.0030  0.0000  0.0000  0.0000  0.0000  0.0000 </r>
       </set>
       <set comment="band 8">
        <r>  0.2845  0.0195  0.0078  0.0195  0.0000  0.0000  0.0000  0.0000  0.0000 </r>
        <r>  0.2845  0.0195  0.0078  0.0195  0.0000  0.0000  0.0000  0.0000  0.0000 </r>
       </set>
       <set comment="band 9">
        <r>  0.0004  0.0005  0.0001  0.0000  0.0000  0.0000  0.0000  0.0000  0.0000 </r>
        <r>  0.0003  0.0005  0.0001  0.0000  0.0000  0.0000  0.0000  0.0000  0.0000 </r>
       </set>
       <set comment="band 10">
        <r>  0.0935  0.0057  0.0003  0.0057  0.0000  0.0000  0.0000  0.0000  0.0000 </r>
        <r>  0.0940  0.0056  0.0003  0.0056  0.0000  0.0000  0.0000  0.0000  0.0000 </r>
       </set>
       <set comment="band 11">
        <r>  0.0035  0.0160  0.0113  0.0074  0.0000  0.0000  0.0000  0.0000  0.0000 </r>
        <r>  0.0028  0.0189  0.0082  0.0078  0.0000  0.0000  0.0000  0.0000  0.0000 </r>
       </set>
       <set comment="band 12">
        <r>  0.0008  0.0128  0.0265  0.0093  0.0000  0.0000  0.0000  0.0000  0.0000 </r>
        <r>  0.0004  0.0152  0.0177  0.0092  0.0000  0.0000  0.0000  0.0000  0.0000 </r>
       </set>
      </set>
      <set comment="kpoint 177">
       <set comment="band 1">
        <r>  0.2133  0.0002  0.0000  0.0002  0.0000  0.0000  0.0000  0.0000  0.0000 </r>
        <r>  0.2133  0.0002  0.0000  0.0002  0.0000  0.0000  0.0000  0.0000  0.0000 </r>
       </set>
       <set comment="band 2">
        <r>  0.0233  0.0938  0.0090  0.0938  0.0000  0.0000  0.0000  0.0000  0.0000 </r>
        <r>  0.0233  0.0938  0.0090  0.0938  0.0000  0.0000  0.0000  0.0000  0.0000 </r>
       </set>
       <set comment="band 3">
        <r>  0.0001  0.0056  0.2011  0.0056  0.0000  0.0000  0.0000  0.0000  0.0000 </r>
        <r>  0.0001  0.0056  0.2011  0.0056  0.0000  0.0000  0.0000  0.0000  0.0000 </r>
       </set>
       <set comment="band 4">
        <r>  0.0000  0.1084  0.0000  0.1084  0.0000  0.0000  0.0000  0.0000  0.0000 </r>
        <r>  0.0000  0.1084  0.0000  0.1084  0.0000  0.0000  0.0000  0.0000  0.0000 </r>
       </set>
       <set comment="band 5">
        <r>  0.0000  0.0757  0.0000  0.0757  0.0000  0.0000  0.0000  0.0000  0.0000 </r>
        <r>  0.0000  0.0757  0.0000  0.0757  0.0000  0.0000  0.0000  0.0000  0.0000 </r>
       </set>
       <set comment="band 6">
        <r>  0.0036  0.0671  0.0152  0.0671  0.0000  0.0000  0.0000  0.0000  0.0000 </r>
        <r>  0.0036  0.0671  0.0152  0.0671  0.0000  0.0000  0.0000  0.0000  0.0000 </r>
       </set>
       <set comment="band 7">
        <r>  0.0180  0.0032  0.1383  0.0032  0.0000  0.0000  0.0000  0.0000  0.0000 </r>
        <r>  0.0180  0.0032  0.1383  0.0032  0.0000  0.0000  0.0000  0.0000  0.0000 </r>
       </set>
       <set comment="band 8">
        <r>  0.3165  0.0117  0.0038  0.0117  0.0000  0.0000  0.0000  0.0000  0.0000 </r>
        <r>  0.3165  0.0117  0.0038  0.0117  0.0000  0.0000  0.0000  0.0000  0.0000 </r>
       </set>
       <set comment="band 9">
        <r>  0.0000  0.0004  0.0000  0.0004  0.0000  0.0000  0.0000  0.0000  0.0000 </r>
        <r>  0.0000  0.0004  0.0000  0.0004  0.0000  0.0000  0.0000  0.0000  0.0000 </r>
       </set>
       <set comment="band 10">
        <r>  0.0972  0.0033  0.0001  0.0033  0.0000  0.0000  0.0000  0.0000  0.0000 </r>
        <r>  0.0971  0.0033  0.0001  0.0033  0.0000  0.0000  0.0000  0.0000  0.0000 </r>
       </set>
       <set comment="band 11">
        <r>  0.0003  0.0061  0.0293  0.0036  0.0000  0.0000  0.0000  0.0000  0.0000 </r>
        <r>  0.0004  0.0067  0.0302  0.0021  0.0000  0.0000  0.0000  0.0000  0.0000 </r>
       </set>
       <set comment="band 12">
        <r>  0.0005  0.0088  0.0011  0.0092  0.0000  0.0000  0.0000  0.0000  0.0000 </r>
        <r>  0.0000  0.0034  0.0013  0.0082  0.0000  0.0000  0.0000  0.0000  0.0000 </r>
       </set>
      </set>
      <set comment="kpoint 178">
       <set comment="band 1">
        <r>  0.2134  0.0001  0.0000  0.0001  0.0000  0.0000  0.0000  0.0000  0.0000 </r>
        <r>  0.2134  0.0001  0.0000  0.0001  0.0000  0.0000  0.0000  0.0000  0.0000 </r>
       </set>
       <set comment="band 2">
        <r>  0.0120  0.1007  0.0048  0.1007  0.0000  0.0000  0.0000  0.0000  0.0000 </r>
        <r>  0.0120  0.1007  0.0048  0.1007  0.0000  0.0000  0.0000  0.0000  0.0000 </r>
       </set>
       <set comment="band 3">
        <r>  0.0000  0.0027  0.2090  0.0027  0.0000  0.0000  0.0000  0.0000  0.0000 </r>
        <r>  0.0000  0.0027  0.2090  0.0027  0.0000  0.0000  0.0000  0.0000  0.0000 </r>
       </set>
       <set comment="band 4">
        <r>  0.0000  0.1082  0.0000  0.1082  0.0000  0.0000  0.0000  0.0000  0.0000 </r>
        <r>  0.0000  0.1082  0.0000  0.1082  0.0000  0.0000  0.0000  0.0000  0.0000 </r>
       </set>
       <set comment="band 5">
        <r>  0.0000  0.0757  0.0000  0.0757  0.0000  0.0000  0.0000  0.0000  0.0000 </r>
        <r>  0.0000  0.0757  0.0000  0.0757  0.0000  0.0000  0.0000  0.0000  0.0000 </r>
       </set>
       <set comment="band 6">
        <r>  0.0017  0.0716  0.0072  0.0716  0.0000  0.0000  0.0000  0.0000  0.0000 </r>
        <r>  0.0017  0.0716  0.0072  0.0716  0.0000  0.0000  0.0000  0.0000  0.0000 </r>
       </set>
       <set comment="band 7">
        <r>  0.0049  0.0024  0.1454  0.0024  0.0000  0.0000  0.0000  0.0000  0.0000 </r>
        <r>  0.0049  0.0024  0.1455  0.0024  0.0000  0.0000  0.0000  0.0000  0.0000 </r>
       </set>
       <set comment="band 8">
        <r>  0.3415  0.0053  0.0010  0.0053  0.0000  0.0000  0.0000  0.0000  0.0000 </r>
        <r>  0.3415  0.0053  0.0010  0.0053  0.0000  0.0000  0.0000  0.0000  0.0000 </r>
       </set>
       <set comment="band 9">
        <r>  0.0000  0.0002  0.0000  0.0002  0.0000  0.0000  0.0000  0.0000  0.0000 </r>
        <r>  0.0000  0.0002  0.0000  0.0002  0.0000  0.0000  0.0000  0.0000  0.0000 </r>
       </set>
       <set comment="band 10">
        <r>  0.0000  0.0001  0.0000  0.0001  0.0000  0.0000  0.0000  0.0000  0.0000 </r>
        <r>  0.0000  0.0001  0.0000  0.0001  0.0000  0.0000  0.0000  0.0000  0.0000 </r>
       </set>
       <set comment="band 11">
        <r>  0.0996  0.0015  0.0000  0.0015  0.0000  0.0000  0.0000  0.0000  0.0000 </r>
        <r>  0.0996  0.0015  0.0000  0.0015  0.0000  0.0000  0.0000  0.0000  0.0000 </r>
       </set>
       <set comment="band 12">
        <r>  0.0000  0.0034  0.0350  0.0013  0.0000  0.0000  0.0000  0.0000  0.0000 </r>
        <r>  0.0001  0.0024  0.0361  0.0012  0.0000  0.0000  0.0000  0.0000  0.0000 </r>
       </set>
      </set>
      <set comment="kpoint 179">
       <set comment="band 1">
        <r>  0.2134  0.0000  0.0000  0.0000  0.0000  0.0000  0.0000  0.0000  0.0000 </r>
        <r>  0.2134  0.0000  0.0000  0.0000  0.0000  0.0000  0.0000  0.0000  0.0000 </r>
       </set>
       <set comment="band 2">
        <r>  0.0033  0.1060  0.0014  0.1060  0.0000  0.0000  0.0000  0.0000  0.0000 </r>
        <r>  0.0033  0.1060  0.0014  0.1060  0.0000  0.0000  0.0000  0.0000  0.0000 </r>
       </set>
       <set comment="band 3">
        <r>  0.0000  0.0007  0.2143  0.0007  0.0000  0.0000  0.0000  0.0000  0.0000 </r>
        <r>  0.0000  0.0007  0.2143  0.0007  0.0000  0.0000  0.0000  0.0000  0.0000 </r>
       </set>
       <set comment="band 4">
        <r>  0.0000  0.1081  0.0000  0.1081  0.0000  0.0000  0.0000  0.0000  0.0000 </r>
        <r>  0.0000  0.1081  0.0000  0.1081  0.0000  0.0000  0.0000  0.0000  0.0000 </r>
       </set>
       <set comment="band 5">
        <r>  0.0000  0.0757  0.0000  0.0757  0.0000  0.0000  0.0000  0.0000  0.0000 </r>
        <r>  0.0000  0.0757  0.0000  0.0757  0.0000  0.0000  0.0000  0.0000  0.0000 </r>
       </set>
       <set comment="band 6">
        <r>  0.0004  0.0746  0.0019  0.0746  0.0000  0.0000  0.0000  0.0000  0.0000 </r>
        <r>  0.0004  0.0747  0.0019  0.0746  0.0000  0.0000  0.0000  0.0000  0.0000 </r>
       </set>
       <set comment="band 7">
        <r>  0.0004  0.0009  0.1499  0.0009  0.0000  0.0000  0.0000  0.0000  0.0000 </r>
        <r>  0.0004  0.0009  0.1499  0.0009  0.0000  0.0000  0.0000  0.0000  0.0000 </r>
       </set>
       <set comment="band 8">
        <r>  0.3549  0.0013  0.0001  0.0013  0.0000  0.0000  0.0000  0.0000  0.0000 </r>
        <r>  0.3549  0.0013  0.0001  0.0013  0.0000  0.0000  0.0000  0.0000  0.0000 </r>
       </set>
       <set comment="band 9">
        <r>  0.0000  0.0001  0.0000  0.0001  0.0000  0.0000  0.0000  0.0000  0.0000 </r>
        <r>  0.0000  0.0001  0.0000  0.0001  0.0000  0.0000  0.0000  0.0000  0.0000 </r>
       </set>
       <set comment="band 10">
        <r>  0.0000  0.0000  0.0000  0.0000  0.0000  0.0000  0.0000  0.0000  0.0000 </r>
        <r>  0.0000  0.0000  0.0000  0.0000  0.0000  0.0000  0.0000  0.0000  0.0000 </r>
       </set>
       <set comment="band 11">
        <r>  0.1011  0.0004  0.0000  0.0004  0.0000  0.0000  0.0000  0.0000  0.0000 </r>
        <r>  0.1011  0.0004  0.0000  0.0004  0.0000  0.0000  0.0000  0.0000  0.0000 </r>
       </set>
       <set comment="band 12">
        <r>  0.0000  0.0184  0.0145  0.0071  0.0000  0.0000  0.0000  0.0000  0.0000 </r>
        <r>  0.0000  0.0180  0.0143  0.0075  0.0000  0.0000  0.0000  0.0000  0.0000 </r>
       </set>
      </set>
      <set comment="kpoint 180">
       <set comment="band 1">
        <r>  0.2135  0.0000  0.0000  0.0000  0.0000  0.0000  0.0000  0.0000  0.0000 </r>
        <r>  0.2135  0.0000  0.0000  0.0000  0.0000  0.0000  0.0000  0.0000  0.0000 </r>
       </set>
       <set comment="band 2">
        <r>  0.0000  0.0746  0.0658  0.0757  0.0000  0.0000  0.0000  0.0000  0.0000 </r>
        <r>  0.0000  0.0746  0.0658  0.0757  0.0000  0.0000  0.0000  0.0000  0.0000 </r>
       </set>
       <set comment="band 3">
        <r>  0.0000  0.1312  0.0721  0.0129  0.0000  0.0000  0.0000  0.0000  0.0000 </r>
        <r>  0.0000  0.1312  0.0721  0.0129  0.0000  0.0000  0.0000  0.0000  0.0000 </r>
       </set>
       <set comment="band 4">
        <r>  0.0000  0.0104  0.0782  0.1276  0.0000  0.0000  0.0000  0.0000  0.0000 </r>
        <r>  0.0000  0.0104  0.0782  0.1276  0.0000  0.0000  0.0000  0.0000  0.0000 </r>
       </set>
       <set comment="band 5">
        <r>  0.0000  0.0505  0.0534  0.0475  0.0000  0.0000  0.0000  0.0000  0.0000 </r>
        <r>  0.0000  0.0505  0.0534  0.0475  0.0000  0.0000  0.0000  0.0000  0.0000 </r>
       </set>
       <set comment="band 6">
        <r>  0.0000  0.0592  0.0871  0.0051  0.0000  0.0000  0.0000  0.0000  0.0000 </r>
        <r>  0.0000  0.0592  0.0871  0.0051  0.0000  0.0000  0.0000  0.0000  0.0000 </r>
       </set>
       <set comment="band 7">
        <r>  0.0000  0.0417  0.0109  0.0988  0.0000  0.0000  0.0000  0.0000  0.0000 </r>
        <r>  0.0000  0.0417  0.0109  0.0988  0.0000  0.0000  0.0000  0.0000  0.0000 </r>
       </set>
       <set comment="band 8">
        <r>  0.3587  0.0000  0.0000  0.0000  0.0000  0.0000  0.0000  0.0000  0.0000 </r>
        <r>  0.3587  0.0000  0.0000  0.0000  0.0000  0.0000  0.0000  0.0000  0.0000 </r>
       </set>
       <set comment="band 9">
        <r>  0.0000  0.0000  0.0000  0.0000  0.0000  0.0000  0.0000  0.0000  0.0000 </r>
        <r>  0.0000  0.0000  0.0000  0.0000  0.0000  0.0000  0.0000  0.0000  0.0000 </r>
       </set>
       <set comment="band 10">
        <r>  0.1016  0.0000  0.0000  0.0000  0.0000  0.0000  0.0000  0.0000  0.0000 </r>
        <r>  0.1016  0.0000  0.0000  0.0000  0.0000  0.0000  0.0000  0.0000  0.0000 </r>
       </set>
       <set comment="band 11">
        <r>  0.0000  0.0004  0.0366  0.0031  0.0000  0.0000  0.0000  0.0000  0.0000 </r>
        <r>  0.0000  0.0004  0.0366  0.0031  0.0000  0.0000  0.0000  0.0000  0.0000 </r>
       </set>
       <set comment="band 12">
        <r>  0.0000  0.0268  0.0009  0.0125  0.0000  0.0000  0.0000  0.0000  0.0000 </r>
        <r>  0.0000  0.0267  0.0008  0.0126  0.0000  0.0000  0.0000  0.0000  0.0000 </r>
       </set>
      </set>
     </set>
    </set>
   </array>
  </projected>
 </calculation>
 <structure name="finalpos" >
  <crystal>
   <varray name="basis" >
    <v>       0.00000000       2.71500000       2.71500000 </v>
    <v>       2.71500000       0.00000000       2.71500000 </v>
    <v>       2.71500000       2.71500000       0.00000000 </v>
   </varray>
   <i name="volume">     40.02575175 </i>
   <varray name="rec_basis" >
    <v>      -0.18416206       0.18416206       0.18416206 </v>
    <v>       0.18416206      -0.18416206       0.18416206 </v>
    <v>       0.18416206       0.18416206      -0.18416206 </v>
   </varray>
  </crystal>
  <varray name="positions" >
   <v>       0.00000000       0.00000000       0.00000000 </v>
   <v>       0.25000000       0.25000000       0.25000000 </v>
  </varray>
 </structure>
</modeling>
