 running    8 mpi-ranks, on    1 nodes
 distrk:  each k-point on    4 cores,    2 groups
 distr:  one band on    4 cores,    1 groups
 vasp.6.6.0 06Mar2026 (build Apr 30 2026 15:36:16) complex                      
  
 POSCAR found type information on POSCAR Si
 POSCAR found :  1 types and       2 ions
 Reading from existing POTCAR
 scaLAPACK will be used
 Reading from existing POTCAR
 LDA part: xc-table for (Slater+PW92), standard interpolation
 POSCAR, INCAR and KPOINTS ok, starting setup
 FFT: planning ... GRIDC
 FFT: planning ... GRID_SOFT
 FFT: planning ... GRID
 WAVECAR not read
 entering main loop
       N       E                     dE             d eps       ncg     rms          rms(c)
DAV:   1     0.528443146819E+01    0.52844E+01   -0.29865E+03   464   0.640E+02
DAV:   2    -0.108197584877E+02   -0.16104E+02   -0.15550E+02   728   0.749E+01
DAV:   3    -0.110206036900E+02   -0.20085E+00   -0.20085E+00   552   0.107E+01
DAV:   4    -0.110216225622E+02   -0.10189E-02   -0.10189E-02   800   0.868E-01
DAV:   5    -0.110216230716E+02   -0.50943E-06   -0.50979E-06   552   0.161E-02    0.488E+00
RMM:   6    -0.108960585897E+02    0.12556E+00   -0.49654E-02   465   0.138E+00    0.297E+00
RMM:   7    -0.108386155888E+02    0.57443E-01   -0.11496E-01   502   0.225E+00    0.194E-01
RMM:   8    -0.108402676871E+02   -0.16521E-02   -0.77523E-03   486   0.713E-01    0.732E-02
RMM:   9    -0.108404892871E+02   -0.22160E-03   -0.15461E-03   521   0.292E-01    0.799E-02
RMM:  10    -0.108405470656E+02   -0.57779E-04   -0.27825E-04   508   0.141E-01    0.268E-02
RMM:  11    -0.108405607504E+02   -0.13685E-04   -0.78609E-05   522   0.759E-02    0.124E-02
RMM:  12    -0.108405621121E+02   -0.13616E-05   -0.11705E-05   532   0.306E-02    0.245E-02
RMM:  13    -0.108405606980E+02    0.14141E-05   -0.36566E-06   435   0.170E-02    0.161E-02
RMM:  14    -0.108405609368E+02   -0.23882E-06   -0.70245E-07   299   0.817E-03
   1 F= -.10840561E+02 E0= -.10840561E+02  d E =-.143710E-11
 writing wavefunctions
