 vasp.6.6.0 06Mar2026 (build Apr 30 2026 15:36:16) complex                      
  
 executed on             LinuxIFC date 2026.05.05  17:11:28
 running    8 mpi-ranks, on    1 nodes
 distrk:  each k-point on    4 cores,    2 groups
 distr:  one band on NCORE=   4 cores,    1 groups


--------------------------------------------------------------------------------------------------------


 INCAR:
   ALGO = Fast
   EDIFF = 1e-06
   ENCUT = 400.0
   GGA = Pe
   IBRION = -1
   ICHARG = 2
   ISMEAR = 0
   ISTART = 0
   KPAR = 2
   LCHARG = True
   LREAL = False
   LWAVE = True
   NCORE = 4
   NELM = 100
   NSW = 0
   PREC = Accurate
   SIGMA = 0.05
   SYSTEM = Si_diamond_PBE_band_vasp

 POTCAR:    PAW_PBE Si 05Jan2001                  
 POTCAR:    PAW_PBE Si 05Jan2001                  
   SHA256 =  79d9987ad8750f624c4d6acb2a16d13abf6a777132adc04dc6c8399be72b42bb Si/POTCAR             
   COPYR  = (c) Copyright 05Jan2001 Georg Kresse                                                    
   COPYR  = This file is part of the software VASP. Any use, copying, and all other rights are regul
   COPYR  = If you do not have a valid VASP license, you may not use, copy or distribute this file. 
   VRHFIN =Si: s2p2                                                                                 
   LEXCH  = PE                                                                                      
   EATOM  =   103.0669 eV,    7.5752 Ry                                                             
                                                                                                    
   TITEL  = PAW_PBE Si 05Jan2001                                                                    
   LULTRA =        F    use ultrasoft PP ?                                                          
   IUNSCR =        1    unscreen: 0-lin 1-nonlin 2-no                                               
   RPACOR =    1.500    partial core radius                                                         
   POMASS =   28.085; ZVAL   =    4.000    mass and valenz                                          
   RCORE  =    1.900    outmost cutoff radius                                                       
   RWIGS  =    2.480; RWIGS  =    1.312    wigner-seitz radius (au A)                               
   ENMAX  =  245.345; ENMIN  =  184.009 eV                                                          
   ICORE  =        2    local potential                                                             
   LCOR   =        T    correct aug charges                                                         
   LPAW   =        T    paw PP                                                                      
   EAUG   =  322.069                                                                                
   DEXC   =    0.000                                                                                
   RMAX   =    1.950    core radius for proj-oper                                                   
   RAUG   =    1.300    factor for augmentation sphere                                              
   RDEP   =    1.993    radius for radial grids                                                     
   RDEPT  =    1.837    core radius for aug-charge                                                  
                                                                                                    
   Atomic configuration                                                                             
    6 entries                                                                                       
     n  l   j            E        occ.                                                              
     1  0  0.50     -1785.8828   2.0000                                                             
     2  0  0.50      -139.4969   2.0000                                                             
     2  1  1.50       -95.5546   6.0000                                                             
     3  0  0.50       -10.8127   2.0000                                                             
     3  1  0.50        -4.0811   2.0000                                                             
     3  2  1.50        -4.0817   0.0000                                                             
   Description                                                                                      
     l       E           TYP  RCUT    TYP  RCUT                                                     
     0    -10.8127223     23  1.900                                                                 
     0     -7.6451159     23  1.900                                                                 
     1     -4.0811372     23  1.900                                                                 
     1      2.4879257     23  1.900                                                                 
     2     -4.0817478      7  1.900                                                                 
  local pseudopotential read in
  partial core-charges read in
  partial kinetic energy density read in
  atomic valenz-charges read in
  non local Contribution for L=           0  read in
    real space projection operators read in
  non local Contribution for L=           0  read in
    real space projection operators read in
  non local Contribution for L=           1  read in
    real space projection operators read in
  non local Contribution for L=           1  read in
    real space projection operators read in
    PAW grid and wavefunctions read in
 
   number of l-projection  operators is LMAX  =           4
   number of lm-projection operators is LMMAX =           8
 
  PAW_PBE Si 05Jan2001                  :
 energy of atom  1       EATOM= -103.0669
 kinetic energy error for atom=    0.0012 (will be added to EATOM!!)
 
 
 POSCAR: Si diamond primitive cell, a=5.43 Angstr
  positions in direct lattice
  No initial velocities read in


 exchange-correlation table for PE
   RHO(1)=    0.500       N(1)  =     2000
   RHO(2)=  100.500       N(2)  =     4000
 


--------------------------------------------------------------------------------------------------------


 ion  position               nearest neighbor table
   1  0.000  0.000  0.000-   2 2.35   2 2.35   2 2.35   2 2.35
   2  0.250  0.250  0.250-   1 2.35   1 2.35   1 2.35   1 2.35
 
  LATTYP: Found a face centered cubic cell.
 ALAT       =     5.4300000000
  
  Lattice vectors:
  
 A1 = (   0.0000000000,   2.7150000000,   2.7150000000)
 A2 = (   2.7150000000,   0.0000000000,   2.7150000000)
 A3 = (   2.7150000000,   2.7150000000,   0.0000000000)


Analysis of symmetry for initial positions (statically):
=====================================================================
 Subroutine PRICEL returns:
 Original cell was already a primitive cell.
 

 Routine SETGRP: Setting up the symmetry group for a 
 face centered cubic supercell.


 Subroutine GETGRP returns: Found 48 space group operations
 (whereof 24 operations were pure point group operations)
 out of a pool of 48 trial point group operations.


The static configuration has the point symmetry T_d .
 The point group associated with its full space group is O_h .


Analysis of symmetry for dynamics (positions and initial velocities):
=====================================================================
 Subroutine PRICEL returns:
 Original cell was already a primitive cell.
 

 Routine SETGRP: Setting up the symmetry group for a 
 face centered cubic supercell.


 Subroutine GETGRP returns: Found 48 space group operations
 (whereof 24 operations were pure point group operations)
 out of a pool of 48 trial point group operations.


The dynamic configuration has the point symmetry T_d .
 The point group associated with its full space group is O_h .


 Subroutine INISYM returns: Found 48 space group operations
 (whereof 24 operations are pure point group operations),
 and found     1 'primitive' translations


----------------------------------------------------------------------------------------

                                     Primitive cell                                     

  volume of cell :      40.0258

  direct lattice vectors                    reciprocal lattice vectors
     0.000000000  2.715000000  2.715000000    -0.184162063  0.184162063  0.184162063
     2.715000000  0.000000000  2.715000000     0.184162063 -0.184162063  0.184162063
     2.715000000  2.715000000  0.000000000     0.184162063  0.184162063 -0.184162063

  length of vectors
     3.839589822  3.839589822  3.839589822     0.318978049  0.318978049  0.318978049

  position of ions in fractional coordinates (direct lattice)
     0.000000000  0.000000000  0.000000000
     0.250000000  0.250000000  0.250000000

  ion indices of the primitive-cell ions
   primitive index   ion index
                 1           1
                 2           2

----------------------------------------------------------------------------------------

 
 
 KPOINTS: Automatic kpoint scheme                 

Automatic generation of k-mesh.
 Grid dimensions read from file:
 generate k-points for:    8    8    8

 Generating k-lattice:

  Cartesian coordinates                     Fractional coordinates (reciprocal lattice)
    -0.023020258  0.023020258  0.023020258     0.125000000  0.000000000  0.000000000
     0.023020258 -0.023020258  0.023020258     0.000000000  0.125000000  0.000000000
     0.023020258  0.023020258 -0.023020258    -0.000000000 -0.000000000  0.125000000

  Length of vectors
     0.039872256  0.039872256  0.039872256

  Shift w.r.t. Gamma in fractional coordinates (k-lattice)
     0.000000000  0.000000000  0.000000000

 
 Subroutine IBZKPT returns following result:
 ===========================================
 
 Found     29 irreducible k-points:
 
 Following reciprocal coordinates:
            Coordinates               Weight
  0.000000  0.000000  0.000000      1.000000
  0.125000  0.000000  0.000000      8.000000
  0.250000  0.000000  0.000000      8.000000
  0.375000  0.000000  0.000000      8.000000
  0.500000  0.000000  0.000000      4.000000
  0.125000  0.125000  0.000000      6.000000
  0.250000  0.125000  0.000000     24.000000
  0.375000  0.125000  0.000000     24.000000
  0.500000  0.125000  0.000000     24.000000
 -0.375000  0.125000  0.000000     24.000000
 -0.250000  0.125000  0.000000     24.000000
 -0.125000  0.125000  0.000000     12.000000
  0.250000  0.250000  0.000000      6.000000
  0.375000  0.250000  0.000000     24.000000
  0.500000  0.250000  0.000000     24.000000
 -0.375000  0.250000  0.000000     24.000000
 -0.250000  0.250000  0.000000     12.000000
  0.375000  0.375000  0.000000      6.000000
  0.500000  0.375000  0.000000     24.000000
 -0.375000  0.375000  0.000000     12.000000
  0.500000  0.500000  0.000000      3.000000
  0.375000  0.250000  0.125000     24.000000
  0.500000  0.250000  0.125000     48.000000
 -0.375000  0.250000  0.125000     24.000000
  0.500000  0.375000  0.125000     24.000000
 -0.375000  0.375000  0.125000     48.000000
 -0.250000  0.375000  0.125000     24.000000
 -0.375000  0.500000  0.125000     12.000000
 -0.250000  0.500000  0.250000      6.000000
 
 Following cartesian coordinates:
            Coordinates               Weight
  0.000000  0.000000  0.000000      1.000000
 -0.023020  0.023020  0.023020      8.000000
 -0.046041  0.046041  0.046041      8.000000
 -0.069061  0.069061  0.069061      8.000000
 -0.092081  0.092081  0.092081      4.000000
  0.000000  0.000000  0.046041      6.000000
 -0.023020  0.023020  0.069061     24.000000
 -0.046041  0.046041  0.092081     24.000000
 -0.069061  0.069061  0.115101     24.000000
  0.092081 -0.092081 -0.046041     24.000000
  0.069061 -0.069061 -0.023020     24.000000
  0.046041 -0.046041  0.000000     12.000000
  0.000000  0.000000  0.092081      6.000000
 -0.023020  0.023020  0.115101     24.000000
 -0.046041  0.046041  0.138122     24.000000
  0.115101 -0.115101 -0.023020     24.000000
  0.092081 -0.092081  0.000000     12.000000
  0.000000  0.000000  0.138122      6.000000
 -0.023020  0.023020  0.161142     24.000000
  0.138122 -0.138122  0.000000     12.000000
  0.000000  0.000000  0.184162      3.000000
  0.000000  0.046041  0.092081     24.000000
 -0.023020  0.069061  0.115101     48.000000
  0.138122 -0.092081 -0.046041     24.000000
  0.000000  0.046041  0.138122     24.000000
  0.161142 -0.115101 -0.023020     48.000000
  0.138122 -0.092081  0.000000     24.000000
  0.184162 -0.138122  0.000000     12.000000
  0.184162 -0.092081  0.000000      6.000000
 


--------------------------------------------------------------------------------------------------------




 Dimension of arrays:
   k-points           NKPTS =     29   k-points in BZ     NKDIM =     29   number of bands    NBANDS=      8
   number of dos      NEDOS =    301   number of ions     NIONS =      2
   non local maximal  LDIM  =      4   non local SUM 2l+1 LMDIM =      8
   total plane-waves  NPLWV =  21952
   max r-space proj   IRMAX =      1   max aug-charges    IRDMAX=  18535
   dimension x,y,z NGX =    28 NGY =   28 NGZ =   28
   dimension x,y,z NGXF=    56 NGYF=   56 NGZF=   56
   support grid    NGXF=    56 NGYF=   56 NGZF=   56
   ions per type =               2
   NGX,Y,Z   is equivalent  to a cutoff of  12.12, 12.12, 12.12 a.u.
   NGXF,Y,Z  is equivalent  to a cutoff of  24.25, 24.25, 24.25 a.u.

 SYSTEM =  Si_diamond_PBE_band_vasp                
 POSCAR =  Si diamond primitive cell, a=5.43 Angstr

 Startparameter for this run:
   NWRITE =      2    write-flag & timer
   PREC   = accura    normal or accurate (medium, high low for compatibility)
   ISTART =      0    job   : 0-new  1-cont  2-samecut
   ICHARG =      2    charge: 1-file 2-atom 10-const
   ISPIN  =      1    spin polarized calculation?
   LNONCOLLINEAR =      F non collinear calculations
   LSORBIT =      F    spin-orbit coupling
   INIWAV =      1    electr: 0-lowe 1-rand  2-diag
   LASPH  =      F    aspherical Exc in radial PAW
 Electronic Relaxation 1
   ENCUT  =  400.0 eV  29.40 Ry    5.42 a.u.   6.26  6.26  6.26*2*pi/ulx,y,z
   ENINI  =  400.0     initial cutoff
   ENAUG  =  322.1 eV  augmentation charge cutoff
   NELM   =    100;   NELMIN=  2; NELMDL= -5     # of ELM steps 
   EDIFF  = 0.1E-05   stopping-criterion for ELM
   LREAL  =      F    real-space projection
   NLSPLINE    = F    spline interpolate recip. space projectors
   LCOMPAT=      F    compatible to vasp.4.4
   GGA_COMPAT  = T    GGA compatible to vasp.4.4-vasp.4.6
   LMAXPAW     = -100 max onsite density
   LMAXMIX     =    2 max onsite mixed and CHGCAR
   VOSKOWN=      0    Vosko Wilk Nusair interpolation
   ROPT   =    0.00000

 Ewald summation
   EWALD_CUTOFF =   4.00

 Ionic relaxation
   EDIFFG = 0.1E-04   stopping-criterion for IOM
   NSW    =      0    number of steps for IOM
   NBLOCK =      1;   KBLOCK =      1    inner block; outer block 
   IBRION =     -1    ionic relax: 0-MD 1-quasi-New 2-CG
   NFREE  =      0    steps in history (QN), initial steepest desc. (CG)
   ISIF   =      2    stress and relaxation
   IWAVPR =     10    prediction:  0-non 1-charg 2-wave 3-comb
   MAXDIS =   0.00    maximum displacement; if above reset density
   ISYM   =      2    0-nonsym 1-usesym 2-fastsym
   LCORR  =      T    Harris-Foulkes like correction to forces

   POTIM  = 0.5000    time-step for ionic-motion
   TEIN   =    0.0    initial temperature
   TEBEG  =    0.0;   TEEND  =   0.0 temperature during run
   SMASS  =  -3.00    Nose mass-parameter (am)
   estimated Nose-frequenzy (Omega)   =  0.10E-29 period in steps = 0.13E+47 mass=  -0.337E-27a.u.
   SCALEE = 1.0000    scale energy and forces
   NPACO  =    256;   APACO  = 10.0  distance and # of slots for P.C.
   PSTRESS=    0.0 pullay stress

  Mass of Ions in am
   POMASS =  28.09
  Ionic Valenz
   ZVAL   =   4.00
  Atomic Wigner-Seitz radii
   RWIGS  =  -1.00
  virtual crystal weights 
   VCA    =   1.00
   NELECT =       8.0000    total number of electrons
   NUPDOWN=      -1.0000    fix difference up-down

 DOS related values:
   EMIN   =  10.00;   EMAX   =-10.00  energy-range for DOS
   EFERMI =   0.00;   METHOD = LEGACY      
   ISMEAR =     0;   SIGMA  =   0.05  broadening in eV -4-tet -1-fermi 0-gaus
   EFERMI_NEDOS =   21; number of points for ismear=-14 and -15

 Electronic relaxation 2 (details)
   IALGO  =     68    algorithm
   LDIAG  =      T    sub-space diagonalisation (order eigenvalues)
   LSUBROT=      F    optimize rotation matrix (better conditioning)
   LROBUST=      F    robust break criterion during scf (extrapolated energy error)
   ISEARCH=      0    line search for conjugate gradient (0, 1=use gradient)
   TURBO    =      0    0=normal 1=particle mesh
   IRESTART =      0    0=no restart 2=restart with 2 vectors
   NREBOOT  =      0    no. of reboots
   NMIN     =      0    reboot dimension
   EREF     =   0.00    reference energy to select bands
   IMIX   =      4    mixing-type and parameters
     AMIX     =   0.40;   BMIX     =  1.00
     AMIX_MAG =   1.60;   BMIX_MAG =  1.00
     AMIN     =   0.10
     WC   =   100.;   INIMIX=   1;  MIXPRE=   1;  MAXMIX= -45

 Intra band minimization:
   WEIMIN = 0.0000     energy-eigenvalue tresh-hold
   EBREAK =  0.31E-07  absolut break condition
   DEPER  =   0.30     relativ break condition  

   TIME   =   0.40     timestep for ELM

  volume/ion in A,a.u.               =      20.01       135.05
  Fermi-wavevector in a.u.,A,eV,Ry     =   0.957176  1.808800 12.465458  0.916185
  Thomas-Fermi vector in A             =   2.086170
 
 Write flags
   LH5          =      F    write vaspwave.h5 (instead of legacy files WAVECAR, CHGCAR, etc.)
   LWAVE        =      T    write Kohn-Sham orbitals (WAVECAR/vaspwave.h5)
   LDOWNSAMPLE  =      F    k-point downsampling of WAVECAR
   LCHARG       =      T    write restart densities (CHGCAR/vaspwave.h5)
   LCHARGH5     =      F    write charge density to vaspwave.h5
   LTAU         =      F    evaluate kinetic energy density (TAUCAR/vaspwave.h5)
   LVTOT        =      F    write LOCPOT, total local potential
   LVHAR        =      F    write LOCPOT, Hartree potential only
   WRT_POTENTIAL= None    ! write potential to vaspout.h5
   WRT_DENSITY  = None    ! write densities to vaspout.h5
   LELF         =      F    write electronic localiz. function (ELF)
   LORBIT       =      0    0 simple, 1 ext, 2 COOP (PROOUT), +10 PAW based schemes


 Python interface
   PLUGINS active      =      F    recompile with -DPLUGINS to activate
 
 Dipole corrections
   LMONO      =      F    monopole corrections only (constant potential shift)
   LDIPOL     =      F    correct potential (dipole corrections)
   IDIPOL     =      0    1-x, 2-y, 3-z, 4-all directions 
   EPSILON    =  1.0000000 bulk dielectric constant
   LVACPOTAV  =      F  vacuum potentials using an averaging scheme for the charge density
   VACPOTFLAT =  0.1000000 required flatness to determine vacuum potential
 
Coulomb truncation method
  LTRUNCATE          =      F  Coulomb kernel truncation to be used

 
 Exchange correlation treatment:
   GGA     = PE    functional components
   XC_C    = 1    coefficients multiplying the functional components
   LIBXC   =     F    Libxc                    
   VOSKOWN =     0    Vosko Wilk Nusair interpolation
   LHFCALC =     F    Hartree Fock is set to
   LHFONE  =     F    Hartree Fock one center treatment
   AEXX    =    0.0000 exact exchange contribution
   BEXX    =    1.0000 short-range exact exchange contribution

 Parameters of functionals:
   PE:
     No parameter
 
 Van der Waals corrections
   IVDW    =     0    specifies the selected vdW correction

 Linear response parameters
   LEPSILON=     F    determine dielectric tensor
   LRPA    =     F    only Hartree local field effects (RPA)
   LNABLA  =     F    use nabla operator in PAW spheres
   LVEL    =     F    velocity operator in full k-point grid
   CSHIFT  =0.1000    complex shift for real part using Kramers Kronig
   OMEGAMAX=  -1.0    maximum frequency
   DEG_THRESHOLD= 0.2000000E-02 threshold for treating states as degnerate
   RTIME   =   -0.100 relaxation time in fs
  (WPLASMAI=    0.000 imaginary part of plasma frequency in eV, 0.658/RTIME)
   DFIELD  = 0.0000000 0.0000000 0.0000000 field for delta impulse in time
 
  Optional k-point grid parameters
   LKPOINTS_OPT  =     F    use optional k-point grid
   KPOINTS_OPT_MODE=     1    mode for optional k-point grid
 
 Orbital magnetization related:
   ORBITALMAG=     F  switch on orbital magnetization
   LCHIMAG   =     F  perturbation theory with respect to B field
   DQ        =  0.001000  dq finite difference perturbation B field
   LLRAUG    =     F  two centre corrections for induced B field
   LZORA     =     F  scalar relativistic for chemical shift
   LSOSHIFT  =     F  spin-orbit for chemical shift
   LBONE     =     F  B-component reconstruction in AE one-centre
   LVGVCALC  =     T  calculate vGv susceptibility
   LVGVAPPL  =     F  apply vGv susceptibility instead of pGv for G=0

 Random number generation:
   RANDOM_GENERATOR = DEFAULT
   PCG_SEED         = not used


--------------------------------------------------------------------------------------------------------


 Static calculation
 charge density and potential will be updated during run
 non-spin polarized calculation
 RMM-DIIS sequential band-by-band and
  variant of blocked Davidson during initial phase
 perform sub-space diagonalisation
    before iterative eigenvector-optimisation
 modified Broyden-mixing scheme, WC =      100.0
 initial mixing is a Kerker type mixing with AMIX =  0.4000 and BMIX =      1.0000
 Hartree-type preconditioning will be used
 using additional bands            4
 reciprocal scheme for non local part
 use partial core corrections
 calculate Harris-corrections to forces 
   (improved forces if not selfconsistent)
 use gradient corrections 
 use of overlap-Matrix (Vanderbilt PP)
 Gauss-broadening in eV      SIGMA  =   0.05


--------------------------------------------------------------------------------------------------------


  energy-cutoff  :      400.00
  volume of cell :       40.03
      direct lattice vectors                 reciprocal lattice vectors
     0.000000000  2.715000000  2.715000000    -0.184162063  0.184162063  0.184162063
     2.715000000  0.000000000  2.715000000     0.184162063 -0.184162063  0.184162063
     2.715000000  2.715000000  0.000000000     0.184162063  0.184162063 -0.184162063

  length of vectors
     3.839589822  3.839589822  3.839589822     0.318978049  0.318978049  0.318978049


 
 k-points in units of 2pi/SCALE and weight: Automatic kpoint scheme                 
   0.00000000  0.00000000  0.00000000       0.002
  -0.02302026  0.02302026  0.02302026       0.016
  -0.04604052  0.04604052  0.04604052       0.016
  -0.06906077  0.06906077  0.06906077       0.016
  -0.09208103  0.09208103  0.09208103       0.008
   0.00000000  0.00000000  0.04604052       0.012
  -0.02302026  0.02302026  0.06906077       0.047
  -0.04604052  0.04604052  0.09208103       0.047
  -0.06906077  0.06906077  0.11510129       0.047
   0.09208103 -0.09208103 -0.04604052       0.047
   0.06906077 -0.06906077 -0.02302026       0.047
   0.04604052 -0.04604052  0.00000000       0.023
   0.00000000  0.00000000  0.09208103       0.012
  -0.02302026  0.02302026  0.11510129       0.047
  -0.04604052  0.04604052  0.13812155       0.047
   0.11510129 -0.11510129 -0.02302026       0.047
   0.09208103 -0.09208103  0.00000000       0.023
   0.00000000  0.00000000  0.13812155       0.012
  -0.02302026  0.02302026  0.16114180       0.047
   0.13812155 -0.13812155  0.00000000       0.023
   0.00000000  0.00000000  0.18416206       0.006
   0.00000000  0.04604052  0.09208103       0.047
  -0.02302026  0.06906077  0.11510129       0.094
   0.13812155 -0.09208103 -0.04604052       0.047
   0.00000000  0.04604052  0.13812155       0.047
   0.16114180 -0.11510129 -0.02302026       0.094
   0.13812155 -0.09208103  0.00000000       0.047
   0.18416206 -0.13812155  0.00000000       0.023
   0.18416206 -0.09208103  0.00000000       0.012
 
 k-points in reciprocal lattice and weights: Automatic kpoint scheme                 
   0.00000000  0.00000000  0.00000000       0.002
   0.12500000  0.00000000  0.00000000       0.016
   0.25000000  0.00000000  0.00000000       0.016
   0.37500000  0.00000000  0.00000000       0.016
   0.50000000  0.00000000  0.00000000       0.008
   0.12500000  0.12500000  0.00000000       0.012
   0.25000000  0.12500000  0.00000000       0.047
   0.37500000  0.12500000  0.00000000       0.047
   0.50000000  0.12500000  0.00000000       0.047
  -0.37500000  0.12500000  0.00000000       0.047
  -0.25000000  0.12500000  0.00000000       0.047
  -0.12500000  0.12500000  0.00000000       0.023
   0.25000000  0.25000000  0.00000000       0.012
   0.37500000  0.25000000  0.00000000       0.047
   0.50000000  0.25000000  0.00000000       0.047
  -0.37500000  0.25000000  0.00000000       0.047
  -0.25000000  0.25000000  0.00000000       0.023
   0.37500000  0.37500000  0.00000000       0.012
   0.50000000  0.37500000  0.00000000       0.047
  -0.37500000  0.37500000  0.00000000       0.023
   0.50000000  0.50000000  0.00000000       0.006
   0.37500000  0.25000000  0.12500000       0.047
   0.50000000  0.25000000  0.12500000       0.094
  -0.37500000  0.25000000  0.12500000       0.047
   0.50000000  0.37500000  0.12500000       0.047
  -0.37500000  0.37500000  0.12500000       0.094
  -0.25000000  0.37500000  0.12500000       0.047
  -0.37500000  0.50000000  0.12500000       0.023
  -0.25000000  0.50000000  0.25000000       0.012
 
 position of ions in fractional coordinates (direct lattice) 
   0.00000000  0.00000000  0.00000000
   0.25000000  0.25000000  0.25000000
 
 position of ions in cartesian coordinates  (Angst):
   0.00000000  0.00000000  0.00000000
   1.35750000  1.35750000  1.35750000
 


--------------------------------------------------------------------------------------------------------


 k-point     1 :   0.0000 0.0000 0.0000  plane waves:     725
 k-point     2 :   0.1250 0.0000 0.0000  plane waves:     724
 k-point     3 :   0.2500 0.0000 0.0000  plane waves:     733
 k-point     4 :   0.3750 0.0000 0.0000  plane waves:     739
 k-point     5 :   0.5000 0.0000 0.0000  plane waves:     718
 k-point     6 :   0.1250 0.1250 0.0000  plane waves:     717
 k-point     7 :   0.2500 0.1250 0.0000  plane waves:     722
 k-point     8 :   0.3750 0.1250 0.0000  plane waves:     736
 k-point     9 :   0.5000 0.1250 0.0000  plane waves:     726
 k-point    10 :  -0.3750 0.1250 0.0000  plane waves:     730
 k-point    11 :  -0.2500 0.1250 0.0000  plane waves:     733
 k-point    12 :  -0.1250 0.1250 0.0000  plane waves:     737
 k-point    13 :   0.2500 0.2500 0.0000  plane waves:     729
 k-point    14 :   0.3750 0.2500 0.0000  plane waves:     724
 k-point    15 :   0.5000 0.2500 0.0000  plane waves:     724
 k-point    16 :  -0.3750 0.2500 0.0000  plane waves:     722
 k-point    17 :  -0.2500 0.2500 0.0000  plane waves:     716
 k-point    18 :   0.3750 0.3750 0.0000  plane waves:     725
 k-point    19 :   0.5000 0.3750 0.0000  plane waves:     730
 k-point    20 :  -0.3750 0.3750 0.0000  plane waves:     724
 k-point    21 :   0.5000 0.5000 0.0000  plane waves:     740
 k-point    22 :   0.3750 0.2500 0.1250  plane waves:     733
 k-point    23 :   0.5000 0.2500 0.1250  plane waves:     729
 k-point    24 :  -0.3750 0.2500 0.1250  plane waves:     722
 k-point    25 :   0.5000 0.3750 0.1250  plane waves:     728
 k-point    26 :  -0.3750 0.3750 0.1250  plane waves:     721
 k-point    27 :  -0.2500 0.3750 0.1250  plane waves:     726
 k-point    28 :  -0.3750 0.5000 0.1250  plane waves:     730
 k-point    29 :  -0.2500 0.5000 0.2500  plane waves:     724

 maximum and minimum number of plane-waves per node :       191      174

 maximum number of plane-waves:       740
 maximum index in each direction: 
   IXMAX=    6   IYMAX=    6   IZMAX=    6
   IXMIN=   -6   IYMIN=   -6   IZMIN=   -6


 parallel 3D FFT for wavefunctions:
    minimum data exchange during FFTs selected (reduces bandwidth)
 parallel 3D FFT for charge:
    minimum data exchange during FFTs selected (reduces bandwidth)


 total amount of memory used by VASP MPI-rank0    35139. kBytes
=======================================================================

   base                                    :      30000. kBytes
   nonl-proj                               :        354. kBytes
   fftplans                                :       1675. kBytes
   grid                                    :       2380. kBytes
   one-center                              :          3. kBytes
   wavefun                                 :        727. kBytes
 
     INWAV:  cpu time      0.0000: real time      0.0001
 Broyden mixing: mesh for mixing (old mesh)
   NGX = 13   NGY = 13   NGZ = 13
  (NGX  = 56   NGY  = 56   NGZ  = 56)
  gives a total of   2197 points

 initial charge density was supplied:
 charge density of overlapping atoms calculated
 number of electron       8.0000000 magnetization 
 keeping initial charge density in first step


--------------------------------------------------------------------------------------------------------


 Maximum index for augmentation-charges         4527 (set IRDMAX)


--------------------------------------------------------------------------------------------------------


 First call to EWALD:  gamma=   0.518
 Maximum number of real-space cells   3x   3x   3
 Maximum number of reciprocal cells   3x   3x   3

    FEWALD:  cpu time      0.0007: real time      0.0007


--------------------------------------- Ionic step        1  -------------------------------------------




--------------------------------------- Iteration      1(   1)  ---------------------------------------


    POTLOK:  cpu time      0.0173: real time      0.0173
    SETDIJ:  cpu time      0.0017: real time      0.0017
     EDDAV:  cpu time      0.0510: real time      0.0511
       DOS:  cpu time      0.0003: real time      0.0003
    --------------------------------------------
      LOOP:  cpu time      0.0706: real time      0.0706

 eigenvalue-minimisations  :   464
 total energy-change (2. order) : 0.5284431E+01  (-0.2986455E+03)
 number of electron       8.0000000 magnetization 
 augmentation part        8.0000000 magnetization 

 Free energy of the ion-electron system (eV)
  ---------------------------------------------------
  alpha Z        PSCENC =         3.36414726
  Ewald energy   TEWEN  =      -228.56352493
  -Hartree energ DENC   =       -11.00108242
  -exchange      EXHF   =         0.00000000
  -V(xc)+E(xc)   XCENC  =       -18.60186697
  PAW double counting   =       176.24759923     -141.06103558
  entropy T*S    EENTRO =        -0.00266196
  eigenvalues    EBANDS =        18.77136437
  atomic energy  EATOM  =       206.13149246
  Solvation  Ediel_sol  =         0.00000000
  ext. energy  EPLUGINS =         0.00000000
  ---------------------------------------------------
  free energy    TOTEN  =         5.28443147 eV

  energy without entropy =        5.28709342  energy(sigma->0) =        5.28576245


--------------------------------------------------------------------------------------------------------




--------------------------------------- Iteration      1(   2)  ---------------------------------------


     EDDAV:  cpu time      0.0696: real time      0.0697
       DOS:  cpu time      0.0001: real time      0.0001
    --------------------------------------------
      LOOP:  cpu time      0.0697: real time      0.0698

 eigenvalue-minimisations  :   728
 total energy-change (2. order) :-0.1610419E+02  (-0.1555036E+02)
 number of electron       8.0000000 magnetization 
 augmentation part        8.0000000 magnetization 

 Free energy of the ion-electron system (eV)
  ---------------------------------------------------
  alpha Z        PSCENC =         3.36414726
  Ewald energy   TEWEN  =      -228.56352493
  -Hartree energ DENC   =       -11.00108242
  -exchange      EXHF   =         0.00000000
  -V(xc)+E(xc)   XCENC  =       -18.60186697
  PAW double counting   =       176.24759923     -141.06103558
  entropy T*S    EENTRO =        -0.00000000
  eigenvalues    EBANDS =         2.66451246
  atomic energy  EATOM  =       206.13149246
  Solvation  Ediel_sol  =         0.00000000
  ext. energy  EPLUGINS =         0.00000000
  ---------------------------------------------------
  free energy    TOTEN  =       -10.81975849 eV

  energy without entropy =      -10.81975849  energy(sigma->0) =      -10.81975849


--------------------------------------------------------------------------------------------------------




--------------------------------------- Iteration      1(   3)  ---------------------------------------


     EDDAV:  cpu time      0.0542: real time      0.0543
       DOS:  cpu time      0.0002: real time      0.0002
    --------------------------------------------
      LOOP:  cpu time      0.0543: real time      0.0544

 eigenvalue-minimisations  :   552
 total energy-change (2. order) :-0.2008452E+00  (-0.2008452E+00)
 number of electron       8.0000000 magnetization 
 augmentation part        8.0000000 magnetization 

 Free energy of the ion-electron system (eV)
  ---------------------------------------------------
  alpha Z        PSCENC =         3.36414726
  Ewald energy   TEWEN  =      -228.56352493
  -Hartree energ DENC   =       -11.00108242
  -exchange      EXHF   =         0.00000000
  -V(xc)+E(xc)   XCENC  =       -18.60186697
  PAW double counting   =       176.24759923     -141.06103558
  entropy T*S    EENTRO =        -0.00000000
  eigenvalues    EBANDS =         2.46366726
  atomic energy  EATOM  =       206.13149246
  Solvation  Ediel_sol  =         0.00000000
  ext. energy  EPLUGINS =         0.00000000
  ---------------------------------------------------
  free energy    TOTEN  =       -11.02060369 eV

  energy without entropy =      -11.02060369  energy(sigma->0) =      -11.02060369


--------------------------------------------------------------------------------------------------------




--------------------------------------- Iteration      1(   4)  ---------------------------------------


     EDDAV:  cpu time      0.0727: real time      0.0728
       DOS:  cpu time      0.0001: real time      0.0001
    --------------------------------------------
      LOOP:  cpu time      0.0728: real time      0.0729

 eigenvalue-minimisations  :   800
 total energy-change (2. order) :-0.1018872E-02  (-0.1018872E-02)
 number of electron       8.0000000 magnetization 
 augmentation part        8.0000000 magnetization 

 Free energy of the ion-electron system (eV)
  ---------------------------------------------------
  alpha Z        PSCENC =         3.36414726
  Ewald energy   TEWEN  =      -228.56352493
  -Hartree energ DENC   =       -11.00108242
  -exchange      EXHF   =         0.00000000
  -V(xc)+E(xc)   XCENC  =       -18.60186697
  PAW double counting   =       176.24759923     -141.06103558
  entropy T*S    EENTRO =        -0.00000000
  eigenvalues    EBANDS =         2.46264839
  atomic energy  EATOM  =       206.13149246
  Solvation  Ediel_sol  =         0.00000000
  ext. energy  EPLUGINS =         0.00000000
  ---------------------------------------------------
  free energy    TOTEN  =       -11.02162256 eV

  energy without entropy =      -11.02162256  energy(sigma->0) =      -11.02162256


--------------------------------------------------------------------------------------------------------




--------------------------------------- Iteration      1(   5)  ---------------------------------------


     EDDAV:  cpu time      0.0540: real time      0.0541
       DOS:  cpu time      0.0002: real time      0.0002
    CHARGE:  cpu time      0.0060: real time      0.0060
    MIXING:  cpu time      0.0008: real time      0.0008
    --------------------------------------------
      LOOP:  cpu time      0.0608: real time      0.0610

 eigenvalue-minimisations  :   552
 total energy-change (2. order) :-0.5094277E-06  (-0.5097915E-06)
 number of electron       8.0000001 magnetization 
 augmentation part       -0.4706858 magnetization 

 Broyden mixing:
  rms(total) = 0.48799E+00    rms(broyden)= 0.48799E+00
  rms(prec ) = 0.95528E+00
  weight for this iteration     100.00

 Free energy of the ion-electron system (eV)
  ---------------------------------------------------
  alpha Z        PSCENC =         3.36414726
  Ewald energy   TEWEN  =      -228.56352493
  -Hartree energ DENC   =       -11.00108242
  -exchange      EXHF   =         0.00000000
  -V(xc)+E(xc)   XCENC  =       -18.60186697
  PAW double counting   =       176.24759923     -141.06103558
  entropy T*S    EENTRO =        -0.00000000
  eigenvalues    EBANDS =         2.46264788
  atomic energy  EATOM  =       206.13149246
  Solvation  Ediel_sol  =         0.00000000
  ext. energy  EPLUGINS =         0.00000000
  ---------------------------------------------------
  free energy    TOTEN  =       -11.02162307 eV

  energy without entropy =      -11.02162307  energy(sigma->0) =      -11.02162307


--------------------------------------------------------------------------------------------------------




--------------------------------------- Iteration      1(   6)  ---------------------------------------


    POTLOK:  cpu time      0.0164: real time      0.0165
    SETDIJ:  cpu time      0.0013: real time      0.0013
    EDDIAG:  cpu time      0.0164: real time      0.0164
  RMM-DIIS:  cpu time      0.0383: real time      0.0383
    ORTHCH:  cpu time      0.0003: real time      0.0003
       DOS:  cpu time      0.0001: real time      0.0001
    CHARGE:  cpu time      0.0056: real time      0.0056
    MIXING:  cpu time      0.0008: real time      0.0008
    --------------------------------------------
      LOOP:  cpu time      0.0792: real time      0.0793

 eigenvalue-minimisations  :   465
 total energy-change (2. order) : 0.1255645E+00  (-0.4965355E-02)
 number of electron       8.0000001 magnetization 
 augmentation part       -0.4649537 magnetization 

 Broyden mixing:
  rms(total) = 0.29690E+00    rms(broyden)= 0.29690E+00
  rms(prec ) = 0.56771E+00
  weight for this iteration     100.00

 eigenvalues of (default mixing * dielectric matrix)
  average eigenvalue GAMMA=   2.5457
  2.5457

 Free energy of the ion-electron system (eV)
  ---------------------------------------------------
  alpha Z        PSCENC =         3.36414726
  Ewald energy   TEWEN  =      -228.56352493
  -Hartree energ DENC   =       -12.50225259
  -exchange      EXHF   =         0.00000000
  -V(xc)+E(xc)   XCENC  =       -18.36450958
  PAW double counting   =       379.54800237     -344.47239343
  entropy T*S    EENTRO =        -0.00000000
  eigenvalues    EBANDS =         3.96297986
  atomic energy  EATOM  =       206.13149246
  Solvation  Ediel_sol  =         0.00000000
  ext. energy  EPLUGINS =         0.00000000
  ---------------------------------------------------
  free energy    TOTEN  =       -10.89605859 eV

  energy without entropy =      -10.89605859  energy(sigma->0) =      -10.89605859


--------------------------------------------------------------------------------------------------------




--------------------------------------- Iteration      1(   7)  ---------------------------------------


    POTLOK:  cpu time      0.0159: real time      0.0160
    SETDIJ:  cpu time      0.0012: real time      0.0012
    EDDIAG:  cpu time      0.0144: real time      0.0144
  RMM-DIIS:  cpu time      0.0407: real time      0.0407
    ORTHCH:  cpu time      0.0003: real time      0.0003
       DOS:  cpu time      0.0002: real time      0.0002
    CHARGE:  cpu time      0.0056: real time      0.0056
    MIXING:  cpu time      0.0008: real time      0.0008
    --------------------------------------------
      LOOP:  cpu time      0.0791: real time      0.0792

 eigenvalue-minimisations  :   502
 total energy-change (2. order) : 0.5744300E-01  (-0.1149563E-01)
 number of electron       8.0000001 magnetization 
 augmentation part       -0.4572793 magnetization 

 Broyden mixing:
  rms(total) = 0.19415E-01    rms(broyden)= 0.19415E-01
  rms(prec ) = 0.42244E-01
  weight for this iteration     100.00

 eigenvalues of (default mixing * dielectric matrix)
  average eigenvalue GAMMA=   2.2614
  2.2283  2.2944

 Free energy of the ion-electron system (eV)
  ---------------------------------------------------
  alpha Z        PSCENC =         3.36414726
  Ewald energy   TEWEN  =      -228.56352493
  -Hartree energ DENC   =       -14.96413242
  -exchange      EXHF   =         0.00000000
  -V(xc)+E(xc)   XCENC  =       -17.96809818
  PAW double counting   =       861.38765234     -826.45777745
  entropy T*S    EENTRO =        -0.00000000
  eigenvalues    EBANDS =         6.23162532
  atomic energy  EATOM  =       206.13149246
  Solvation  Ediel_sol  =         0.00000000
  ext. energy  EPLUGINS =         0.00000000
  ---------------------------------------------------
  free energy    TOTEN  =       -10.83861559 eV

  energy without entropy =      -10.83861559  energy(sigma->0) =      -10.83861559


--------------------------------------------------------------------------------------------------------




--------------------------------------- Iteration      1(   8)  ---------------------------------------


    POTLOK:  cpu time      0.0162: real time      0.0163
    SETDIJ:  cpu time      0.0008: real time      0.0008
    EDDIAG:  cpu time      0.0142: real time      0.0142
  RMM-DIIS:  cpu time      0.0399: real time      0.0399
    ORTHCH:  cpu time      0.0003: real time      0.0003
       DOS:  cpu time      0.0002: real time      0.0002
    CHARGE:  cpu time      0.0055: real time      0.0055
    MIXING:  cpu time      0.0008: real time      0.0008
    --------------------------------------------
      LOOP:  cpu time      0.0781: real time      0.0782

 eigenvalue-minimisations  :   486
 total energy-change (2. order) :-0.1652098E-02  (-0.7752321E-03)
 number of electron       8.0000001 magnetization 
 augmentation part       -0.4585422 magnetization 

 Broyden mixing:
  rms(total) = 0.73155E-02    rms(broyden)= 0.73155E-02
  rms(prec ) = 0.13967E-01
  weight for this iteration     100.00

 eigenvalues of (default mixing * dielectric matrix)
  average eigenvalue GAMMA=   2.3270
  2.7333  2.1239  2.1239

 Free energy of the ion-electron system (eV)
  ---------------------------------------------------
  alpha Z        PSCENC =         3.36414726
  Ewald energy   TEWEN  =      -228.56352493
  -Hartree energ DENC   =       -14.87255734
  -exchange      EXHF   =         0.00000000
  -V(xc)+E(xc)   XCENC  =       -17.96845815
  PAW double counting   =       875.31655600     -840.35398533
  entropy T*S    EENTRO =        -0.00000000
  eigenvalues    EBANDS =         6.10606235
  atomic energy  EATOM  =       206.13149246
  Solvation  Ediel_sol  =         0.00000000
  ext. energy  EPLUGINS =         0.00000000
  ---------------------------------------------------
  free energy    TOTEN  =       -10.84026769 eV

  energy without entropy =      -10.84026769  energy(sigma->0) =      -10.84026769


--------------------------------------------------------------------------------------------------------




--------------------------------------- Iteration      1(   9)  ---------------------------------------


    POTLOK:  cpu time      0.0163: real time      0.0164
    SETDIJ:  cpu time      0.0009: real time      0.0009
    EDDIAG:  cpu time      0.0141: real time      0.0141
  RMM-DIIS:  cpu time      0.0415: real time      0.0415
    ORTHCH:  cpu time      0.0003: real time      0.0003
       DOS:  cpu time      0.0001: real time      0.0001
    CHARGE:  cpu time      0.0056: real time      0.0057
    MIXING:  cpu time      0.0008: real time      0.0008
    --------------------------------------------
      LOOP:  cpu time      0.0796: real time      0.0798

 eigenvalue-minimisations  :   521
 total energy-change (2. order) :-0.2216000E-03  (-0.1546102E-03)
 number of electron       8.0000001 magnetization 
 augmentation part       -0.4582877 magnetization 

 Broyden mixing:
  rms(total) = 0.79918E-02    rms(broyden)= 0.79918E-02
  rms(prec ) = 0.11659E-01
  weight for this iteration     100.00

 eigenvalues of (default mixing * dielectric matrix)
  average eigenvalue GAMMA=   1.7635
  2.7236  1.9196  1.9196  0.4913

 Free energy of the ion-electron system (eV)
  ---------------------------------------------------
  alpha Z        PSCENC =         3.36414726
  Ewald energy   TEWEN  =      -228.56352493
  -Hartree energ DENC   =       -14.94660305
  -exchange      EXHF   =         0.00000000
  -V(xc)+E(xc)   XCENC  =       -17.95781234
  PAW double counting   =       882.62977813     -847.67158018
  entropy T*S    EENTRO =        -0.00000000
  eigenvalues    EBANDS =         6.17361336
  atomic energy  EATOM  =       206.13149246
  Solvation  Ediel_sol  =         0.00000000
  ext. energy  EPLUGINS =         0.00000000
  ---------------------------------------------------
  free energy    TOTEN  =       -10.84048929 eV

  energy without entropy =      -10.84048929  energy(sigma->0) =      -10.84048929


--------------------------------------------------------------------------------------------------------




--------------------------------------- Iteration      1(  10)  ---------------------------------------


    POTLOK:  cpu time      0.0163: real time      0.0164
    SETDIJ:  cpu time      0.0007: real time      0.0007
    EDDIAG:  cpu time      0.0142: real time      0.0142
  RMM-DIIS:  cpu time      0.0407: real time      0.0407
    ORTHCH:  cpu time      0.0003: real time      0.0003
       DOS:  cpu time      0.0001: real time      0.0001
    CHARGE:  cpu time      0.0057: real time      0.0057
    MIXING:  cpu time      0.0008: real time      0.0008
    --------------------------------------------
      LOOP:  cpu time      0.0789: real time      0.0791

 eigenvalue-minimisations  :   508
 total energy-change (2. order) :-0.5777854E-04  (-0.2782544E-04)
 number of electron       8.0000001 magnetization 
 augmentation part       -0.4585762 magnetization 

 Broyden mixing:
  rms(total) = 0.26770E-02    rms(broyden)= 0.26770E-02
  rms(prec ) = 0.32555E-02
  weight for this iteration     100.00

 eigenvalues of (default mixing * dielectric matrix)
  average eigenvalue GAMMA=   2.0635
  3.1124  2.9765  2.2988  1.0525  0.8776

 Free energy of the ion-electron system (eV)
  ---------------------------------------------------
  alpha Z        PSCENC =         3.36414726
  Ewald energy   TEWEN  =      -228.56352493
  -Hartree energ DENC   =       -14.92215641
  -exchange      EXHF   =         0.00000000
  -V(xc)+E(xc)   XCENC  =       -17.96086074
  PAW double counting   =       873.36044647     -838.39838197
  entropy T*S    EENTRO =        -0.00000000
  eigenvalues    EBANDS =         6.14829079
  atomic energy  EATOM  =       206.13149246
  Solvation  Ediel_sol  =         0.00000000
  ext. energy  EPLUGINS =         0.00000000
  ---------------------------------------------------
  free energy    TOTEN  =       -10.84054707 eV

  energy without entropy =      -10.84054707  energy(sigma->0) =      -10.84054707


--------------------------------------------------------------------------------------------------------




--------------------------------------- Iteration      1(  11)  ---------------------------------------


    POTLOK:  cpu time      0.0162: real time      0.0163
    SETDIJ:  cpu time      0.0013: real time      0.0013
    EDDIAG:  cpu time      0.0141: real time      0.0141
  RMM-DIIS:  cpu time      0.0417: real time      0.0417
    ORTHCH:  cpu time      0.0004: real time      0.0004
       DOS:  cpu time      0.0001: real time      0.0001
    CHARGE:  cpu time      0.0056: real time      0.0056
    MIXING:  cpu time      0.0009: real time      0.0009
    --------------------------------------------
      LOOP:  cpu time      0.0802: real time      0.0803

 eigenvalue-minimisations  :   522
 total energy-change (2. order) :-0.1368482E-04  (-0.7860915E-05)
 number of electron       8.0000001 magnetization 
 augmentation part       -0.4586054 magnetization 

 Broyden mixing:
  rms(total) = 0.12449E-02    rms(broyden)= 0.12449E-02
  rms(prec ) = 0.15048E-02
  weight for this iteration     100.00

 eigenvalues of (default mixing * dielectric matrix)
  average eigenvalue GAMMA=   1.9280
  3.2278  2.7508  2.2683  1.0640  0.8569  1.4002

 Free energy of the ion-electron system (eV)
  ---------------------------------------------------
  alpha Z        PSCENC =         3.36414726
  Ewald energy   TEWEN  =      -228.56352493
  -Hartree energ DENC   =       -14.93503846
  -exchange      EXHF   =         0.00000000
  -V(xc)+E(xc)   XCENC  =       -17.95908093
  PAW double counting   =       872.33047595     -837.36891219
  entropy T*S    EENTRO =        -0.00000000
  eigenvalues    EBANDS =         6.15988008
  atomic energy  EATOM  =       206.13149246
  Solvation  Ediel_sol  =         0.00000000
  ext. energy  EPLUGINS =         0.00000000
  ---------------------------------------------------
  free energy    TOTEN  =       -10.84056075 eV

  energy without entropy =      -10.84056075  energy(sigma->0) =      -10.84056075


--------------------------------------------------------------------------------------------------------




--------------------------------------- Iteration      1(  12)  ---------------------------------------


    POTLOK:  cpu time      0.0162: real time      0.0163
    SETDIJ:  cpu time      0.0010: real time      0.0010
    EDDIAG:  cpu time      0.0141: real time      0.0141
  RMM-DIIS:  cpu time      0.0417: real time      0.0417
    ORTHCH:  cpu time      0.0003: real time      0.0003
       DOS:  cpu time      0.0001: real time      0.0001
    CHARGE:  cpu time      0.0055: real time      0.0056
    MIXING:  cpu time      0.0008: real time      0.0008
    --------------------------------------------
      LOOP:  cpu time      0.0799: real time      0.0800

 eigenvalue-minimisations  :   532
 total energy-change (2. order) :-0.1361628E-05  (-0.1170468E-05)
 number of electron       8.0000001 magnetization 
 augmentation part       -0.4586401 magnetization 

 Broyden mixing:
  rms(total) = 0.24454E-02    rms(broyden)= 0.24454E-02
  rms(prec ) = 0.26685E-02
  weight for this iteration     100.00

 eigenvalues of (default mixing * dielectric matrix)
  average eigenvalue GAMMA=   1.8798
  3.3438  2.5347  2.3964  2.3964  1.0415  0.8718  0.5740

 Free energy of the ion-electron system (eV)
  ---------------------------------------------------
  alpha Z        PSCENC =         3.36414726
  Ewald energy   TEWEN  =      -228.56352493
  -Hartree energ DENC   =       -14.93593022
  -exchange      EXHF   =         0.00000000
  -V(xc)+E(xc)   XCENC  =       -17.95887465
  PAW double counting   =       873.14382117     -838.18229541
  entropy T*S    EENTRO =        -0.00000000
  eigenvalues    EBANDS =         6.16060220
  atomic energy  EATOM  =       206.13149246
  Solvation  Ediel_sol  =         0.00000000
  ext. energy  EPLUGINS =         0.00000000
  ---------------------------------------------------
  free energy    TOTEN  =       -10.84056211 eV

  energy without entropy =      -10.84056211  energy(sigma->0) =      -10.84056211


--------------------------------------------------------------------------------------------------------




--------------------------------------- Iteration      1(  13)  ---------------------------------------


    POTLOK:  cpu time      0.0163: real time      0.0164
    SETDIJ:  cpu time      0.0012: real time      0.0012
    EDDIAG:  cpu time      0.0141: real time      0.0141
  RMM-DIIS:  cpu time      0.0355: real time      0.0355
    ORTHCH:  cpu time      0.0003: real time      0.0003
       DOS:  cpu time      0.0001: real time      0.0001
    CHARGE:  cpu time      0.0056: real time      0.0056
    MIXING:  cpu time      0.0009: real time      0.0009
    --------------------------------------------
      LOOP:  cpu time      0.0739: real time      0.0741

 eigenvalue-minimisations  :   435
 total energy-change (2. order) : 0.1414077E-05  (-0.3656647E-06)
 number of electron       8.0000001 magnetization 
 augmentation part       -0.4586774 magnetization 

 Broyden mixing:
  rms(total) = 0.16075E-02    rms(broyden)= 0.16075E-02
  rms(prec ) = 0.16288E-02
  weight for this iteration     100.00

 eigenvalues of (default mixing * dielectric matrix)
  average eigenvalue GAMMA=   1.8100
  3.0941  3.0941  2.6631  2.2324  1.1874  0.9709  0.8789  0.3594

 Free energy of the ion-electron system (eV)
  ---------------------------------------------------
  alpha Z        PSCENC =         3.36414726
  Ewald energy   TEWEN  =      -228.56352493
  -Hartree energ DENC   =       -14.93034830
  -exchange      EXHF   =         0.00000000
  -V(xc)+E(xc)   XCENC  =       -17.95966948
  PAW double counting   =       871.43092036     -836.46868299
  entropy T*S    EENTRO =        -0.00000000
  eigenvalues    EBANDS =         6.15510492
  atomic energy  EATOM  =       206.13149246
  Solvation  Ediel_sol  =         0.00000000
  ext. energy  EPLUGINS =         0.00000000
  ---------------------------------------------------
  free energy    TOTEN  =       -10.84056070 eV

  energy without entropy =      -10.84056070  energy(sigma->0) =      -10.84056070


--------------------------------------------------------------------------------------------------------




--------------------------------------- Iteration      1(  14)  ---------------------------------------


    POTLOK:  cpu time      0.0164: real time      0.0166
    SETDIJ:  cpu time      0.0012: real time      0.0012
    EDDIAG:  cpu time      0.0141: real time      0.0141
  RMM-DIIS:  cpu time      0.0258: real time      0.0259
    ORTHCH:  cpu time      0.0003: real time      0.0003
       DOS:  cpu time      0.0001: real time      0.0001
    --------------------------------------------
      LOOP:  cpu time      0.0582: real time      0.0583

 eigenvalue-minimisations  :   299
 total energy-change (2. order) :-0.2388156E-06  (-0.7024488E-07)
 number of electron       8.0000001 magnetization 
 augmentation part       -0.4586774 magnetization 

 Free energy of the ion-electron system (eV)
  ---------------------------------------------------
  alpha Z        PSCENC =         3.36414726
  Ewald energy   TEWEN  =      -228.56352493
  -Hartree energ DENC   =       -14.93067621
  -exchange      EXHF   =         0.00000000
  -V(xc)+E(xc)   XCENC  =       -17.95972191
  PAW double counting   =       870.82295331     -835.86088400
  entropy T*S    EENTRO =        -0.00000000
  eigenvalues    EBANDS =         6.15565309
  atomic energy  EATOM  =       206.13149246
  Solvation  Ediel_sol  =         0.00000000
  ext. energy  EPLUGINS =         0.00000000
  ---------------------------------------------------
  free energy    TOTEN  =       -10.84056094 eV

  energy without entropy =      -10.84056094  energy(sigma->0) =      -10.84056094


--------------------------------------------------------------------------------------------------------




 average (electrostatic) potential at core
  the test charge radii are     0.9892
  (the norm of the test charge is              1.0000)
       1 -83.2414       2 -83.2414
 
 
 
 E-fermi :   6.0469     XC(G=0):  -9.4096     alpha+bet :-11.9845

 val. band max:        5.8315152476   @ k =   0.0000   0.0000   0.0000
 cond. band min:       6.4471876471   @ k =   0.3750   0.3750   0.0000
 fundamental gap:      0.6156723995
 Fermi energy:         6.0469251928

 k-point     1 :       0.0000    0.0000    0.0000
  band No.  band energies     occupation 
      1      -6.1289      2.00000
      2       5.8315      2.00000
      3       5.8315      2.00000
      4       5.8315      2.00000
      5       8.3969      0.00000
      6       8.3969      0.00000
      7       8.3969      0.00000
      8       9.2097      0.00000

 k-point     2 :       0.1250    0.0000    0.0000
  band No.  band energies     occupation 
      1      -5.9247      2.00000
      2       4.2345      2.00000
      3       5.5429      2.00000
      4       5.5429      2.00000
      5       8.3377      0.00000
      6       8.8213      0.00000
      7       8.8213      0.00000
      8      10.5522      0.00000

 k-point     3 :       0.2500    0.0000    0.0000
  band No.  band energies     occupation 
      1      -5.3289      2.00000
      2       1.9065      2.00000
      3       5.0726      2.00000
      4       5.0726      2.00000
      5       7.8648      0.00000
      6       9.3390      0.00000
      7       9.3390      0.00000
      8      12.7587      0.00000

 k-point     4 :       0.3750    0.0000    0.0000
  band No.  band energies     occupation 
      1      -4.4348      2.00000
      2      -0.1137      2.00000
      3       4.7459      2.00000
      4       4.7459      2.00000
      5       7.5014      0.00000
      6       9.2831      0.00000
      7       9.2831      0.00000
      8      13.7172      0.00000

 k-point     5 :       0.5000    0.0000    0.0000
  band No.  band energies     occupation 
      1      -3.7966      2.00000
      2      -1.1364      2.00000
      3       4.6342      2.00000
      4       4.6342      2.00000
      5       7.3735      0.00000
      6       9.1720      0.00000
      7       9.1720      0.00000
      8      13.5618      0.00000

 k-point     6 :       0.1250    0.1250    0.0000
  band No.  band energies     occupation 
      1      -5.8559      2.00000
      2       4.5001      2.00000
      3       5.0254      2.00000
      4       5.0254      2.00000
      5       7.8451      0.00000
      6       9.5372      0.00000
      7       9.5372      0.00000
      8      10.2388      0.00000

 k-point     7 :       0.2500    0.1250    0.0000
  band No.  band energies     occupation 
      1      -5.3870      2.00000
      2       2.6098      2.00000
      3       4.5140      2.00000
      4       4.5905      2.00000
      5       7.9811      0.00000
      6       9.5447      0.00000
      7      10.3016      0.00000
      8      10.5829      0.00000

 k-point     8 :       0.3750    0.1250    0.0000
  band No.  band energies     occupation 
      1      -4.5718      2.00000
      2       0.5490      2.00000
      3       3.9992      2.00000
      4       4.2461      2.00000
      5       8.0807      0.00000
      6       9.4763      0.00000
      7      10.2970      0.00000
      8      11.3001      0.00000

 k-point     9 :       0.5000    0.1250    0.0000
  band No.  band energies     occupation 
      1      -3.7099      2.00000
      2      -0.9148      2.00000
      3       3.5535      2.00000
      4       4.2708      2.00000
      5       8.0281      0.00000
      6       9.3482      0.00000
      7       9.9326      0.00000
      8      13.2044      0.00000

 k-point    10 :      -0.3750    0.1250    0.0000
  band No.  band energies     occupation 
      1      -3.9546      2.00000
      2      -0.5441      2.00000
      3       3.3717      2.00000
      4       4.5672      2.00000
      5       8.1952      0.00000
      6       9.4560      0.00000
      7       9.7008      0.00000
      8      13.7529      0.00000

 k-point    11 :      -0.2500    0.1250    0.0000
  band No.  band energies     occupation 
      1      -4.8782      2.00000
      2       1.2083      2.00000
      3       3.5223      2.00000
      4       5.0586      2.00000
      5       8.5546      0.00000
      6       9.5106      0.00000
      7       9.6890      0.00000
      8      12.1347      0.00000

 k-point    12 :      -0.1250    0.1250    0.0000
  band No.  band energies     occupation 
      1      -5.5884      2.00000
      2       3.1500      2.00000
      3       4.2040      2.00000
      4       5.5393      2.00000
      5       8.8790      0.00000
      6       8.9579      0.00000
      7       9.1923      0.00000
      8      11.3874      0.00000

 k-point    13 :       0.2500    0.2500    0.0000
  band No.  band energies     occupation 
      1      -5.0465      2.00000
      2       2.3175      2.00000
      3       3.9429      2.00000
      4       3.9429      2.00000
      5       6.9628      0.00000
      6       8.9655      0.00000
      7      11.5909      0.00000
      8      11.5909      0.00000

 k-point    14 :       0.3750    0.2500    0.0000
  band No.  band energies     occupation 
      1      -4.3362      2.00000
      2       0.8936      2.00000
      3       3.1624      2.00000
      4       3.6249      2.00000
      5       7.1832      0.00000
      6       8.7268      0.00000
      7      11.8328      0.00000
      8      12.1024      0.00000

 k-point    15 :       0.5000    0.2500    0.0000
  band No.  band energies     occupation 
      1      -3.4098      2.00000
      2      -0.5488      2.00000
      3       2.2989      2.00000
      4       3.6282      2.00000
      5       7.3521      0.00000
      6      10.2801      0.00000
      7      11.5814      0.00000
      8      11.7521      0.00000

 k-point    16 :      -0.3750    0.2500    0.0000
  band No.  band energies     occupation 
      1      -3.2054      2.00000
      2      -0.8073      2.00000
      3       1.8403      2.00000
      4       3.9466      2.00000
      5       7.6769      0.00000
      6      11.2981      0.00000
      7      11.3134      0.00000
      8      12.7947      0.00000

 k-point    17 :      -0.2500    0.2500    0.0000
  band No.  band energies     occupation 
      1      -4.0843      2.00000
      2       0.3539      2.00000
      3       2.0803      2.00000
      4       4.5051      2.00000
      5       8.2833      0.00000
      6      10.6240      0.00000
      7      10.9651      0.00000
      8      11.9848      0.00000

 k-point    18 :       0.3750    0.3750    0.0000
  band No.  band energies     occupation 
      1      -3.7335      2.00000
      2       0.0891      2.00000
      3       3.2267      2.00000
      4       3.2267      2.00000
      5       6.4472      0.00000
      6       7.3713      0.00000
      7      13.8757      0.00000
      8      13.8757      0.00000

 k-point    19 :       0.5000    0.3750    0.0000
  band No.  band energies     occupation 
      1      -2.8359      2.00000
      2      -0.9961      2.00000
      3       2.3973      2.00000
      4       3.1506      2.00000
      5       6.7262      0.00000
      6       7.7992      0.00000
      7      14.1007      0.00000
      8      14.1906      0.00000

 k-point    20 :      -0.3750    0.3750    0.0000
  band No.  band energies     occupation 
      1      -2.3968      2.00000
      2      -1.3929      2.00000
      3       1.5310      2.00000
      4       3.4081      2.00000
      5       7.0358      0.00000
      6       9.9607      0.00000
      7      13.3049      0.00000
      8      13.8473      0.00000

 k-point    21 :       0.5000    0.5000    0.0000
  band No.  band energies     occupation 
      1      -1.9831      2.00000
      2      -1.9831      2.00000
      3       2.9811      2.00000
      4       2.9811      2.00000
      5       6.5412      0.00000
      6       6.5412      0.00000
      7      15.9508      0.00000
      8      15.9509      0.00000

 k-point    22 :       0.3750    0.2500    0.1250
  band No.  band energies     occupation 
      1      -4.7990      2.00000
      2       1.5448      2.00000
      3       3.1199      2.00000
      4       4.4052      2.00000
      5       8.2805      0.00000
      6       9.7384      0.00000
      7      10.0251      0.00000
      8      11.3354      0.00000

 k-point    23 :       0.5000    0.2500    0.1250
  band No.  band energies     occupation 
      1      -3.9103      2.00000
      2      -0.0075      2.00000
      3       2.5122      2.00000
      4       3.9037      2.00000
      5       8.7103      0.00000
      6       9.3873      0.00000
      7      10.8528      0.00000
      8      11.7695      0.00000

 k-point    24 :      -0.3750    0.2500    0.1250
  band No.  band energies     occupation 
      1      -3.2577      2.00000
      2      -0.9529      2.00000
      3       2.3835      2.00000
      4       3.6740      2.00000
      5       8.9016      0.00000
      6       8.9636      0.00000
      7      11.7452      0.00000
      8      12.9510      0.00000

 k-point    25 :       0.5000    0.3750    0.1250
  band No.  band energies     occupation 
      1      -3.5348      2.00000
      2      -0.1299      2.00000
      3       2.4709      2.00000
      4       3.0738      2.00000
      5       7.7795      0.00000
      6       8.4783      0.00000
      7      11.5885      0.00000
      8      13.8248      0.00000

 k-point    26 :      -0.3750    0.3750    0.1250
  band No.  band energies     occupation 
      1      -2.6597      2.00000
      2      -1.0981      2.00000
      3       1.7725      2.00000
      4       2.8730      2.00000
      5       8.2207      0.00000
      6      10.1127      0.00000
      7      11.1118      0.00000
      8      13.2745      0.00000

 k-point    27 :      -0.2500    0.3750    0.1250
  band No.  band energies     occupation 
      1      -3.0104      2.00000
      2      -0.7348      2.00000
      3       1.6056      2.00000
      4       3.2490      2.00000
      5       8.7007      0.00000
      6      10.3771      0.00000
      7      11.0486      0.00000
      8      12.8631      0.00000

 k-point    28 :      -0.3750    0.5000    0.1250
  band No.  band energies     occupation 
      1      -1.9050      2.00000
      2      -1.9050      2.00000
      3       2.4164      2.00000
      4       2.4164      2.00000
      5       7.8025      0.00000
      6       7.8025      0.00000
      7      13.6816      0.00000
      8      13.6816      0.00000

 k-point    29 :      -0.2500    0.5000    0.2500
  band No.  band energies     occupation 
      1      -1.8190      2.00000
      2      -1.8190      2.00000
      3       1.9802      2.00000
      4       1.9802      2.00000
      5      10.1000      0.00000
      6      10.1000      0.00000
      7      10.8387      0.00000
      8      10.8387      0.00000


--------------------------------------------------------------------------------------------------------


 soft charge-density along one line, spin component           1
         0         1         2         3         4         5         6         7         8         9
 total charge-density along one line
 
 pseudopotential strength for first ion, spin component:           1
 18.413  25.689  -0.000  -0.000  -0.000  -0.000  -0.000  -0.000
 25.689  35.845  -0.000  -0.000  -0.000  -0.000  -0.000  -0.000
 -0.000  -0.000   4.178  -0.000  -0.000   7.786  -0.000  -0.000
 -0.000  -0.000  -0.000   4.178  -0.000  -0.000   7.786  -0.000
 -0.000  -0.000  -0.000  -0.000   4.178  -0.000  -0.000   7.786
 -0.000  -0.000   7.786  -0.000  -0.000  14.519  -0.000  -0.000
 -0.000  -0.000  -0.000   7.786  -0.000  -0.000  14.519  -0.000
 -0.000  -0.000  -0.000  -0.000   7.786  -0.000  -0.000  14.519
 total augmentation occupancy for first ion, spin component:           1
  5.715  -2.166  -0.000  -0.000   0.000  -0.000  -0.000  -0.000
 -2.166   0.935  -0.000  -0.000  -0.000   0.000   0.000   0.000
 -0.000  -0.000   2.982  -0.000   0.000  -0.672   0.000  -0.000
 -0.000  -0.000  -0.000   2.982   0.000   0.000  -0.672  -0.000
  0.000  -0.000   0.000   0.000   2.982  -0.000  -0.000  -0.672
 -0.000   0.000  -0.672   0.000  -0.000   0.160  -0.000   0.000
 -0.000   0.000   0.000  -0.672  -0.000  -0.000   0.160   0.000
 -0.000   0.000  -0.000  -0.000  -0.672   0.000   0.000   0.160


------------------------ aborting loop because EDIFF is reached ----------------------------------------


    CHARGE:  cpu time      0.0057: real time      0.0057
    FORLOC:  cpu time      0.0005: real time      0.0005
    FORNL :  cpu time      0.0038: real time      0.0038
    STRESS:  cpu time      0.0156: real time      0.0156
    FORCOR:  cpu time      0.0161: real time      0.0161
    FORHAR:  cpu time      0.0026: real time      0.0026
    MIXING:  cpu time      0.0008: real time      0.0008
    OFIELD:  cpu time      0.0000: real time      0.0000

  FORCE on cell =-STRESS in cart. coord.  units (eV):
  Direction    XX          YY          ZZ          XY          YZ          ZX
  --------------------------------------------------------------------------------------
  Alpha Z     3.36415     3.36415     3.36415
  Ewald     -76.18788   -76.18788   -76.18788    -0.00000     0.00000    -0.00000
  Hartree     4.97652     4.97652     4.97652     0.00000     0.00000     0.00000
  E(xc)     -25.37105   -25.37105   -25.37105     0.00000     0.00000     0.00000
  Local     -29.22924   -29.22924   -29.22924     0.00001     0.00001     0.00001
  n-local    78.97711    80.12870    74.41435     2.26892    -1.21849     0.61539
  augment   -11.64937   -11.64937   -11.64937    -0.00001    -0.00001    -0.00001
  Kinetic    58.78832    56.32223    55.14309     3.52715    -0.73807     0.99347
  Fock        0.00000     0.00000     0.00000     0.00000     0.00000     0.00000
  -------------------------------------------------------------------------------------
  Total       0.49440     0.49440     0.49440     0.00000    -0.00000     0.00000
  in kB      19.79008    19.79008    19.79008     0.00000    -0.00000     0.00000
  external pressure =       19.79 kB  Pullay stress =        0.00 kB


 VOLUME and BASIS-vectors are now :
 -----------------------------------------------------------------------------
  energy-cutoff  :      400.00
  volume of cell :       40.03
      direct lattice vectors                 reciprocal lattice vectors
     0.000000000  2.715000000  2.715000000    -0.184162063  0.184162063  0.184162063
     2.715000000  0.000000000  2.715000000     0.184162063 -0.184162063  0.184162063
     2.715000000  2.715000000  0.000000000     0.184162063  0.184162063 -0.184162063

  length of vectors
     3.839589822  3.839589822  3.839589822     0.318978049  0.318978049  0.318978049


 FORCES acting on ions
    electron-ion (+dipol)            ewald-force                    non-local-force                 convergence-correction
 -----------------------------------------------------------------------------------------------
   0.741E-08 0.741E-08 0.398E-08   -.117E-14 0.219E-14 0.383E-14   -.128E-16 -.497E-17 0.141E-16   0.197E-08 0.197E-08 0.197E-08
   -.741E-08 -.741E-08 -.398E-08   0.135E-14 -.221E-14 -.373E-14   0.249E-16 0.101E-16 -.138E-16   -.197E-08 -.197E-08 -.197E-08
 -----------------------------------------------------------------------------------------------
   0.104E-12 0.396E-13 -.759E-14   0.184E-15 -.290E-16 0.102E-15   0.121E-16 0.516E-17 0.252E-18   -.548E-14 0.584E-15 -.192E-14
 
 
 POSITION                                       TOTAL-FORCE (eV/Angst)
 -----------------------------------------------------------------------------------
      0.00000      0.00000      0.00000         0.000000      0.000000      0.000000
      1.35750      1.35750      1.35750        -0.000000     -0.000000     -0.000000
 -----------------------------------------------------------------------------------
    total drift:                                0.000000      0.000000     -0.000000


--------------------------------------------------------------------------------------------------------



  FREE ENERGIE OF THE ION-ELECTRON SYSTEM (eV)
  ---------------------------------------------------
  free  energy   TOTEN  =       -10.84056094 eV

  energy  without entropy=      -10.84056094  energy(sigma->0) =      -10.84056094
 


--------------------------------------------------------------------------------------------------------


    POTLOK:  cpu time      0.0165: real time      0.0165


--------------------------------------------------------------------------------------------------------


 writing wavefunctions
     LOOP+:  cpu time      1.2019: real time      1.2039
    4ORBIT:  cpu time      0.0000: real time      0.0000

 total amount of memory used by VASP MPI-rank0    35139. kBytes
=======================================================================

   base                                    :      30000. kBytes
   nonl-proj                               :        354. kBytes
   fftplans                                :       1675. kBytes
   grid                                    :       2380. kBytes
   one-center                              :          3. kBytes
   wavefun                                 :        727. kBytes
 
  
  
 General timing and accounting informations for this job:
 ========================================================
  
                  Total CPU time used (sec):        1.752
                            User time (sec):        1.397
                          System time (sec):        0.355
                         Elapsed time (sec):        2.191
  
                   Maximum memory used (kb):      152700.
                   Average memory used (kb):          N/A
  
                          Minor page faults:        22318
                          Major page faults:            2
                 Voluntary context switches:         1136
