   2   2   1   0
  0.2001288E+02  0.3839590E-09  0.3839590E-09  0.3839590E-09  0.5000000E-15
  1.000000000000000E-004
  CAR 
 Si_diamond_PBE_band_vasp                
     22.57065116     -7.49556704  301      6.04675874      1.00000000
     -7.496  0.0000E+00  0.0000E+00
     -7.395  0.0000E+00  0.0000E+00
     -7.295  0.0000E+00  0.0000E+00
     -7.195  0.0000E+00  0.0000E+00
     -7.095  0.0000E+00  0.0000E+00
     -6.994  0.0000E+00  0.0000E+00
     -6.894  0.0000E+00  0.0000E+00
     -6.794  0.0000E+00  0.0000E+00
     -6.694  0.0000E+00  0.0000E+00
     -6.594  0.0000E+00  0.0000E+00
     -6.493  0.0000E+00  0.0000E+00
     -6.393  0.2001E-13  0.2005E-14
     -6.293  0.1045E-05  0.1047E-06
     -6.193  0.2773E-01  0.2779E-02
     -6.092  0.1103E+01  0.1134E+00
     -5.992  0.1142E+01  0.2278E+00
     -5.892  0.6871E+00  0.2967E+00
     -5.792  0.5477E+00  0.3516E+00
     -5.692  0.4710E+00  0.3988E+00
     -5.591  0.4203E+00  0.4409E+00
     -5.491  0.3822E+00  0.4792E+00
     -5.391  0.3555E+00  0.5148E+00
     -5.291  0.3376E+00  0.5486E+00
     -5.190  0.3246E+00  0.5812E+00
     -5.090  0.3084E+00  0.6121E+00
     -4.990  0.2811E+00  0.6403E+00
     -4.890  0.2618E+00  0.6665E+00
     -4.790  0.2801E+00  0.6946E+00
     -4.689  0.2867E+00  0.7233E+00
     -4.589  0.2338E+00  0.7467E+00
     -4.489  0.2384E+00  0.7706E+00
     -4.389  0.2899E+00  0.7997E+00
     -4.289  0.2256E+00  0.8223E+00
     -4.188  0.2391E+00  0.8463E+00
     -4.088  0.2942E+00  0.8757E+00
     -3.988  0.2197E+00  0.8978E+00
     -3.888  0.3210E+00  0.9299E+00
     -3.787  0.4175E+00  0.9718E+00
     -3.687  0.1917E+00  0.9910E+00
     -3.587  0.1582E+00  0.1007E+01
     -3.487  0.1100E+00  0.1018E+01
     -3.387  0.1391E+00  0.1032E+01
     -3.286  0.1214E+00  0.1044E+01
     -3.186  0.1458E+00  0.1059E+01
     -3.086  0.9159E-01  0.1068E+01
     -2.986  0.1853E+00  0.1086E+01
     -2.885  0.8011E-01  0.1094E+01
     -2.785  0.1683E+00  0.1111E+01
     -2.685  0.1117E+00  0.1122E+01
     -2.585  0.1853E+00  0.1141E+01
     -2.485  0.1150E+00  0.1153E+01
     -2.384  0.7771E+00  0.1230E+01
     -2.284  0.1218E+01  0.1352E+01
     -2.184  0.7332E+00  0.1426E+01
     -2.084  0.5421E+00  0.1480E+01
     -1.983  0.1603E+01  0.1641E+01
     -1.883  0.4139E+01  0.2056E+01
     -1.783  0.3496E+01  0.2406E+01
     -1.683  0.7374E+00  0.2480E+01
     -1.583  0.5141E+00  0.2531E+01
     -1.482  0.8771E+00  0.2619E+01
     -1.382  0.1766E+01  0.2796E+01
     -1.282  0.6205E+00  0.2859E+01
     -1.182  0.1426E+00  0.2873E+01
     -1.081  0.3504E+00  0.2908E+01
     -0.981  0.3215E+00  0.2940E+01
     -0.881  0.2065E+00  0.2961E+01
     -0.781  0.2415E+00  0.2985E+01
     -0.681  0.1600E+00  0.3001E+01
     -0.580  0.2412E+00  0.3025E+01
     -0.480  0.1482E+00  0.3040E+01
     -0.380  0.1688E+00  0.3057E+01
     -0.280  0.2152E+00  0.3079E+01
     -0.179  0.1195E+00  0.3091E+01
     -0.079  0.2043E+00  0.3111E+01
      0.021  0.1474E+00  0.3126E+01
      0.121  0.1292E+00  0.3139E+01
      0.221  0.2154E+00  0.3160E+01
      0.322  0.8497E-01  0.3169E+01
      0.422  0.2222E+00  0.3191E+01
      0.522  0.9587E-01  0.3201E+01
      0.622  0.1669E+00  0.3218E+01
      0.723  0.1559E+00  0.3233E+01
      0.823  0.1216E+00  0.3245E+01
      0.923  0.1747E+00  0.3263E+01
      1.023  0.9576E-01  0.3272E+01
      1.123  0.1749E+00  0.3290E+01
      1.224  0.1072E+00  0.3301E+01
      1.324  0.1916E+00  0.3320E+01
      1.424  0.2991E+00  0.3350E+01
      1.524  0.1022E+01  0.3452E+01
      1.625  0.1712E+01  0.3624E+01
      1.725  0.1041E+01  0.3728E+01
      1.825  0.8921E+00  0.3818E+01
      1.925  0.7180E+00  0.3890E+01
      2.025  0.1953E+01  0.4085E+01
      2.126  0.1579E+01  0.4243E+01
      2.226  0.1152E+01  0.4359E+01
      2.326  0.1116E+01  0.4471E+01
      2.426  0.8706E+00  0.4558E+01
      2.527  0.9450E+00  0.4653E+01
      2.627  0.9299E+00  0.4746E+01
      2.727  0.8460E+00  0.4831E+01
      2.827  0.1048E+01  0.4936E+01
      2.927  0.1162E+01  0.5052E+01
      3.028  0.2226E+01  0.5275E+01
      3.128  0.1222E+01  0.5398E+01
      3.228  0.8713E+00  0.5485E+01
      3.328  0.8441E+00  0.5570E+01
      3.428  0.1158E+01  0.5686E+01
      3.529  0.6723E+00  0.5753E+01
      3.629  0.5809E+00  0.5811E+01
      3.729  0.5951E+00  0.5871E+01
      3.829  0.4486E+00  0.5916E+01
      3.930  0.5796E+00  0.5974E+01
      4.030  0.5120E+00  0.6025E+01
      4.130  0.3847E+00  0.6064E+01
      4.230  0.6224E+00  0.6126E+01
      4.330  0.3603E+00  0.6163E+01
      4.431  0.4602E+00  0.6209E+01
      4.531  0.5510E+00  0.6264E+01
      4.631  0.8407E+00  0.6348E+01
      4.731  0.1964E+01  0.6545E+01
      4.832  0.1205E+01  0.6666E+01
      4.932  0.1097E+01  0.6776E+01
      5.032  0.1025E+01  0.6878E+01
      5.132  0.9483E+00  0.6973E+01
      5.232  0.8841E+00  0.7062E+01
      5.333  0.1005E+01  0.7163E+01
      5.433  0.9469E+00  0.7258E+01
      5.533  0.1068E+01  0.7365E+01
      5.633  0.1151E+01  0.7480E+01
      5.734  0.1495E+01  0.7630E+01
      5.834  0.2708E+01  0.7901E+01
      5.934  0.9821E+00  0.8000E+01
      6.034  0.2721E-02  0.8000E+01
      6.134  0.6190E-08  0.8000E+01
      6.235  0.2359E-06  0.8000E+01
      6.335  0.9427E-02  0.8001E+01
      6.435  0.5309E+00  0.8054E+01
      6.535  0.9718E+00  0.8152E+01
      6.636  0.1281E+01  0.8280E+01
      6.736  0.7763E+00  0.8358E+01
      6.836  0.6239E+00  0.8420E+01
      6.936  0.5488E+00  0.8475E+01
      7.036  0.7086E+00  0.8546E+01
      7.137  0.9985E+00  0.8646E+01
      7.237  0.7767E+00  0.8724E+01
      7.337  0.7708E+00  0.8801E+01
      7.437  0.1317E+01  0.8933E+01
      7.538  0.1056E+01  0.9039E+01
      7.638  0.9078E+00  0.9130E+01
      7.738  0.8339E+00  0.9214E+01
      7.838  0.7482E+00  0.9289E+01
      7.938  0.8007E+00  0.9369E+01
      8.039  0.7531E+00  0.9445E+01
      8.139  0.7763E+00  0.9522E+01
      8.239  0.7387E+00  0.9596E+01
      8.339  0.9366E+00  0.9690E+01
      8.440  0.3159E+01  0.1001E+02
      8.540  0.2420E+01  0.1025E+02
      8.640  0.1505E+01  0.1040E+02
      8.740  0.1546E+01  0.1056E+02
      8.840  0.1558E+01  0.1071E+02
      8.941  0.1582E+01  0.1087E+02
      9.041  0.1018E+01  0.1097E+02
      9.141  0.1096E+01  0.1108E+02
      9.241  0.2851E+01  0.1137E+02
      9.342  0.2951E+01  0.1166E+02
      9.442  0.2005E+01  0.1186E+02
      9.542  0.7275E+00  0.1194E+02
      9.642  0.7806E+00  0.1202E+02
      9.742  0.7886E+00  0.1209E+02
      9.843  0.6391E+00  0.1216E+02
      9.943  0.1157E+01  0.1227E+02
     10.043  0.2467E+01  0.1252E+02
     10.143  0.2477E+01  0.1277E+02
     10.244  0.1276E+01  0.1290E+02
     10.344  0.4363E+00  0.1294E+02
     10.444  0.4108E+00  0.1298E+02
     10.544  0.3729E+00  0.1302E+02
     10.644  0.2270E+00  0.1304E+02
     10.745  0.3861E+00  0.1308E+02
     10.845  0.7304E+00  0.1315E+02
     10.945  0.1197E+01  0.1327E+02
     11.045  0.8843E+00  0.1336E+02
     11.145  0.7599E+00  0.1344E+02
     11.246  0.8004E+00  0.1352E+02
     11.346  0.7833E+00  0.1360E+02
     11.446  0.8567E+00  0.1368E+02
     11.546  0.1121E+01  0.1380E+02
     11.647  0.9034E+00  0.1389E+02
     11.747  0.8819E+00  0.1398E+02
     11.847  0.6869E+00  0.1404E+02
     11.947  0.1101E+01  0.1415E+02
     12.047  0.1294E+01  0.1428E+02
     12.148  0.9317E+00  0.1438E+02
     12.248  0.8556E+00  0.1446E+02
     12.348  0.1049E+01  0.1457E+02
     12.448  0.8646E+00  0.1465E+02
     12.549  0.1081E+01  0.1476E+02
     12.649  0.7501E+00  0.1484E+02
     12.749  0.8919E+00  0.1493E+02
     12.849  0.1041E+01  0.1503E+02
     12.949  0.1975E+01  0.1523E+02
     13.050  0.1755E+01  0.1541E+02
     13.150  0.1488E+01  0.1556E+02
     13.250  0.1352E+01  0.1569E+02
     13.350  0.1675E+01  0.1586E+02
     13.451  0.1730E+01  0.1603E+02
     13.551  0.2554E+01  0.1629E+02
     13.651  0.2483E+01  0.1654E+02
     13.751  0.1479E+01  0.1668E+02
     13.851  0.1947E+01  0.1688E+02
     13.952  0.1548E+01  0.1704E+02
     14.052  0.1187E+01  0.1715E+02
     14.152  0.1276E+01  0.1728E+02
     14.252  0.8003E+00  0.1736E+02
     14.353  0.1180E+01  0.1748E+02
     14.453  0.9805E+00  0.1758E+02
     14.553  0.7640E+00  0.1766E+02
     14.653  0.1068E+01  0.1776E+02
     14.753  0.1063E+01  0.1787E+02
     14.854  0.1290E+01  0.1800E+02
     14.954  0.1279E+01  0.1813E+02
     15.054  0.1203E+01  0.1825E+02
     15.154  0.7912E+00  0.1833E+02
     15.255  0.9237E+00  0.1842E+02
     15.355  0.8296E+00  0.1850E+02
     15.455  0.9101E+00  0.1859E+02
     15.555  0.7968E+00  0.1867E+02
     15.655  0.1011E+01  0.1877E+02
     15.756  0.9026E+00  0.1886E+02
     15.856  0.1033E+01  0.1897E+02
     15.956  0.1605E+01  0.1913E+02
     16.056  0.9451E+00  0.1922E+02
     16.157  0.5746E+00  0.1928E+02
     16.257  0.8105E+00  0.1936E+02
     16.357  0.1092E+01  0.1947E+02
     16.457  0.5880E+01  0.2006E+02
     16.557  0.2699E+01  0.2033E+02
     16.658  0.1661E+01  0.2050E+02
     16.758  0.1072E+01  0.2061E+02
     16.858  0.1337E+01  0.2074E+02
     16.958  0.1002E+01  0.2084E+02
     17.059  0.1175E+01  0.2096E+02
     17.159  0.1591E+01  0.2112E+02
     17.259  0.7349E+00  0.2119E+02
     17.359  0.7154E+00  0.2126E+02
     17.459  0.5046E+00  0.2131E+02
     17.560  0.4470E+00  0.2136E+02
     17.660  0.5513E+00  0.2141E+02
     17.760  0.4231E+00  0.2146E+02
     17.860  0.5249E+00  0.2151E+02
     17.960  0.4549E+00  0.2155E+02
     18.061  0.2785E+00  0.2158E+02
     18.161  0.6595E+00  0.2165E+02
     18.261  0.3500E+00  0.2168E+02
     18.361  0.5313E+00  0.2174E+02
     18.462  0.1487E+01  0.2189E+02
     18.562  0.1221E+01  0.2201E+02
     18.662  0.2495E+01  0.2226E+02
     18.762  0.2498E+01  0.2251E+02
     18.862  0.2877E+01  0.2280E+02
     18.963  0.1901E+01  0.2299E+02
     19.063  0.6533E+00  0.2305E+02
     19.163  0.7710E+00  0.2313E+02
     19.263  0.5617E+00  0.2319E+02
     19.364  0.7572E+00  0.2326E+02
     19.464  0.5853E+00  0.2332E+02
     19.564  0.4275E+00  0.2336E+02
     19.664  0.4504E+00  0.2341E+02
     19.764  0.5112E+00  0.2346E+02
     19.865  0.4132E+00  0.2350E+02
     19.965  0.3872E+00  0.2354E+02
     20.065  0.3466E+00  0.2357E+02
     20.165  0.3404E+00  0.2361E+02
     20.266  0.3547E+00  0.2364E+02
     20.366  0.3443E+00  0.2368E+02
     20.466  0.3662E+00  0.2372E+02
     20.566  0.3894E+00  0.2375E+02
     20.666  0.4747E+00  0.2380E+02
     20.767  0.4749E+00  0.2385E+02
     20.867  0.3583E+00  0.2389E+02
     20.967  0.2614E+00  0.2391E+02
     21.067  0.5127E+00  0.2396E+02
     21.168  0.2561E+00  0.2399E+02
     21.268  0.1037E+00  0.2400E+02
     21.368  0.3952E-02  0.2400E+02
     21.468  0.1945E-06  0.2400E+02
     21.568  0.4333E-14  0.2400E+02
     21.669  0.0000E+00  0.2400E+02
     21.769  0.0000E+00  0.2400E+02
     21.869  0.0000E+00  0.2400E+02
     21.969  0.0000E+00  0.2400E+02
     22.070  0.0000E+00  0.2400E+02
     22.170  0.0000E+00  0.2400E+02
     22.270  0.0000E+00  0.2400E+02
     22.370  0.0000E+00  0.2400E+02
     22.470  0.0000E+00  0.2400E+02
     22.571  0.0000E+00  0.2400E+02
     22.57065116     -7.49556704  301      6.04675874      1.00000000
     -7.496  0.0000E+00  0.0000E+00  0.0000E+00  0.0000E+00  0.0000E+00  0.0000E+00  0.0000E+00  0.0000E+00  0.0000E+00
     -7.395  0.0000E+00  0.0000E+00  0.0000E+00  0.0000E+00  0.0000E+00  0.0000E+00  0.0000E+00  0.0000E+00  0.0000E+00
     -7.295  0.0000E+00  0.0000E+00  0.0000E+00  0.0000E+00  0.0000E+00  0.0000E+00  0.0000E+00  0.0000E+00  0.0000E+00
     -7.195  0.0000E+00  0.0000E+00  0.0000E+00  0.0000E+00  0.0000E+00  0.0000E+00  0.0000E+00  0.0000E+00  0.0000E+00
     -7.095  0.0000E+00  0.0000E+00  0.0000E+00  0.0000E+00  0.0000E+00  0.0000E+00  0.0000E+00  0.0000E+00  0.0000E+00
     -6.994  0.0000E+00  0.0000E+00  0.0000E+00  0.0000E+00  0.0000E+00  0.0000E+00  0.0000E+00  0.0000E+00  0.0000E+00
     -6.894  0.0000E+00  0.0000E+00  0.0000E+00  0.0000E+00  0.0000E+00  0.0000E+00  0.0000E+00  0.0000E+00  0.0000E+00
     -6.794  0.0000E+00  0.0000E+00  0.0000E+00  0.0000E+00  0.0000E+00  0.0000E+00  0.0000E+00  0.0000E+00  0.0000E+00
     -6.694  0.0000E+00  0.0000E+00  0.0000E+00  0.0000E+00  0.0000E+00  0.0000E+00  0.0000E+00  0.0000E+00  0.0000E+00
     -6.594  0.0000E+00  0.0000E+00  0.0000E+00  0.0000E+00  0.0000E+00  0.0000E+00  0.0000E+00  0.0000E+00  0.0000E+00
     -6.493  0.0000E+00  0.0000E+00  0.0000E+00  0.0000E+00  0.0000E+00  0.0000E+00  0.0000E+00  0.0000E+00  0.0000E+00
     -6.393  0.4271E-14  0.1121E-18  0.1121E-18  0.1121E-18  0.0000E+00  0.0000E+00  0.0000E+00  0.0000E+00  0.0000E+00
     -6.293  0.2230E-06  0.9587E-11  0.9587E-11  0.9587E-11  0.0000E+00  0.0000E+00  0.0000E+00  0.0000E+00  0.0000E+00
     -6.193  0.5918E-02  0.5329E-06  0.5329E-06  0.5329E-06  0.0000E+00  0.0000E+00  0.0000E+00  0.0000E+00  0.0000E+00
     -6.092  0.2354E+00  0.6713E-04  0.6713E-04  0.6713E-04  0.0000E+00  0.0000E+00  0.0000E+00  0.0000E+00  0.0000E+00
     -5.992  0.2433E+00  0.2962E-03  0.2962E-03  0.2962E-03  0.0000E+00  0.0000E+00  0.0000E+00  0.0000E+00  0.0000E+00
     -5.892  0.1460E+00  0.4516E-03  0.4516E-03  0.4516E-03  0.0000E+00  0.0000E+00  0.0000E+00  0.0000E+00  0.0000E+00
     -5.792  0.1161E+00  0.5614E-03  0.5614E-03  0.5614E-03  0.0000E+00  0.0000E+00  0.0000E+00  0.0000E+00  0.0000E+00
     -5.692  0.9966E-01  0.6514E-03  0.6514E-03  0.6514E-03  0.0000E+00  0.0000E+00  0.0000E+00  0.0000E+00  0.0000E+00
     -5.591  0.8874E-01  0.7286E-03  0.7286E-03  0.7286E-03  0.0000E+00  0.0000E+00  0.0000E+00  0.0000E+00  0.0000E+00
     -5.491  0.8055E-01  0.7945E-03  0.7945E-03  0.7945E-03  0.0000E+00  0.0000E+00  0.0000E+00  0.0000E+00  0.0000E+00
     -5.391  0.7479E-01  0.8597E-03  0.8597E-03  0.8597E-03  0.0000E+00  0.0000E+00  0.0000E+00  0.0000E+00  0.0000E+00
     -5.291  0.7091E-01  0.9296E-03  0.9296E-03  0.9296E-03  0.0000E+00  0.0000E+00  0.0000E+00  0.0000E+00  0.0000E+00
     -5.190  0.6808E-01  0.1003E-02  0.1003E-02  0.1003E-02  0.0000E+00  0.0000E+00  0.0000E+00  0.0000E+00  0.0000E+00
     -5.090  0.6460E-01  0.1056E-02  0.1056E-02  0.1056E-02  0.0000E+00  0.0000E+00  0.0000E+00  0.0000E+00  0.0000E+00
     -4.990  0.5884E-01  0.1050E-02  0.1050E-02  0.1050E-02  0.0000E+00  0.0000E+00  0.0000E+00  0.0000E+00  0.0000E+00
     -4.890  0.5476E-01  0.1048E-02  0.1048E-02  0.1048E-02  0.0000E+00  0.0000E+00  0.0000E+00  0.0000E+00  0.0000E+00
     -4.790  0.5854E-01  0.1206E-02  0.1206E-02  0.1206E-02  0.0000E+00  0.0000E+00  0.0000E+00  0.0000E+00  0.0000E+00
     -4.689  0.5988E-01  0.1333E-02  0.1333E-02  0.1333E-02  0.0000E+00  0.0000E+00  0.0000E+00  0.0000E+00  0.0000E+00
     -4.589  0.4889E-01  0.1142E-02  0.1142E-02  0.1142E-02  0.0000E+00  0.0000E+00  0.0000E+00  0.0000E+00  0.0000E+00
     -4.489  0.4988E-01  0.1211E-02  0.1211E-02  0.1211E-02  0.0000E+00  0.0000E+00  0.0000E+00  0.0000E+00  0.0000E+00
     -4.389  0.6058E-01  0.1579E-02  0.1579E-02  0.1579E-02  0.0000E+00  0.0000E+00  0.0000E+00  0.0000E+00  0.0000E+00
     -4.289  0.4742E-01  0.1258E-02  0.1258E-02  0.1258E-02  0.0000E+00  0.0000E+00  0.0000E+00  0.0000E+00  0.0000E+00
     -4.188  0.5029E-01  0.1372E-02  0.1372E-02  0.1372E-02  0.0000E+00  0.0000E+00  0.0000E+00  0.0000E+00  0.0000E+00
     -4.088  0.6192E-01  0.1789E-02  0.1789E-02  0.1789E-02  0.0000E+00  0.0000E+00  0.0000E+00  0.0000E+00  0.0000E+00
     -3.988  0.4694E-01  0.1278E-02  0.1278E-02  0.1278E-02  0.0000E+00  0.0000E+00  0.0000E+00  0.0000E+00  0.0000E+00
     -3.888  0.6851E-01  0.1963E-02  0.1963E-02  0.1963E-02  0.0000E+00  0.0000E+00  0.0000E+00  0.0000E+00  0.0000E+00
     -3.787  0.9126E-01  0.2334E-02  0.2334E-02  0.2334E-02  0.0000E+00  0.0000E+00  0.0000E+00  0.0000E+00  0.0000E+00
     -3.687  0.4093E-01  0.1264E-02  0.1264E-02  0.1264E-02  0.0000E+00  0.0000E+00  0.0000E+00  0.0000E+00  0.0000E+00
     -3.587  0.3263E-01  0.1304E-02  0.1304E-02  0.1304E-02  0.0000E+00  0.0000E+00  0.0000E+00  0.0000E+00  0.0000E+00
     -3.487  0.2280E-01  0.9218E-03  0.9218E-03  0.9218E-03  0.0000E+00  0.0000E+00  0.0000E+00  0.0000E+00  0.0000E+00
     -3.387  0.2844E-01  0.1269E-02  0.1269E-02  0.1269E-02  0.0000E+00  0.0000E+00  0.0000E+00  0.0000E+00  0.0000E+00
     -3.286  0.2542E-01  0.1047E-02  0.1047E-02  0.1047E-02  0.0000E+00  0.0000E+00  0.0000E+00  0.0000E+00  0.0000E+00
     -3.186  0.2977E-01  0.1429E-02  0.1429E-02  0.1429E-02  0.0000E+00  0.0000E+00  0.0000E+00  0.0000E+00  0.0000E+00
     -3.086  0.1921E-01  0.8333E-03  0.8333E-03  0.8333E-03  0.0000E+00  0.0000E+00  0.0000E+00  0.0000E+00  0.0000E+00
     -2.986  0.3815E-01  0.1872E-02  0.1872E-02  0.1872E-02  0.0000E+00  0.0000E+00  0.0000E+00  0.0000E+00  0.0000E+00
     -2.885  0.1686E-01  0.7787E-03  0.7787E-03  0.7787E-03  0.0000E+00  0.0000E+00  0.0000E+00  0.0000E+00  0.0000E+00
     -2.785  0.3448E-01  0.1821E-02  0.1821E-02  0.1821E-02  0.0000E+00  0.0000E+00  0.0000E+00  0.0000E+00  0.0000E+00
     -2.685  0.2370E-01  0.1120E-02  0.1120E-02  0.1120E-02  0.0000E+00  0.0000E+00  0.0000E+00  0.0000E+00  0.0000E+00
     -2.585  0.3811E-01  0.2111E-02  0.2111E-02  0.2111E-02  0.0000E+00  0.0000E+00  0.0000E+00  0.0000E+00  0.0000E+00
     -2.485  0.2436E-01  0.1237E-02  0.1237E-02  0.1237E-02  0.0000E+00  0.0000E+00  0.0000E+00  0.0000E+00  0.0000E+00
     -2.384  0.1641E+00  0.8752E-02  0.8752E-02  0.8752E-02  0.0000E+00  0.0000E+00  0.0000E+00  0.0000E+00  0.0000E+00
     -2.284  0.2586E+00  0.1370E-01  0.1370E-01  0.1370E-01  0.0000E+00  0.0000E+00  0.0000E+00  0.0000E+00  0.0000E+00
     -2.184  0.1535E+00  0.8841E-02  0.8841E-02  0.8841E-02  0.0000E+00  0.0000E+00  0.0000E+00  0.0000E+00  0.0000E+00
     -2.084  0.1130E+00  0.6778E-02  0.6778E-02  0.6778E-02  0.0000E+00  0.0000E+00  0.0000E+00  0.0000E+00  0.0000E+00
     -1.983  0.3169E+00  0.2326E-01  0.2326E-01  0.2326E-01  0.0000E+00  0.0000E+00  0.0000E+00  0.0000E+00  0.0000E+00
     -1.883  0.8171E+00  0.6101E-01  0.6101E-01  0.6101E-01  0.0000E+00  0.0000E+00  0.0000E+00  0.0000E+00  0.0000E+00
     -1.783  0.7088E+00  0.4994E-01  0.4994E-01  0.4994E-01  0.0000E+00  0.0000E+00  0.0000E+00  0.0000E+00  0.0000E+00
     -1.683  0.1492E+00  0.1077E-01  0.1077E-01  0.1077E-01  0.0000E+00  0.0000E+00  0.0000E+00  0.0000E+00  0.0000E+00
     -1.583  0.1028E+00  0.7930E-02  0.7930E-02  0.7930E-02  0.0000E+00  0.0000E+00  0.0000E+00  0.0000E+00  0.0000E+00
     -1.482  0.1704E+00  0.1450E-01  0.1450E-01  0.1450E-01  0.0000E+00  0.0000E+00  0.0000E+00  0.0000E+00  0.0000E+00
     -1.382  0.3303E+00  0.3154E-01  0.3154E-01  0.3154E-01  0.0000E+00  0.0000E+00  0.0000E+00  0.0000E+00  0.0000E+00
     -1.282  0.1147E+00  0.1135E-01  0.1135E-01  0.1135E-01  0.0000E+00  0.0000E+00  0.0000E+00  0.0000E+00  0.0000E+00
     -1.182  0.2477E-01  0.2895E-02  0.2895E-02  0.2895E-02  0.0000E+00  0.0000E+00  0.0000E+00  0.0000E+00  0.0000E+00
     -1.081  0.4484E-01  0.9534E-02  0.9534E-02  0.9534E-02  0.0000E+00  0.0000E+00  0.0000E+00  0.0000E+00  0.0000E+00
     -0.981  0.4561E-01  0.8168E-02  0.8168E-02  0.8168E-02  0.0000E+00  0.0000E+00  0.0000E+00  0.0000E+00  0.0000E+00
     -0.881  0.2870E-01  0.5408E-02  0.5408E-02  0.5408E-02  0.0000E+00  0.0000E+00  0.0000E+00  0.0000E+00  0.0000E+00
     -0.781  0.3772E-01  0.5791E-02  0.5791E-02  0.5791E-02  0.0000E+00  0.0000E+00  0.0000E+00  0.0000E+00  0.0000E+00
     -0.681  0.2186E-01  0.4315E-02  0.4315E-02  0.4315E-02  0.0000E+00  0.0000E+00  0.0000E+00  0.0000E+00  0.0000E+00
     -0.580  0.3658E-01  0.6091E-02  0.6091E-02  0.6091E-02  0.0000E+00  0.0000E+00  0.0000E+00  0.0000E+00  0.0000E+00
     -0.480  0.2319E-01  0.3676E-02  0.3676E-02  0.3676E-02  0.0000E+00  0.0000E+00  0.0000E+00  0.0000E+00  0.0000E+00
     -0.380  0.2286E-01  0.4727E-02  0.4727E-02  0.4727E-02  0.0000E+00  0.0000E+00  0.0000E+00  0.0000E+00  0.0000E+00
     -0.280  0.3518E-01  0.5263E-02  0.5263E-02  0.5263E-02  0.0000E+00  0.0000E+00  0.0000E+00  0.0000E+00  0.0000E+00
     -0.179  0.1505E-01  0.3564E-02  0.3564E-02  0.3564E-02  0.0000E+00  0.0000E+00  0.0000E+00  0.0000E+00  0.0000E+00
     -0.079  0.3248E-01  0.5250E-02  0.5250E-02  0.5250E-02  0.0000E+00  0.0000E+00  0.0000E+00  0.0000E+00  0.0000E+00
      0.021  0.2040E-01  0.4226E-02  0.4226E-02  0.4226E-02  0.0000E+00  0.0000E+00  0.0000E+00  0.0000E+00  0.0000E+00
      0.121  0.1919E-01  0.3582E-02  0.3582E-02  0.3582E-02  0.0000E+00  0.0000E+00  0.0000E+00  0.0000E+00  0.0000E+00
      0.221  0.3188E-01  0.6021E-02  0.6021E-02  0.6021E-02  0.0000E+00  0.0000E+00  0.0000E+00  0.0000E+00  0.0000E+00
      0.322  0.1223E-01  0.2458E-02  0.2458E-02  0.2458E-02  0.0000E+00  0.0000E+00  0.0000E+00  0.0000E+00  0.0000E+00
      0.422  0.3177E-01  0.6505E-02  0.6505E-02  0.6505E-02  0.0000E+00  0.0000E+00  0.0000E+00  0.0000E+00  0.0000E+00
      0.522  0.1494E-01  0.2663E-02  0.2663E-02  0.2663E-02  0.0000E+00  0.0000E+00  0.0000E+00  0.0000E+00  0.0000E+00
      0.622  0.2126E-01  0.5345E-02  0.5345E-02  0.5345E-02  0.0000E+00  0.0000E+00  0.0000E+00  0.0000E+00  0.0000E+00
      0.723  0.2511E-01  0.4312E-02  0.4312E-02  0.4312E-02  0.0000E+00  0.0000E+00  0.0000E+00  0.0000E+00  0.0000E+00
      0.823  0.1453E-01  0.4095E-02  0.4095E-02  0.4095E-02  0.0000E+00  0.0000E+00  0.0000E+00  0.0000E+00  0.0000E+00
      0.923  0.2609E-01  0.5222E-02  0.5222E-02  0.5222E-02  0.0000E+00  0.0000E+00  0.0000E+00  0.0000E+00  0.0000E+00
      1.023  0.1329E-01  0.3026E-02  0.3026E-02  0.3026E-02  0.0000E+00  0.0000E+00  0.0000E+00  0.0000E+00  0.0000E+00
      1.123  0.2229E-01  0.5848E-02  0.5848E-02  0.5848E-02  0.0000E+00  0.0000E+00  0.0000E+00  0.0000E+00  0.0000E+00
      1.224  0.1752E-01  0.3089E-02  0.3089E-02  0.3089E-02  0.0000E+00  0.0000E+00  0.0000E+00  0.0000E+00  0.0000E+00
      1.324  0.2292E-01  0.6728E-02  0.6728E-02  0.6728E-02  0.0000E+00  0.0000E+00  0.0000E+00  0.0000E+00  0.0000E+00
      1.424  0.1391E-01  0.1347E-01  0.1347E-01  0.1347E-01  0.0000E+00  0.0000E+00  0.0000E+00  0.0000E+00  0.0000E+00
      1.524  0.2367E-01  0.4963E-01  0.4963E-01  0.4963E-01  0.0000E+00  0.0000E+00  0.0000E+00  0.0000E+00  0.0000E+00
      1.625  0.1437E-01  0.8707E-01  0.8707E-01  0.8707E-01  0.0000E+00  0.0000E+00  0.0000E+00  0.0000E+00  0.0000E+00
      1.725  0.1991E-01  0.5181E-01  0.5181E-01  0.5181E-01  0.0000E+00  0.0000E+00  0.0000E+00  0.0000E+00  0.0000E+00
      1.825  0.2291E-01  0.4395E-01  0.4395E-01  0.4395E-01  0.0000E+00  0.0000E+00  0.0000E+00  0.0000E+00  0.0000E+00
      1.925  0.1025E-01  0.3680E-01  0.3680E-01  0.3680E-01  0.0000E+00  0.0000E+00  0.0000E+00  0.0000E+00  0.0000E+00
      2.025  0.2557E-01  0.1015E+00  0.1015E+00  0.1015E+00  0.0000E+00  0.0000E+00  0.0000E+00  0.0000E+00  0.0000E+00
      2.126  0.1266E-01  0.8396E-01  0.8396E-01  0.8396E-01  0.0000E+00  0.0000E+00  0.0000E+00  0.0000E+00  0.0000E+00
      2.226  0.1901E-01  0.6075E-01  0.6075E-01  0.6075E-01  0.0000E+00  0.0000E+00  0.0000E+00  0.0000E+00  0.0000E+00
      2.326  0.2397E-01  0.5876E-01  0.5876E-01  0.5876E-01  0.0000E+00  0.0000E+00  0.0000E+00  0.0000E+00  0.0000E+00
      2.426  0.9835E-02  0.4793E-01  0.4793E-01  0.4793E-01  0.0000E+00  0.0000E+00  0.0000E+00  0.0000E+00  0.0000E+00
      2.527  0.2357E-01  0.5085E-01  0.5085E-01  0.5085E-01  0.0000E+00  0.0000E+00  0.0000E+00  0.0000E+00  0.0000E+00
      2.627  0.1661E-01  0.5173E-01  0.5173E-01  0.5173E-01  0.0000E+00  0.0000E+00  0.0000E+00  0.0000E+00  0.0000E+00
      2.727  0.1534E-01  0.4826E-01  0.4826E-01  0.4826E-01  0.0000E+00  0.0000E+00  0.0000E+00  0.0000E+00  0.0000E+00
      2.827  0.2175E-01  0.6008E-01  0.6008E-01  0.6008E-01  0.0000E+00  0.0000E+00  0.0000E+00  0.0000E+00  0.0000E+00
      2.927  0.1091E-01  0.7137E-01  0.7137E-01  0.7137E-01  0.0000E+00  0.0000E+00  0.0000E+00  0.0000E+00  0.0000E+00
      3.028  0.1675E-01  0.1411E+00  0.1411E+00  0.1411E+00  0.0000E+00  0.0000E+00  0.0000E+00  0.0000E+00  0.0000E+00
      3.128  0.1775E-01  0.7534E-01  0.7534E-01  0.7534E-01  0.0000E+00  0.0000E+00  0.0000E+00  0.0000E+00  0.0000E+00
      3.228  0.1341E-01  0.5355E-01  0.5355E-01  0.5355E-01  0.0000E+00  0.0000E+00  0.0000E+00  0.0000E+00  0.0000E+00
      3.328  0.1177E-01  0.5253E-01  0.5253E-01  0.5253E-01  0.0000E+00  0.0000E+00  0.0000E+00  0.0000E+00  0.0000E+00
      3.428  0.1622E-01  0.7264E-01  0.7264E-01  0.7264E-01  0.0000E+00  0.0000E+00  0.0000E+00  0.0000E+00  0.0000E+00
      3.529  0.1272E-01  0.4173E-01  0.4173E-01  0.4173E-01  0.0000E+00  0.0000E+00  0.0000E+00  0.0000E+00  0.0000E+00
      3.629  0.1137E-01  0.3567E-01  0.3567E-01  0.3567E-01  0.0000E+00  0.0000E+00  0.0000E+00  0.0000E+00  0.0000E+00
      3.729  0.1744E-01  0.3558E-01  0.3558E-01  0.3558E-01  0.0000E+00  0.0000E+00  0.0000E+00  0.0000E+00  0.0000E+00
      3.829  0.5519E-02  0.2847E-01  0.2847E-01  0.2847E-01  0.0000E+00  0.0000E+00  0.0000E+00  0.0000E+00  0.0000E+00
      3.930  0.1595E-01  0.3495E-01  0.3495E-01  0.3495E-01  0.0000E+00  0.0000E+00  0.0000E+00  0.0000E+00  0.0000E+00
      4.030  0.1395E-01  0.3114E-01  0.3114E-01  0.3114E-01  0.0000E+00  0.0000E+00  0.0000E+00  0.0000E+00  0.0000E+00
      4.130  0.2499E-02  0.2509E-01  0.2509E-01  0.2509E-01  0.0000E+00  0.0000E+00  0.0000E+00  0.0000E+00  0.0000E+00
      4.230  0.2225E-01  0.3690E-01  0.3690E-01  0.3690E-01  0.0000E+00  0.0000E+00  0.0000E+00  0.0000E+00  0.0000E+00
      4.330  0.3982E-02  0.2337E-01  0.2337E-01  0.2337E-01  0.0000E+00  0.0000E+00  0.0000E+00  0.0000E+00  0.0000E+00
      4.431  0.8978E-02  0.2902E-01  0.2902E-01  0.2902E-01  0.0000E+00  0.0000E+00  0.0000E+00  0.0000E+00  0.0000E+00
      4.531  0.1597E-01  0.3393E-01  0.3393E-01  0.3393E-01  0.0000E+00  0.0000E+00  0.0000E+00  0.0000E+00  0.0000E+00
      4.631  0.2118E-02  0.5875E-01  0.5875E-01  0.5875E-01  0.0000E+00  0.0000E+00  0.0000E+00  0.0000E+00  0.0000E+00
      4.731  0.1549E-01  0.1370E+00  0.1370E+00  0.1370E+00  0.0000E+00  0.0000E+00  0.0000E+00  0.0000E+00  0.0000E+00
      4.832  0.5427E-02  0.8428E-01  0.8428E-01  0.8428E-01  0.0000E+00  0.0000E+00  0.0000E+00  0.0000E+00  0.0000E+00
      4.932  0.9472E-02  0.7536E-01  0.7536E-01  0.7536E-01  0.0000E+00  0.0000E+00  0.0000E+00  0.0000E+00  0.0000E+00
      5.032  0.7802E-02  0.7032E-01  0.7032E-01  0.7032E-01  0.0000E+00  0.0000E+00  0.0000E+00  0.0000E+00  0.0000E+00
      5.132  0.7526E-02  0.6519E-01  0.6519E-01  0.6519E-01  0.0000E+00  0.0000E+00  0.0000E+00  0.0000E+00  0.0000E+00
      5.232  0.5746E-02  0.6112E-01  0.6112E-01  0.6112E-01  0.0000E+00  0.0000E+00  0.0000E+00  0.0000E+00  0.0000E+00
      5.333  0.7962E-02  0.6921E-01  0.6921E-01  0.6921E-01  0.0000E+00  0.0000E+00  0.0000E+00  0.0000E+00  0.0000E+00
      5.433  0.4204E-02  0.6614E-01  0.6614E-01  0.6614E-01  0.0000E+00  0.0000E+00  0.0000E+00  0.0000E+00  0.0000E+00
      5.533  0.6206E-02  0.7458E-01  0.7458E-01  0.7458E-01  0.0000E+00  0.0000E+00  0.0000E+00  0.0000E+00  0.0000E+00
      5.633  0.3706E-02  0.8137E-01  0.8137E-01  0.8137E-01  0.0000E+00  0.0000E+00  0.0000E+00  0.0000E+00  0.0000E+00
      5.734  0.3415E-02  0.1064E+00  0.1064E+00  0.1064E+00  0.0000E+00  0.0000E+00  0.0000E+00  0.0000E+00  0.0000E+00
      5.834  0.1654E-02  0.1946E+00  0.1946E+00  0.1946E+00  0.0000E+00  0.0000E+00  0.0000E+00  0.0000E+00  0.0000E+00
      5.934  0.1556E-03  0.7072E-01  0.7072E-01  0.7072E-01  0.0000E+00  0.0000E+00  0.0000E+00  0.0000E+00  0.0000E+00
      6.034  0.7843E-07  0.1961E-03  0.1961E-03  0.1961E-03  0.0000E+00  0.0000E+00  0.0000E+00  0.0000E+00  0.0000E+00
      6.134  0.2602E-13  0.4460E-09  0.4460E-09  0.4460E-09  0.0000E+00  0.0000E+00  0.0000E+00  0.0000E+00  0.0000E+00
      6.235  0.1256E-07  0.3411E-08  0.3411E-08  0.3411E-08  0.0000E+00  0.0000E+00  0.0000E+00  0.0000E+00  0.0000E+00
      6.335  0.5017E-03  0.1365E-03  0.1365E-03  0.1365E-03  0.0000E+00  0.0000E+00  0.0000E+00  0.0000E+00  0.0000E+00
      6.435  0.2817E-01  0.7729E-02  0.7729E-02  0.7729E-02  0.0000E+00  0.0000E+00  0.0000E+00  0.0000E+00  0.0000E+00
      6.535  0.5065E-01  0.1354E-01  0.1354E-01  0.1354E-01  0.0000E+00  0.0000E+00  0.0000E+00  0.0000E+00  0.0000E+00
      6.636  0.6553E-01  0.1694E-01  0.1694E-01  0.1694E-01  0.0000E+00  0.0000E+00  0.0000E+00  0.0000E+00  0.0000E+00
      6.736  0.3863E-01  0.1132E-01  0.1132E-01  0.1132E-01  0.0000E+00  0.0000E+00  0.0000E+00  0.0000E+00  0.0000E+00
      6.836  0.3020E-01  0.9771E-02  0.9771E-02  0.9771E-02  0.0000E+00  0.0000E+00  0.0000E+00  0.0000E+00  0.0000E+00
      6.936  0.2585E-01  0.9113E-02  0.9113E-02  0.9113E-02  0.0000E+00  0.0000E+00  0.0000E+00  0.0000E+00  0.0000E+00
      7.036  0.3389E-01  0.1158E-01  0.1158E-01  0.1158E-01  0.0000E+00  0.0000E+00  0.0000E+00  0.0000E+00  0.0000E+00
      7.137  0.4862E-01  0.1601E-01  0.1601E-01  0.1601E-01  0.0000E+00  0.0000E+00  0.0000E+00  0.0000E+00  0.0000E+00
      7.237  0.3646E-01  0.1349E-01  0.1349E-01  0.1349E-01  0.0000E+00  0.0000E+00  0.0000E+00  0.0000E+00  0.0000E+00
      7.337  0.4341E-01  0.1336E-01  0.1336E-01  0.1336E-01  0.0000E+00  0.0000E+00  0.0000E+00  0.0000E+00  0.0000E+00
      7.437  0.1489E+00  0.1721E-01  0.1721E-01  0.1721E-01  0.0000E+00  0.0000E+00  0.0000E+00  0.0000E+00  0.0000E+00
      7.538  0.1068E+00  0.1613E-01  0.1613E-01  0.1613E-01  0.0000E+00  0.0000E+00  0.0000E+00  0.0000E+00  0.0000E+00
      7.638  0.7865E-01  0.1570E-01  0.1570E-01  0.1570E-01  0.0000E+00  0.0000E+00  0.0000E+00  0.0000E+00  0.0000E+00
      7.738  0.6657E-01  0.1560E-01  0.1560E-01  0.1560E-01  0.0000E+00  0.0000E+00  0.0000E+00  0.0000E+00  0.0000E+00
      7.838  0.5731E-01  0.1544E-01  0.1544E-01  0.1544E-01  0.0000E+00  0.0000E+00  0.0000E+00  0.0000E+00  0.0000E+00
      7.938  0.5549E-01  0.1703E-01  0.1703E-01  0.1703E-01  0.0000E+00  0.0000E+00  0.0000E+00  0.0000E+00  0.0000E+00
      8.039  0.5009E-01  0.1774E-01  0.1774E-01  0.1774E-01  0.0000E+00  0.0000E+00  0.0000E+00  0.0000E+00  0.0000E+00
      8.139  0.4832E-01  0.1898E-01  0.1898E-01  0.1898E-01  0.0000E+00  0.0000E+00  0.0000E+00  0.0000E+00  0.0000E+00
      8.239  0.4384E-01  0.2005E-01  0.2005E-01  0.2005E-01  0.0000E+00  0.0000E+00  0.0000E+00  0.0000E+00  0.0000E+00
      8.339  0.4409E-01  0.2959E-01  0.2959E-01  0.2959E-01  0.0000E+00  0.0000E+00  0.0000E+00  0.0000E+00  0.0000E+00
      8.440  0.4664E-01  0.1420E+00  0.1420E+00  0.1420E+00  0.0000E+00  0.0000E+00  0.0000E+00  0.0000E+00  0.0000E+00
      8.540  0.3387E-01  0.1085E+00  0.1085E+00  0.1085E+00  0.0000E+00  0.0000E+00  0.0000E+00  0.0000E+00  0.0000E+00
      8.640  0.2718E-01  0.6462E-01  0.6462E-01  0.6462E-01  0.0000E+00  0.0000E+00  0.0000E+00  0.0000E+00  0.0000E+00
      8.740  0.4315E-01  0.6277E-01  0.6277E-01  0.6277E-01  0.0000E+00  0.0000E+00  0.0000E+00  0.0000E+00  0.0000E+00
      8.840  0.6407E-01  0.6121E-01  0.6121E-01  0.6121E-01  0.0000E+00  0.0000E+00  0.0000E+00  0.0000E+00  0.0000E+00
      8.941  0.7726E-01  0.6014E-01  0.6014E-01  0.6014E-01  0.0000E+00  0.0000E+00  0.0000E+00  0.0000E+00  0.0000E+00
      9.041  0.1518E-01  0.4392E-01  0.4392E-01  0.4392E-01  0.0000E+00  0.0000E+00  0.0000E+00  0.0000E+00  0.0000E+00
      9.141  0.1770E-01  0.4232E-01  0.4232E-01  0.4232E-01  0.0000E+00  0.0000E+00  0.0000E+00  0.0000E+00  0.0000E+00
      9.241  0.1775E+00  0.8961E-01  0.8961E-01  0.8961E-01  0.0000E+00  0.0000E+00  0.0000E+00  0.0000E+00  0.0000E+00
      9.342  0.1797E+00  0.9592E-01  0.9592E-01  0.9592E-01  0.0000E+00  0.0000E+00  0.0000E+00  0.0000E+00  0.0000E+00
      9.442  0.9601E-01  0.7348E-01  0.7348E-01  0.7348E-01  0.0000E+00  0.0000E+00  0.0000E+00  0.0000E+00  0.0000E+00
      9.542  0.8497E-01  0.1901E-01  0.1901E-01  0.1901E-01  0.0000E+00  0.0000E+00  0.0000E+00  0.0000E+00  0.0000E+00
      9.642  0.5170E-01  0.2763E-01  0.2763E-01  0.2763E-01  0.0000E+00  0.0000E+00  0.0000E+00  0.0000E+00  0.0000E+00
      9.742  0.8902E-01  0.2120E-01  0.2120E-01  0.2120E-01  0.0000E+00  0.0000E+00  0.0000E+00  0.0000E+00  0.0000E+00
      9.843  0.2586E-01  0.2386E-01  0.2386E-01  0.2386E-01  0.0000E+00  0.0000E+00  0.0000E+00  0.0000E+00  0.0000E+00
      9.943  0.9113E-01  0.3390E-01  0.3390E-01  0.3390E-01  0.0000E+00  0.0000E+00  0.0000E+00  0.0000E+00  0.0000E+00
     10.043  0.7284E-01  0.7546E-01  0.7546E-01  0.7546E-01  0.0000E+00  0.0000E+00  0.0000E+00  0.0000E+00  0.0000E+00
     10.143  0.7145E-01  0.7344E-01  0.7344E-01  0.7344E-01  0.0000E+00  0.0000E+00  0.0000E+00  0.0000E+00  0.0000E+00
     10.244  0.8193E-01  0.4026E-01  0.4026E-01  0.4026E-01  0.0000E+00  0.0000E+00  0.0000E+00  0.0000E+00  0.0000E+00
     10.344  0.4124E-01  0.1660E-01  0.1660E-01  0.1660E-01  0.0000E+00  0.0000E+00  0.0000E+00  0.0000E+00  0.0000E+00
     10.444  0.3110E-01  0.1517E-01  0.1517E-01  0.1517E-01  0.0000E+00  0.0000E+00  0.0000E+00  0.0000E+00  0.0000E+00
     10.544  0.1688E-01  0.1732E-01  0.1732E-01  0.1732E-01  0.0000E+00  0.0000E+00  0.0000E+00  0.0000E+00  0.0000E+00
     10.644  0.1947E-01  0.9222E-02  0.9222E-02  0.9222E-02  0.0000E+00  0.0000E+00  0.0000E+00  0.0000E+00  0.0000E+00
     10.745  0.2123E-01  0.1740E-01  0.1740E-01  0.1740E-01  0.0000E+00  0.0000E+00  0.0000E+00  0.0000E+00  0.0000E+00
     10.845  0.3958E-01  0.2730E-01  0.2730E-01  0.2730E-01  0.0000E+00  0.0000E+00  0.0000E+00  0.0000E+00  0.0000E+00
     10.945  0.7267E-01  0.4302E-01  0.4302E-01  0.4302E-01  0.0000E+00  0.0000E+00  0.0000E+00  0.0000E+00  0.0000E+00
     11.045  0.4296E-01  0.3520E-01  0.3520E-01  0.3520E-01  0.0000E+00  0.0000E+00  0.0000E+00  0.0000E+00  0.0000E+00
     11.145  0.4545E-01  0.2748E-01  0.2748E-01  0.2748E-01  0.0000E+00  0.0000E+00  0.0000E+00  0.0000E+00  0.0000E+00
     11.246  0.3560E-01  0.3258E-01  0.3258E-01  0.3258E-01  0.0000E+00  0.0000E+00  0.0000E+00  0.0000E+00  0.0000E+00
     11.346  0.3545E-01  0.2840E-01  0.2840E-01  0.2840E-01  0.0000E+00  0.0000E+00  0.0000E+00  0.0000E+00  0.0000E+00
     11.446  0.4950E-01  0.3297E-01  0.3297E-01  0.3297E-01  0.0000E+00  0.0000E+00  0.0000E+00  0.0000E+00  0.0000E+00
     11.546  0.5529E-01  0.4116E-01  0.4116E-01  0.4116E-01  0.0000E+00  0.0000E+00  0.0000E+00  0.0000E+00  0.0000E+00
     11.647  0.4589E-01  0.3293E-01  0.3293E-01  0.3293E-01  0.0000E+00  0.0000E+00  0.0000E+00  0.0000E+00  0.0000E+00
     11.747  0.3208E-01  0.3380E-01  0.3380E-01  0.3380E-01  0.0000E+00  0.0000E+00  0.0000E+00  0.0000E+00  0.0000E+00
     11.847  0.2445E-01  0.2662E-01  0.2662E-01  0.2662E-01  0.0000E+00  0.0000E+00  0.0000E+00  0.0000E+00  0.0000E+00
     11.947  0.3544E-01  0.2872E-01  0.2872E-01  0.2872E-01  0.0000E+00  0.0000E+00  0.0000E+00  0.0000E+00  0.0000E+00
     12.047  0.1875E-01  0.3178E-01  0.3178E-01  0.3178E-01  0.0000E+00  0.0000E+00  0.0000E+00  0.0000E+00  0.0000E+00
     12.148  0.2762E-01  0.2520E-01  0.2520E-01  0.2520E-01  0.0000E+00  0.0000E+00  0.0000E+00  0.0000E+00  0.0000E+00
     12.248  0.2388E-01  0.2715E-01  0.2715E-01  0.2715E-01  0.0000E+00  0.0000E+00  0.0000E+00  0.0000E+00  0.0000E+00
     12.348  0.3274E-01  0.2795E-01  0.2795E-01  0.2795E-01  0.0000E+00  0.0000E+00  0.0000E+00  0.0000E+00  0.0000E+00
     12.448  0.3852E-01  0.2188E-01  0.2188E-01  0.2188E-01  0.0000E+00  0.0000E+00  0.0000E+00  0.0000E+00  0.0000E+00
     12.549  0.3129E-01  0.3512E-01  0.3512E-01  0.3512E-01  0.0000E+00  0.0000E+00  0.0000E+00  0.0000E+00  0.0000E+00
     12.649  0.2274E-01  0.2036E-01  0.2036E-01  0.2036E-01  0.0000E+00  0.0000E+00  0.0000E+00  0.0000E+00  0.0000E+00
     12.749  0.3485E-01  0.3010E-01  0.3010E-01  0.3010E-01  0.0000E+00  0.0000E+00  0.0000E+00  0.0000E+00  0.0000E+00
     12.849  0.2032E-01  0.3305E-01  0.3305E-01  0.3305E-01  0.0000E+00  0.0000E+00  0.0000E+00  0.0000E+00  0.0000E+00
     12.949  0.3894E-01  0.3235E-01  0.3235E-01  0.3235E-01  0.0000E+00  0.0000E+00  0.0000E+00  0.0000E+00  0.0000E+00
     13.050  0.2283E-01  0.4079E-01  0.4079E-01  0.4079E-01  0.0000E+00  0.0000E+00  0.0000E+00  0.0000E+00  0.0000E+00
     13.150  0.2581E-01  0.3289E-01  0.3289E-01  0.3289E-01  0.0000E+00  0.0000E+00  0.0000E+00  0.0000E+00  0.0000E+00
     13.250  0.2784E-01  0.3163E-01  0.3163E-01  0.3163E-01  0.0000E+00  0.0000E+00  0.0000E+00  0.0000E+00  0.0000E+00
     13.350  0.1975E-01  0.4622E-01  0.4622E-01  0.4622E-01  0.0000E+00  0.0000E+00  0.0000E+00  0.0000E+00  0.0000E+00
     13.451  0.2444E-01  0.2649E-01  0.2649E-01  0.2649E-01  0.0000E+00  0.0000E+00  0.0000E+00  0.0000E+00  0.0000E+00
     13.551  0.2892E-01  0.2861E-01  0.2861E-01  0.2861E-01  0.0000E+00  0.0000E+00  0.0000E+00  0.0000E+00  0.0000E+00
     13.651  0.2163E-01  0.4084E-01  0.4084E-01  0.4084E-01  0.0000E+00  0.0000E+00  0.0000E+00  0.0000E+00  0.0000E+00
     13.751  0.2978E-01  0.3314E-01  0.3314E-01  0.3314E-01  0.0000E+00  0.0000E+00  0.0000E+00  0.0000E+00  0.0000E+00
     13.851  0.9982E-01  0.3941E-01  0.3941E-01  0.3941E-01  0.0000E+00  0.0000E+00  0.0000E+00  0.0000E+00  0.0000E+00
     13.952  0.6932E-01  0.3059E-01  0.3059E-01  0.3059E-01  0.0000E+00  0.0000E+00  0.0000E+00  0.0000E+00  0.0000E+00
     14.052  0.5501E-01  0.2913E-01  0.2913E-01  0.2913E-01  0.0000E+00  0.0000E+00  0.0000E+00  0.0000E+00  0.0000E+00
     14.152  0.4718E-01  0.3684E-01  0.3684E-01  0.3684E-01  0.0000E+00  0.0000E+00  0.0000E+00  0.0000E+00  0.0000E+00
     14.252  0.3200E-01  0.1464E-01  0.1464E-01  0.1464E-01  0.0000E+00  0.0000E+00  0.0000E+00  0.0000E+00  0.0000E+00
     14.353  0.3473E-01  0.3045E-01  0.3045E-01  0.3045E-01  0.0000E+00  0.0000E+00  0.0000E+00  0.0000E+00  0.0000E+00
     14.453  0.2946E-01  0.2186E-01  0.2186E-01  0.2186E-01  0.0000E+00  0.0000E+00  0.0000E+00  0.0000E+00  0.0000E+00
     14.553  0.2298E-01  0.1929E-01  0.1929E-01  0.1929E-01  0.0000E+00  0.0000E+00  0.0000E+00  0.0000E+00  0.0000E+00
     14.653  0.3202E-01  0.2927E-01  0.2927E-01  0.2927E-01  0.0000E+00  0.0000E+00  0.0000E+00  0.0000E+00  0.0000E+00
     14.753  0.4466E-01  0.2774E-01  0.2774E-01  0.2774E-01  0.0000E+00  0.0000E+00  0.0000E+00  0.0000E+00  0.0000E+00
     14.854  0.4827E-01  0.2590E-01  0.2590E-01  0.2590E-01  0.0000E+00  0.0000E+00  0.0000E+00  0.0000E+00  0.0000E+00
     14.954  0.4873E-01  0.3546E-01  0.3546E-01  0.3546E-01  0.0000E+00  0.0000E+00  0.0000E+00  0.0000E+00  0.0000E+00
     15.054  0.5039E-01  0.3057E-01  0.3057E-01  0.3057E-01  0.0000E+00  0.0000E+00  0.0000E+00  0.0000E+00  0.0000E+00
     15.154  0.1566E-01  0.2524E-01  0.2524E-01  0.2524E-01  0.0000E+00  0.0000E+00  0.0000E+00  0.0000E+00  0.0000E+00
     15.255  0.2561E-01  0.3601E-01  0.3601E-01  0.3601E-01  0.0000E+00  0.0000E+00  0.0000E+00  0.0000E+00  0.0000E+00
     15.355  0.2361E-01  0.2594E-01  0.2594E-01  0.2594E-01  0.0000E+00  0.0000E+00  0.0000E+00  0.0000E+00  0.0000E+00
     15.455  0.2224E-01  0.3575E-01  0.3575E-01  0.3575E-01  0.0000E+00  0.0000E+00  0.0000E+00  0.0000E+00  0.0000E+00
     15.555  0.1985E-01  0.3026E-01  0.3026E-01  0.3026E-01  0.0000E+00  0.0000E+00  0.0000E+00  0.0000E+00  0.0000E+00
     15.655  0.1987E-01  0.4128E-01  0.4128E-01  0.4128E-01  0.0000E+00  0.0000E+00  0.0000E+00  0.0000E+00  0.0000E+00
     15.756  0.2143E-01  0.4134E-01  0.4134E-01  0.4134E-01  0.0000E+00  0.0000E+00  0.0000E+00  0.0000E+00  0.0000E+00
     15.856  0.1080E-01  0.4604E-01  0.4604E-01  0.4604E-01  0.0000E+00  0.0000E+00  0.0000E+00  0.0000E+00  0.0000E+00
     15.956  0.3127E-01  0.9413E-01  0.9413E-01  0.9413E-01  0.0000E+00  0.0000E+00  0.0000E+00  0.0000E+00  0.0000E+00
     16.056  0.1029E-01  0.4357E-01  0.4357E-01  0.4357E-01  0.0000E+00  0.0000E+00  0.0000E+00  0.0000E+00  0.0000E+00
     16.157  0.9490E-02  0.1714E-01  0.1714E-01  0.1714E-01  0.0000E+00  0.0000E+00  0.0000E+00  0.0000E+00  0.0000E+00
     16.257  0.2621E-01  0.2714E-01  0.2714E-01  0.2714E-01  0.0000E+00  0.0000E+00  0.0000E+00  0.0000E+00  0.0000E+00
     16.357  0.1204E-01  0.3494E-01  0.3494E-01  0.3494E-01  0.0000E+00  0.0000E+00  0.0000E+00  0.0000E+00  0.0000E+00
     16.457  0.1815E-01  0.2300E+00  0.2300E+00  0.2300E+00  0.0000E+00  0.0000E+00  0.0000E+00  0.0000E+00  0.0000E+00
     16.557  0.3031E-01  0.8537E-01  0.8537E-01  0.8537E-01  0.0000E+00  0.0000E+00  0.0000E+00  0.0000E+00  0.0000E+00
     16.658  0.1664E-01  0.4464E-01  0.4464E-01  0.4464E-01  0.0000E+00  0.0000E+00  0.0000E+00  0.0000E+00  0.0000E+00
     16.758  0.1020E-01  0.2143E-01  0.2143E-01  0.2143E-01  0.0000E+00  0.0000E+00  0.0000E+00  0.0000E+00  0.0000E+00
     16.858  0.2779E-01  0.1981E-01  0.1981E-01  0.1981E-01  0.0000E+00  0.0000E+00  0.0000E+00  0.0000E+00  0.0000E+00
     16.958  0.1162E-01  0.9921E-02  0.9921E-02  0.9921E-02  0.0000E+00  0.0000E+00  0.0000E+00  0.0000E+00  0.0000E+00
     17.059  0.1838E-01  0.1668E-01  0.1668E-01  0.1668E-01  0.0000E+00  0.0000E+00  0.0000E+00  0.0000E+00  0.0000E+00
     17.159  0.2009E-01  0.2885E-01  0.2885E-01  0.2885E-01  0.0000E+00  0.0000E+00  0.0000E+00  0.0000E+00  0.0000E+00
     17.259  0.1363E-01  0.1775E-01  0.1775E-01  0.1775E-01  0.0000E+00  0.0000E+00  0.0000E+00  0.0000E+00  0.0000E+00
     17.359  0.1256E-01  0.1397E-01  0.1397E-01  0.1397E-01  0.0000E+00  0.0000E+00  0.0000E+00  0.0000E+00  0.0000E+00
     17.459  0.1157E-01  0.1114E-01  0.1114E-01  0.1114E-01  0.0000E+00  0.0000E+00  0.0000E+00  0.0000E+00  0.0000E+00
     17.560  0.5696E-02  0.7115E-02  0.7115E-02  0.7115E-02  0.0000E+00  0.0000E+00  0.0000E+00  0.0000E+00  0.0000E+00
     17.660  0.9311E-02  0.1105E-01  0.1105E-01  0.1105E-01  0.0000E+00  0.0000E+00  0.0000E+00  0.0000E+00  0.0000E+00
     17.760  0.1279E-01  0.1160E-01  0.1160E-01  0.1160E-01  0.0000E+00  0.0000E+00  0.0000E+00  0.0000E+00  0.0000E+00
     17.860  0.6905E-02  0.8663E-02  0.8663E-02  0.8663E-02  0.0000E+00  0.0000E+00  0.0000E+00  0.0000E+00  0.0000E+00
     17.960  0.9775E-02  0.1191E-01  0.1191E-01  0.1191E-01  0.0000E+00  0.0000E+00  0.0000E+00  0.0000E+00  0.0000E+00
     18.061  0.4012E-02  0.6423E-02  0.6423E-02  0.6423E-02  0.0000E+00  0.0000E+00  0.0000E+00  0.0000E+00  0.0000E+00
     18.161  0.1122E-01  0.1334E-01  0.1334E-01  0.1334E-01  0.0000E+00  0.0000E+00  0.0000E+00  0.0000E+00  0.0000E+00
     18.261  0.8827E-02  0.1047E-01  0.1047E-01  0.1047E-01  0.0000E+00  0.0000E+00  0.0000E+00  0.0000E+00  0.0000E+00
     18.361  0.3189E-02  0.6256E-02  0.6256E-02  0.6256E-02  0.0000E+00  0.0000E+00  0.0000E+00  0.0000E+00  0.0000E+00
     18.462  0.1329E-01  0.1995E-01  0.1995E-01  0.1995E-01  0.0000E+00  0.0000E+00  0.0000E+00  0.0000E+00  0.0000E+00
     18.562  0.1704E-01  0.2414E-01  0.2414E-01  0.2414E-01  0.0000E+00  0.0000E+00  0.0000E+00  0.0000E+00  0.0000E+00
     18.662  0.4837E-01  0.6695E-01  0.6695E-01  0.6695E-01  0.0000E+00  0.0000E+00  0.0000E+00  0.0000E+00  0.0000E+00
     18.762  0.5151E-01  0.7570E-01  0.7570E-01  0.7570E-01  0.0000E+00  0.0000E+00  0.0000E+00  0.0000E+00  0.0000E+00
     18.862  0.6884E-01  0.9555E-01  0.9555E-01  0.9555E-01  0.0000E+00  0.0000E+00  0.0000E+00  0.0000E+00  0.0000E+00
     18.963  0.3918E-01  0.6283E-01  0.6283E-01  0.6283E-01  0.0000E+00  0.0000E+00  0.0000E+00  0.0000E+00  0.0000E+00
     19.063  0.9847E-02  0.1841E-01  0.1841E-01  0.1841E-01  0.0000E+00  0.0000E+00  0.0000E+00  0.0000E+00  0.0000E+00
     19.163  0.7959E-02  0.2476E-01  0.2476E-01  0.2476E-01  0.0000E+00  0.0000E+00  0.0000E+00  0.0000E+00  0.0000E+00
     19.263  0.6813E-02  0.1441E-01  0.1441E-01  0.1441E-01  0.0000E+00  0.0000E+00  0.0000E+00  0.0000E+00  0.0000E+00
     19.364  0.7776E-02  0.1943E-01  0.1943E-01  0.1943E-01  0.0000E+00  0.0000E+00  0.0000E+00  0.0000E+00  0.0000E+00
     19.464  0.8598E-02  0.1739E-01  0.1739E-01  0.1739E-01  0.0000E+00  0.0000E+00  0.0000E+00  0.0000E+00  0.0000E+00
     19.564  0.8229E-02  0.1165E-01  0.1165E-01  0.1165E-01  0.0000E+00  0.0000E+00  0.0000E+00  0.0000E+00  0.0000E+00
     19.664  0.6845E-02  0.1664E-01  0.1664E-01  0.1664E-01  0.0000E+00  0.0000E+00  0.0000E+00  0.0000E+00  0.0000E+00
     19.764  0.7296E-02  0.1433E-01  0.1433E-01  0.1433E-01  0.0000E+00  0.0000E+00  0.0000E+00  0.0000E+00  0.0000E+00
     19.865  0.5978E-02  0.1640E-01  0.1640E-01  0.1640E-01  0.0000E+00  0.0000E+00  0.0000E+00  0.0000E+00  0.0000E+00
     19.965  0.5600E-02  0.1165E-01  0.1165E-01  0.1165E-01  0.0000E+00  0.0000E+00  0.0000E+00  0.0000E+00  0.0000E+00
     20.065  0.4466E-02  0.1133E-01  0.1133E-01  0.1133E-01  0.0000E+00  0.0000E+00  0.0000E+00  0.0000E+00  0.0000E+00
     20.165  0.4146E-02  0.1119E-01  0.1119E-01  0.1119E-01  0.0000E+00  0.0000E+00  0.0000E+00  0.0000E+00  0.0000E+00
     20.266  0.3808E-02  0.1178E-01  0.1178E-01  0.1178E-01  0.0000E+00  0.0000E+00  0.0000E+00  0.0000E+00  0.0000E+00
     20.366  0.3591E-02  0.1204E-01  0.1204E-01  0.1204E-01  0.0000E+00  0.0000E+00  0.0000E+00  0.0000E+00  0.0000E+00
     20.466  0.2889E-02  0.1334E-01  0.1334E-01  0.1334E-01  0.0000E+00  0.0000E+00  0.0000E+00  0.0000E+00  0.0000E+00
     20.566  0.3300E-02  0.1521E-01  0.1521E-01  0.1521E-01  0.0000E+00  0.0000E+00  0.0000E+00  0.0000E+00  0.0000E+00
     20.666  0.2093E-02  0.2460E-01  0.2460E-01  0.2460E-01  0.0000E+00  0.0000E+00  0.0000E+00  0.0000E+00  0.0000E+00
     20.767  0.1979E-02  0.1349E-01  0.1349E-01  0.1349E-01  0.0000E+00  0.0000E+00  0.0000E+00  0.0000E+00  0.0000E+00
     20.867  0.1238E-02  0.7138E-02  0.7138E-02  0.7138E-02  0.0000E+00  0.0000E+00  0.0000E+00  0.0000E+00  0.0000E+00
     20.967  0.5256E-03  0.6104E-02  0.6104E-02  0.6104E-02  0.0000E+00  0.0000E+00  0.0000E+00  0.0000E+00  0.0000E+00
     21.067  0.1611E-02  0.1179E-01  0.1179E-01  0.1179E-01  0.0000E+00  0.0000E+00  0.0000E+00  0.0000E+00  0.0000E+00
     21.168  0.6467E-03  0.6198E-02  0.6198E-02  0.6198E-02  0.0000E+00  0.0000E+00  0.0000E+00  0.0000E+00  0.0000E+00
     21.268  0.4148E-03  0.1256E-02  0.1256E-02  0.1256E-02  0.0000E+00  0.0000E+00  0.0000E+00  0.0000E+00  0.0000E+00
     21.368  0.1650E-04  0.4084E-04  0.4084E-04  0.4084E-04  0.0000E+00  0.0000E+00  0.0000E+00  0.0000E+00  0.0000E+00
     21.468  0.8122E-09  0.2008E-08  0.2008E-08  0.2008E-08  0.0000E+00  0.0000E+00  0.0000E+00  0.0000E+00  0.0000E+00
     21.568  0.1809E-16  0.4473E-16  0.4473E-16  0.4473E-16  0.0000E+00  0.0000E+00  0.0000E+00  0.0000E+00  0.0000E+00
     21.669  0.0000E+00  0.0000E+00  0.0000E+00  0.0000E+00  0.0000E+00  0.0000E+00  0.0000E+00  0.0000E+00  0.0000E+00
     21.769  0.0000E+00  0.0000E+00  0.0000E+00  0.0000E+00  0.0000E+00  0.0000E+00  0.0000E+00  0.0000E+00  0.0000E+00
     21.869  0.0000E+00  0.0000E+00  0.0000E+00  0.0000E+00  0.0000E+00  0.0000E+00  0.0000E+00  0.0000E+00  0.0000E+00
     21.969  0.0000E+00  0.0000E+00  0.0000E+00  0.0000E+00  0.0000E+00  0.0000E+00  0.0000E+00  0.0000E+00  0.0000E+00
     22.070  0.0000E+00  0.0000E+00  0.0000E+00  0.0000E+00  0.0000E+00  0.0000E+00  0.0000E+00  0.0000E+00  0.0000E+00
     22.170  0.0000E+00  0.0000E+00  0.0000E+00  0.0000E+00  0.0000E+00  0.0000E+00  0.0000E+00  0.0000E+00  0.0000E+00
     22.270  0.0000E+00  0.0000E+00  0.0000E+00  0.0000E+00  0.0000E+00  0.0000E+00  0.0000E+00  0.0000E+00  0.0000E+00
     22.370  0.0000E+00  0.0000E+00  0.0000E+00  0.0000E+00  0.0000E+00  0.0000E+00  0.0000E+00  0.0000E+00  0.0000E+00
     22.470  0.0000E+00  0.0000E+00  0.0000E+00  0.0000E+00  0.0000E+00  0.0000E+00  0.0000E+00  0.0000E+00  0.0000E+00
     22.571  0.0000E+00  0.0000E+00  0.0000E+00  0.0000E+00  0.0000E+00  0.0000E+00  0.0000E+00  0.0000E+00  0.0000E+00
     22.57065116     -7.49556704  301      6.04675874      1.00000000
     -7.496  0.0000E+00  0.0000E+00  0.0000E+00  0.0000E+00  0.0000E+00  0.0000E+00  0.0000E+00  0.0000E+00  0.0000E+00
     -7.395  0.0000E+00  0.0000E+00  0.0000E+00  0.0000E+00  0.0000E+00  0.0000E+00  0.0000E+00  0.0000E+00  0.0000E+00
     -7.295  0.0000E+00  0.0000E+00  0.0000E+00  0.0000E+00  0.0000E+00  0.0000E+00  0.0000E+00  0.0000E+00  0.0000E+00
     -7.195  0.0000E+00  0.0000E+00  0.0000E+00  0.0000E+00  0.0000E+00  0.0000E+00  0.0000E+00  0.0000E+00  0.0000E+00
     -7.095  0.0000E+00  0.0000E+00  0.0000E+00  0.0000E+00  0.0000E+00  0.0000E+00  0.0000E+00  0.0000E+00  0.0000E+00
     -6.994  0.0000E+00  0.0000E+00  0.0000E+00  0.0000E+00  0.0000E+00  0.0000E+00  0.0000E+00  0.0000E+00  0.0000E+00
     -6.894  0.0000E+00  0.0000E+00  0.0000E+00  0.0000E+00  0.0000E+00  0.0000E+00  0.0000E+00  0.0000E+00  0.0000E+00
     -6.794  0.0000E+00  0.0000E+00  0.0000E+00  0.0000E+00  0.0000E+00  0.0000E+00  0.0000E+00  0.0000E+00  0.0000E+00
     -6.694  0.0000E+00  0.0000E+00  0.0000E+00  0.0000E+00  0.0000E+00  0.0000E+00  0.0000E+00  0.0000E+00  0.0000E+00
     -6.594  0.0000E+00  0.0000E+00  0.0000E+00  0.0000E+00  0.0000E+00  0.0000E+00  0.0000E+00  0.0000E+00  0.0000E+00
     -6.493  0.0000E+00  0.0000E+00  0.0000E+00  0.0000E+00  0.0000E+00  0.0000E+00  0.0000E+00  0.0000E+00  0.0000E+00
     -6.393  0.4271E-14  0.1121E-18  0.1121E-18  0.1121E-18  0.0000E+00  0.0000E+00  0.0000E+00  0.0000E+00  0.0000E+00
     -6.293  0.2230E-06  0.9587E-11  0.9587E-11  0.9587E-11  0.0000E+00  0.0000E+00  0.0000E+00  0.0000E+00  0.0000E+00
     -6.193  0.5918E-02  0.5329E-06  0.5329E-06  0.5329E-06  0.0000E+00  0.0000E+00  0.0000E+00  0.0000E+00  0.0000E+00
     -6.092  0.2354E+00  0.6713E-04  0.6713E-04  0.6713E-04  0.0000E+00  0.0000E+00  0.0000E+00  0.0000E+00  0.0000E+00
     -5.992  0.2433E+00  0.2962E-03  0.2962E-03  0.2962E-03  0.0000E+00  0.0000E+00  0.0000E+00  0.0000E+00  0.0000E+00
     -5.892  0.1460E+00  0.4516E-03  0.4516E-03  0.4516E-03  0.0000E+00  0.0000E+00  0.0000E+00  0.0000E+00  0.0000E+00
     -5.792  0.1161E+00  0.5614E-03  0.5614E-03  0.5614E-03  0.0000E+00  0.0000E+00  0.0000E+00  0.0000E+00  0.0000E+00
     -5.692  0.9966E-01  0.6514E-03  0.6514E-03  0.6514E-03  0.0000E+00  0.0000E+00  0.0000E+00  0.0000E+00  0.0000E+00
     -5.591  0.8874E-01  0.7286E-03  0.7286E-03  0.7286E-03  0.0000E+00  0.0000E+00  0.0000E+00  0.0000E+00  0.0000E+00
     -5.491  0.8055E-01  0.7945E-03  0.7945E-03  0.7945E-03  0.0000E+00  0.0000E+00  0.0000E+00  0.0000E+00  0.0000E+00
     -5.391  0.7479E-01  0.8597E-03  0.8597E-03  0.8597E-03  0.0000E+00  0.0000E+00  0.0000E+00  0.0000E+00  0.0000E+00
     -5.291  0.7091E-01  0.9296E-03  0.9296E-03  0.9296E-03  0.0000E+00  0.0000E+00  0.0000E+00  0.0000E+00  0.0000E+00
     -5.190  0.6808E-01  0.1003E-02  0.1003E-02  0.1003E-02  0.0000E+00  0.0000E+00  0.0000E+00  0.0000E+00  0.0000E+00
     -5.090  0.6460E-01  0.1056E-02  0.1056E-02  0.1056E-02  0.0000E+00  0.0000E+00  0.0000E+00  0.0000E+00  0.0000E+00
     -4.990  0.5884E-01  0.1050E-02  0.1050E-02  0.1050E-02  0.0000E+00  0.0000E+00  0.0000E+00  0.0000E+00  0.0000E+00
     -4.890  0.5476E-01  0.1048E-02  0.1048E-02  0.1048E-02  0.0000E+00  0.0000E+00  0.0000E+00  0.0000E+00  0.0000E+00
     -4.790  0.5854E-01  0.1206E-02  0.1206E-02  0.1206E-02  0.0000E+00  0.0000E+00  0.0000E+00  0.0000E+00  0.0000E+00
     -4.689  0.5988E-01  0.1333E-02  0.1333E-02  0.1333E-02  0.0000E+00  0.0000E+00  0.0000E+00  0.0000E+00  0.0000E+00
     -4.589  0.4889E-01  0.1142E-02  0.1142E-02  0.1142E-02  0.0000E+00  0.0000E+00  0.0000E+00  0.0000E+00  0.0000E+00
     -4.489  0.4988E-01  0.1211E-02  0.1211E-02  0.1211E-02  0.0000E+00  0.0000E+00  0.0000E+00  0.0000E+00  0.0000E+00
     -4.389  0.6058E-01  0.1579E-02  0.1579E-02  0.1579E-02  0.0000E+00  0.0000E+00  0.0000E+00  0.0000E+00  0.0000E+00
     -4.289  0.4742E-01  0.1258E-02  0.1258E-02  0.1258E-02  0.0000E+00  0.0000E+00  0.0000E+00  0.0000E+00  0.0000E+00
     -4.188  0.5029E-01  0.1372E-02  0.1372E-02  0.1372E-02  0.0000E+00  0.0000E+00  0.0000E+00  0.0000E+00  0.0000E+00
     -4.088  0.6192E-01  0.1789E-02  0.1789E-02  0.1789E-02  0.0000E+00  0.0000E+00  0.0000E+00  0.0000E+00  0.0000E+00
     -3.988  0.4694E-01  0.1278E-02  0.1278E-02  0.1278E-02  0.0000E+00  0.0000E+00  0.0000E+00  0.0000E+00  0.0000E+00
     -3.888  0.6851E-01  0.1963E-02  0.1963E-02  0.1963E-02  0.0000E+00  0.0000E+00  0.0000E+00  0.0000E+00  0.0000E+00
     -3.787  0.9126E-01  0.2334E-02  0.2334E-02  0.2334E-02  0.0000E+00  0.0000E+00  0.0000E+00  0.0000E+00  0.0000E+00
     -3.687  0.4093E-01  0.1264E-02  0.1264E-02  0.1264E-02  0.0000E+00  0.0000E+00  0.0000E+00  0.0000E+00  0.0000E+00
     -3.587  0.3263E-01  0.1304E-02  0.1304E-02  0.1304E-02  0.0000E+00  0.0000E+00  0.0000E+00  0.0000E+00  0.0000E+00
     -3.487  0.2280E-01  0.9218E-03  0.9218E-03  0.9218E-03  0.0000E+00  0.0000E+00  0.0000E+00  0.0000E+00  0.0000E+00
     -3.387  0.2844E-01  0.1269E-02  0.1269E-02  0.1269E-02  0.0000E+00  0.0000E+00  0.0000E+00  0.0000E+00  0.0000E+00
     -3.286  0.2542E-01  0.1047E-02  0.1047E-02  0.1047E-02  0.0000E+00  0.0000E+00  0.0000E+00  0.0000E+00  0.0000E+00
     -3.186  0.2977E-01  0.1429E-02  0.1429E-02  0.1429E-02  0.0000E+00  0.0000E+00  0.0000E+00  0.0000E+00  0.0000E+00
     -3.086  0.1921E-01  0.8333E-03  0.8333E-03  0.8333E-03  0.0000E+00  0.0000E+00  0.0000E+00  0.0000E+00  0.0000E+00
     -2.986  0.3815E-01  0.1872E-02  0.1872E-02  0.1872E-02  0.0000E+00  0.0000E+00  0.0000E+00  0.0000E+00  0.0000E+00
     -2.885  0.1686E-01  0.7787E-03  0.7787E-03  0.7787E-03  0.0000E+00  0.0000E+00  0.0000E+00  0.0000E+00  0.0000E+00
     -2.785  0.3448E-01  0.1821E-02  0.1821E-02  0.1821E-02  0.0000E+00  0.0000E+00  0.0000E+00  0.0000E+00  0.0000E+00
     -2.685  0.2370E-01  0.1120E-02  0.1120E-02  0.1120E-02  0.0000E+00  0.0000E+00  0.0000E+00  0.0000E+00  0.0000E+00
     -2.585  0.3811E-01  0.2111E-02  0.2111E-02  0.2111E-02  0.0000E+00  0.0000E+00  0.0000E+00  0.0000E+00  0.0000E+00
     -2.485  0.2436E-01  0.1237E-02  0.1237E-02  0.1237E-02  0.0000E+00  0.0000E+00  0.0000E+00  0.0000E+00  0.0000E+00
     -2.384  0.1641E+00  0.8752E-02  0.8752E-02  0.8752E-02  0.0000E+00  0.0000E+00  0.0000E+00  0.0000E+00  0.0000E+00
     -2.284  0.2586E+00  0.1370E-01  0.1370E-01  0.1370E-01  0.0000E+00  0.0000E+00  0.0000E+00  0.0000E+00  0.0000E+00
     -2.184  0.1535E+00  0.8841E-02  0.8841E-02  0.8841E-02  0.0000E+00  0.0000E+00  0.0000E+00  0.0000E+00  0.0000E+00
     -2.084  0.1130E+00  0.6778E-02  0.6778E-02  0.6778E-02  0.0000E+00  0.0000E+00  0.0000E+00  0.0000E+00  0.0000E+00
     -1.983  0.3169E+00  0.2326E-01  0.2326E-01  0.2326E-01  0.0000E+00  0.0000E+00  0.0000E+00  0.0000E+00  0.0000E+00
     -1.883  0.8171E+00  0.6101E-01  0.6101E-01  0.6101E-01  0.0000E+00  0.0000E+00  0.0000E+00  0.0000E+00  0.0000E+00
     -1.783  0.7088E+00  0.4994E-01  0.4994E-01  0.4994E-01  0.0000E+00  0.0000E+00  0.0000E+00  0.0000E+00  0.0000E+00
     -1.683  0.1492E+00  0.1077E-01  0.1077E-01  0.1077E-01  0.0000E+00  0.0000E+00  0.0000E+00  0.0000E+00  0.0000E+00
     -1.583  0.1028E+00  0.7930E-02  0.7930E-02  0.7930E-02  0.0000E+00  0.0000E+00  0.0000E+00  0.0000E+00  0.0000E+00
     -1.482  0.1704E+00  0.1450E-01  0.1450E-01  0.1450E-01  0.0000E+00  0.0000E+00  0.0000E+00  0.0000E+00  0.0000E+00
     -1.382  0.3303E+00  0.3154E-01  0.3154E-01  0.3154E-01  0.0000E+00  0.0000E+00  0.0000E+00  0.0000E+00  0.0000E+00
     -1.282  0.1147E+00  0.1135E-01  0.1135E-01  0.1135E-01  0.0000E+00  0.0000E+00  0.0000E+00  0.0000E+00  0.0000E+00
     -1.182  0.2477E-01  0.2895E-02  0.2895E-02  0.2895E-02  0.0000E+00  0.0000E+00  0.0000E+00  0.0000E+00  0.0000E+00
     -1.081  0.4484E-01  0.9534E-02  0.9534E-02  0.9534E-02  0.0000E+00  0.0000E+00  0.0000E+00  0.0000E+00  0.0000E+00
     -0.981  0.4561E-01  0.8168E-02  0.8168E-02  0.8168E-02  0.0000E+00  0.0000E+00  0.0000E+00  0.0000E+00  0.0000E+00
     -0.881  0.2870E-01  0.5408E-02  0.5408E-02  0.5408E-02  0.0000E+00  0.0000E+00  0.0000E+00  0.0000E+00  0.0000E+00
     -0.781  0.3772E-01  0.5791E-02  0.5791E-02  0.5791E-02  0.0000E+00  0.0000E+00  0.0000E+00  0.0000E+00  0.0000E+00
     -0.681  0.2186E-01  0.4315E-02  0.4315E-02  0.4315E-02  0.0000E+00  0.0000E+00  0.0000E+00  0.0000E+00  0.0000E+00
     -0.580  0.3658E-01  0.6091E-02  0.6091E-02  0.6091E-02  0.0000E+00  0.0000E+00  0.0000E+00  0.0000E+00  0.0000E+00
     -0.480  0.2319E-01  0.3676E-02  0.3676E-02  0.3676E-02  0.0000E+00  0.0000E+00  0.0000E+00  0.0000E+00  0.0000E+00
     -0.380  0.2286E-01  0.4727E-02  0.4727E-02  0.4727E-02  0.0000E+00  0.0000E+00  0.0000E+00  0.0000E+00  0.0000E+00
     -0.280  0.3518E-01  0.5263E-02  0.5263E-02  0.5263E-02  0.0000E+00  0.0000E+00  0.0000E+00  0.0000E+00  0.0000E+00
     -0.179  0.1505E-01  0.3564E-02  0.3564E-02  0.3564E-02  0.0000E+00  0.0000E+00  0.0000E+00  0.0000E+00  0.0000E+00
     -0.079  0.3248E-01  0.5250E-02  0.5250E-02  0.5250E-02  0.0000E+00  0.0000E+00  0.0000E+00  0.0000E+00  0.0000E+00
      0.021  0.2040E-01  0.4226E-02  0.4226E-02  0.4226E-02  0.0000E+00  0.0000E+00  0.0000E+00  0.0000E+00  0.0000E+00
      0.121  0.1919E-01  0.3582E-02  0.3582E-02  0.3582E-02  0.0000E+00  0.0000E+00  0.0000E+00  0.0000E+00  0.0000E+00
      0.221  0.3188E-01  0.6021E-02  0.6021E-02  0.6021E-02  0.0000E+00  0.0000E+00  0.0000E+00  0.0000E+00  0.0000E+00
      0.322  0.1223E-01  0.2458E-02  0.2458E-02  0.2458E-02  0.0000E+00  0.0000E+00  0.0000E+00  0.0000E+00  0.0000E+00
      0.422  0.3177E-01  0.6505E-02  0.6505E-02  0.6505E-02  0.0000E+00  0.0000E+00  0.0000E+00  0.0000E+00  0.0000E+00
      0.522  0.1494E-01  0.2663E-02  0.2663E-02  0.2663E-02  0.0000E+00  0.0000E+00  0.0000E+00  0.0000E+00  0.0000E+00
      0.622  0.2126E-01  0.5345E-02  0.5345E-02  0.5345E-02  0.0000E+00  0.0000E+00  0.0000E+00  0.0000E+00  0.0000E+00
      0.723  0.2511E-01  0.4312E-02  0.4312E-02  0.4312E-02  0.0000E+00  0.0000E+00  0.0000E+00  0.0000E+00  0.0000E+00
      0.823  0.1453E-01  0.4095E-02  0.4095E-02  0.4095E-02  0.0000E+00  0.0000E+00  0.0000E+00  0.0000E+00  0.0000E+00
      0.923  0.2609E-01  0.5222E-02  0.5222E-02  0.5222E-02  0.0000E+00  0.0000E+00  0.0000E+00  0.0000E+00  0.0000E+00
      1.023  0.1329E-01  0.3026E-02  0.3026E-02  0.3026E-02  0.0000E+00  0.0000E+00  0.0000E+00  0.0000E+00  0.0000E+00
      1.123  0.2229E-01  0.5848E-02  0.5848E-02  0.5848E-02  0.0000E+00  0.0000E+00  0.0000E+00  0.0000E+00  0.0000E+00
      1.224  0.1752E-01  0.3089E-02  0.3089E-02  0.3089E-02  0.0000E+00  0.0000E+00  0.0000E+00  0.0000E+00  0.0000E+00
      1.324  0.2292E-01  0.6728E-02  0.6728E-02  0.6728E-02  0.0000E+00  0.0000E+00  0.0000E+00  0.0000E+00  0.0000E+00
      1.424  0.1391E-01  0.1347E-01  0.1347E-01  0.1347E-01  0.0000E+00  0.0000E+00  0.0000E+00  0.0000E+00  0.0000E+00
      1.524  0.2367E-01  0.4963E-01  0.4963E-01  0.4963E-01  0.0000E+00  0.0000E+00  0.0000E+00  0.0000E+00  0.0000E+00
      1.625  0.1437E-01  0.8707E-01  0.8707E-01  0.8707E-01  0.0000E+00  0.0000E+00  0.0000E+00  0.0000E+00  0.0000E+00
      1.725  0.1991E-01  0.5181E-01  0.5181E-01  0.5181E-01  0.0000E+00  0.0000E+00  0.0000E+00  0.0000E+00  0.0000E+00
      1.825  0.2291E-01  0.4395E-01  0.4395E-01  0.4395E-01  0.0000E+00  0.0000E+00  0.0000E+00  0.0000E+00  0.0000E+00
      1.925  0.1025E-01  0.3680E-01  0.3680E-01  0.3680E-01  0.0000E+00  0.0000E+00  0.0000E+00  0.0000E+00  0.0000E+00
      2.025  0.2557E-01  0.1015E+00  0.1015E+00  0.1015E+00  0.0000E+00  0.0000E+00  0.0000E+00  0.0000E+00  0.0000E+00
      2.126  0.1266E-01  0.8396E-01  0.8396E-01  0.8396E-01  0.0000E+00  0.0000E+00  0.0000E+00  0.0000E+00  0.0000E+00
      2.226  0.1901E-01  0.6075E-01  0.6075E-01  0.6075E-01  0.0000E+00  0.0000E+00  0.0000E+00  0.0000E+00  0.0000E+00
      2.326  0.2397E-01  0.5876E-01  0.5876E-01  0.5876E-01  0.0000E+00  0.0000E+00  0.0000E+00  0.0000E+00  0.0000E+00
      2.426  0.9835E-02  0.4793E-01  0.4793E-01  0.4793E-01  0.0000E+00  0.0000E+00  0.0000E+00  0.0000E+00  0.0000E+00
      2.527  0.2357E-01  0.5085E-01  0.5085E-01  0.5085E-01  0.0000E+00  0.0000E+00  0.0000E+00  0.0000E+00  0.0000E+00
      2.627  0.1661E-01  0.5173E-01  0.5173E-01  0.5173E-01  0.0000E+00  0.0000E+00  0.0000E+00  0.0000E+00  0.0000E+00
      2.727  0.1534E-01  0.4826E-01  0.4826E-01  0.4826E-01  0.0000E+00  0.0000E+00  0.0000E+00  0.0000E+00  0.0000E+00
      2.827  0.2175E-01  0.6008E-01  0.6008E-01  0.6008E-01  0.0000E+00  0.0000E+00  0.0000E+00  0.0000E+00  0.0000E+00
      2.927  0.1091E-01  0.7137E-01  0.7137E-01  0.7137E-01  0.0000E+00  0.0000E+00  0.0000E+00  0.0000E+00  0.0000E+00
      3.028  0.1675E-01  0.1411E+00  0.1411E+00  0.1411E+00  0.0000E+00  0.0000E+00  0.0000E+00  0.0000E+00  0.0000E+00
      3.128  0.1775E-01  0.7534E-01  0.7534E-01  0.7534E-01  0.0000E+00  0.0000E+00  0.0000E+00  0.0000E+00  0.0000E+00
      3.228  0.1341E-01  0.5355E-01  0.5355E-01  0.5355E-01  0.0000E+00  0.0000E+00  0.0000E+00  0.0000E+00  0.0000E+00
      3.328  0.1177E-01  0.5253E-01  0.5253E-01  0.5253E-01  0.0000E+00  0.0000E+00  0.0000E+00  0.0000E+00  0.0000E+00
      3.428  0.1622E-01  0.7264E-01  0.7264E-01  0.7264E-01  0.0000E+00  0.0000E+00  0.0000E+00  0.0000E+00  0.0000E+00
      3.529  0.1272E-01  0.4173E-01  0.4173E-01  0.4173E-01  0.0000E+00  0.0000E+00  0.0000E+00  0.0000E+00  0.0000E+00
      3.629  0.1137E-01  0.3567E-01  0.3567E-01  0.3567E-01  0.0000E+00  0.0000E+00  0.0000E+00  0.0000E+00  0.0000E+00
      3.729  0.1744E-01  0.3558E-01  0.3558E-01  0.3558E-01  0.0000E+00  0.0000E+00  0.0000E+00  0.0000E+00  0.0000E+00
      3.829  0.5519E-02  0.2847E-01  0.2847E-01  0.2847E-01  0.0000E+00  0.0000E+00  0.0000E+00  0.0000E+00  0.0000E+00
      3.930  0.1595E-01  0.3495E-01  0.3495E-01  0.3495E-01  0.0000E+00  0.0000E+00  0.0000E+00  0.0000E+00  0.0000E+00
      4.030  0.1395E-01  0.3114E-01  0.3114E-01  0.3114E-01  0.0000E+00  0.0000E+00  0.0000E+00  0.0000E+00  0.0000E+00
      4.130  0.2499E-02  0.2509E-01  0.2509E-01  0.2509E-01  0.0000E+00  0.0000E+00  0.0000E+00  0.0000E+00  0.0000E+00
      4.230  0.2225E-01  0.3690E-01  0.3690E-01  0.3690E-01  0.0000E+00  0.0000E+00  0.0000E+00  0.0000E+00  0.0000E+00
      4.330  0.3982E-02  0.2337E-01  0.2337E-01  0.2337E-01  0.0000E+00  0.0000E+00  0.0000E+00  0.0000E+00  0.0000E+00
      4.431  0.8978E-02  0.2902E-01  0.2902E-01  0.2902E-01  0.0000E+00  0.0000E+00  0.0000E+00  0.0000E+00  0.0000E+00
      4.531  0.1597E-01  0.3393E-01  0.3393E-01  0.3393E-01  0.0000E+00  0.0000E+00  0.0000E+00  0.0000E+00  0.0000E+00
      4.631  0.2118E-02  0.5875E-01  0.5875E-01  0.5875E-01  0.0000E+00  0.0000E+00  0.0000E+00  0.0000E+00  0.0000E+00
      4.731  0.1549E-01  0.1370E+00  0.1370E+00  0.1370E+00  0.0000E+00  0.0000E+00  0.0000E+00  0.0000E+00  0.0000E+00
      4.832  0.5427E-02  0.8428E-01  0.8428E-01  0.8428E-01  0.0000E+00  0.0000E+00  0.0000E+00  0.0000E+00  0.0000E+00
      4.932  0.9472E-02  0.7536E-01  0.7536E-01  0.7536E-01  0.0000E+00  0.0000E+00  0.0000E+00  0.0000E+00  0.0000E+00
      5.032  0.7802E-02  0.7032E-01  0.7032E-01  0.7032E-01  0.0000E+00  0.0000E+00  0.0000E+00  0.0000E+00  0.0000E+00
      5.132  0.7526E-02  0.6519E-01  0.6519E-01  0.6519E-01  0.0000E+00  0.0000E+00  0.0000E+00  0.0000E+00  0.0000E+00
      5.232  0.5746E-02  0.6112E-01  0.6112E-01  0.6112E-01  0.0000E+00  0.0000E+00  0.0000E+00  0.0000E+00  0.0000E+00
      5.333  0.7962E-02  0.6921E-01  0.6921E-01  0.6921E-01  0.0000E+00  0.0000E+00  0.0000E+00  0.0000E+00  0.0000E+00
      5.433  0.4204E-02  0.6614E-01  0.6614E-01  0.6614E-01  0.0000E+00  0.0000E+00  0.0000E+00  0.0000E+00  0.0000E+00
      5.533  0.6206E-02  0.7458E-01  0.7458E-01  0.7458E-01  0.0000E+00  0.0000E+00  0.0000E+00  0.0000E+00  0.0000E+00
      5.633  0.3706E-02  0.8137E-01  0.8137E-01  0.8137E-01  0.0000E+00  0.0000E+00  0.0000E+00  0.0000E+00  0.0000E+00
      5.734  0.3415E-02  0.1064E+00  0.1064E+00  0.1064E+00  0.0000E+00  0.0000E+00  0.0000E+00  0.0000E+00  0.0000E+00
      5.834  0.1654E-02  0.1946E+00  0.1946E+00  0.1946E+00  0.0000E+00  0.0000E+00  0.0000E+00  0.0000E+00  0.0000E+00
      5.934  0.1556E-03  0.7072E-01  0.7072E-01  0.7072E-01  0.0000E+00  0.0000E+00  0.0000E+00  0.0000E+00  0.0000E+00
      6.034  0.7843E-07  0.1961E-03  0.1961E-03  0.1961E-03  0.0000E+00  0.0000E+00  0.0000E+00  0.0000E+00  0.0000E+00
      6.134  0.2602E-13  0.4460E-09  0.4460E-09  0.4460E-09  0.0000E+00  0.0000E+00  0.0000E+00  0.0000E+00  0.0000E+00
      6.235  0.1256E-07  0.3411E-08  0.3411E-08  0.3411E-08  0.0000E+00  0.0000E+00  0.0000E+00  0.0000E+00  0.0000E+00
      6.335  0.5017E-03  0.1365E-03  0.1365E-03  0.1365E-03  0.0000E+00  0.0000E+00  0.0000E+00  0.0000E+00  0.0000E+00
      6.435  0.2817E-01  0.7729E-02  0.7729E-02  0.7729E-02  0.0000E+00  0.0000E+00  0.0000E+00  0.0000E+00  0.0000E+00
      6.535  0.5065E-01  0.1354E-01  0.1354E-01  0.1354E-01  0.0000E+00  0.0000E+00  0.0000E+00  0.0000E+00  0.0000E+00
      6.636  0.6553E-01  0.1694E-01  0.1694E-01  0.1694E-01  0.0000E+00  0.0000E+00  0.0000E+00  0.0000E+00  0.0000E+00
      6.736  0.3863E-01  0.1132E-01  0.1132E-01  0.1132E-01  0.0000E+00  0.0000E+00  0.0000E+00  0.0000E+00  0.0000E+00
      6.836  0.3020E-01  0.9771E-02  0.9771E-02  0.9771E-02  0.0000E+00  0.0000E+00  0.0000E+00  0.0000E+00  0.0000E+00
      6.936  0.2585E-01  0.9113E-02  0.9113E-02  0.9113E-02  0.0000E+00  0.0000E+00  0.0000E+00  0.0000E+00  0.0000E+00
      7.036  0.3389E-01  0.1158E-01  0.1158E-01  0.1158E-01  0.0000E+00  0.0000E+00  0.0000E+00  0.0000E+00  0.0000E+00
      7.137  0.4862E-01  0.1601E-01  0.1601E-01  0.1601E-01  0.0000E+00  0.0000E+00  0.0000E+00  0.0000E+00  0.0000E+00
      7.237  0.3646E-01  0.1349E-01  0.1349E-01  0.1349E-01  0.0000E+00  0.0000E+00  0.0000E+00  0.0000E+00  0.0000E+00
      7.337  0.4341E-01  0.1336E-01  0.1336E-01  0.1336E-01  0.0000E+00  0.0000E+00  0.0000E+00  0.0000E+00  0.0000E+00
      7.437  0.1489E+00  0.1721E-01  0.1721E-01  0.1721E-01  0.0000E+00  0.0000E+00  0.0000E+00  0.0000E+00  0.0000E+00
      7.538  0.1068E+00  0.1613E-01  0.1613E-01  0.1613E-01  0.0000E+00  0.0000E+00  0.0000E+00  0.0000E+00  0.0000E+00
      7.638  0.7865E-01  0.1570E-01  0.1570E-01  0.1570E-01  0.0000E+00  0.0000E+00  0.0000E+00  0.0000E+00  0.0000E+00
      7.738  0.6657E-01  0.1560E-01  0.1560E-01  0.1560E-01  0.0000E+00  0.0000E+00  0.0000E+00  0.0000E+00  0.0000E+00
      7.838  0.5731E-01  0.1544E-01  0.1544E-01  0.1544E-01  0.0000E+00  0.0000E+00  0.0000E+00  0.0000E+00  0.0000E+00
      7.938  0.5549E-01  0.1703E-01  0.1703E-01  0.1703E-01  0.0000E+00  0.0000E+00  0.0000E+00  0.0000E+00  0.0000E+00
      8.039  0.5009E-01  0.1774E-01  0.1774E-01  0.1774E-01  0.0000E+00  0.0000E+00  0.0000E+00  0.0000E+00  0.0000E+00
      8.139  0.4832E-01  0.1898E-01  0.1898E-01  0.1898E-01  0.0000E+00  0.0000E+00  0.0000E+00  0.0000E+00  0.0000E+00
      8.239  0.4384E-01  0.2005E-01  0.2005E-01  0.2005E-01  0.0000E+00  0.0000E+00  0.0000E+00  0.0000E+00  0.0000E+00
      8.339  0.4409E-01  0.2959E-01  0.2959E-01  0.2959E-01  0.0000E+00  0.0000E+00  0.0000E+00  0.0000E+00  0.0000E+00
      8.440  0.4664E-01  0.1420E+00  0.1420E+00  0.1420E+00  0.0000E+00  0.0000E+00  0.0000E+00  0.0000E+00  0.0000E+00
      8.540  0.3387E-01  0.1085E+00  0.1085E+00  0.1085E+00  0.0000E+00  0.0000E+00  0.0000E+00  0.0000E+00  0.0000E+00
      8.640  0.2718E-01  0.6462E-01  0.6462E-01  0.6462E-01  0.0000E+00  0.0000E+00  0.0000E+00  0.0000E+00  0.0000E+00
      8.740  0.4315E-01  0.6277E-01  0.6277E-01  0.6277E-01  0.0000E+00  0.0000E+00  0.0000E+00  0.0000E+00  0.0000E+00
      8.840  0.6407E-01  0.6121E-01  0.6121E-01  0.6121E-01  0.0000E+00  0.0000E+00  0.0000E+00  0.0000E+00  0.0000E+00
      8.941  0.7726E-01  0.6014E-01  0.6014E-01  0.6014E-01  0.0000E+00  0.0000E+00  0.0000E+00  0.0000E+00  0.0000E+00
      9.041  0.1518E-01  0.4392E-01  0.4392E-01  0.4392E-01  0.0000E+00  0.0000E+00  0.0000E+00  0.0000E+00  0.0000E+00
      9.141  0.1770E-01  0.4232E-01  0.4232E-01  0.4232E-01  0.0000E+00  0.0000E+00  0.0000E+00  0.0000E+00  0.0000E+00
      9.241  0.1775E+00  0.8961E-01  0.8961E-01  0.8961E-01  0.0000E+00  0.0000E+00  0.0000E+00  0.0000E+00  0.0000E+00
      9.342  0.1797E+00  0.9592E-01  0.9592E-01  0.9592E-01  0.0000E+00  0.0000E+00  0.0000E+00  0.0000E+00  0.0000E+00
      9.442  0.9601E-01  0.7348E-01  0.7348E-01  0.7348E-01  0.0000E+00  0.0000E+00  0.0000E+00  0.0000E+00  0.0000E+00
      9.542  0.8497E-01  0.1901E-01  0.1901E-01  0.1901E-01  0.0000E+00  0.0000E+00  0.0000E+00  0.0000E+00  0.0000E+00
      9.642  0.5170E-01  0.2763E-01  0.2763E-01  0.2763E-01  0.0000E+00  0.0000E+00  0.0000E+00  0.0000E+00  0.0000E+00
      9.742  0.8902E-01  0.2120E-01  0.2120E-01  0.2120E-01  0.0000E+00  0.0000E+00  0.0000E+00  0.0000E+00  0.0000E+00
      9.843  0.2586E-01  0.2386E-01  0.2386E-01  0.2386E-01  0.0000E+00  0.0000E+00  0.0000E+00  0.0000E+00  0.0000E+00
      9.943  0.9113E-01  0.3390E-01  0.3390E-01  0.3390E-01  0.0000E+00  0.0000E+00  0.0000E+00  0.0000E+00  0.0000E+00
     10.043  0.7284E-01  0.7546E-01  0.7546E-01  0.7546E-01  0.0000E+00  0.0000E+00  0.0000E+00  0.0000E+00  0.0000E+00
     10.143  0.7145E-01  0.7344E-01  0.7344E-01  0.7344E-01  0.0000E+00  0.0000E+00  0.0000E+00  0.0000E+00  0.0000E+00
     10.244  0.8193E-01  0.4026E-01  0.4026E-01  0.4026E-01  0.0000E+00  0.0000E+00  0.0000E+00  0.0000E+00  0.0000E+00
     10.344  0.4124E-01  0.1660E-01  0.1660E-01  0.1660E-01  0.0000E+00  0.0000E+00  0.0000E+00  0.0000E+00  0.0000E+00
     10.444  0.3110E-01  0.1517E-01  0.1517E-01  0.1517E-01  0.0000E+00  0.0000E+00  0.0000E+00  0.0000E+00  0.0000E+00
     10.544  0.1688E-01  0.1732E-01  0.1732E-01  0.1732E-01  0.0000E+00  0.0000E+00  0.0000E+00  0.0000E+00  0.0000E+00
     10.644  0.1947E-01  0.9222E-02  0.9222E-02  0.9222E-02  0.0000E+00  0.0000E+00  0.0000E+00  0.0000E+00  0.0000E+00
     10.745  0.2123E-01  0.1740E-01  0.1740E-01  0.1740E-01  0.0000E+00  0.0000E+00  0.0000E+00  0.0000E+00  0.0000E+00
     10.845  0.3958E-01  0.2730E-01  0.2730E-01  0.2730E-01  0.0000E+00  0.0000E+00  0.0000E+00  0.0000E+00  0.0000E+00
     10.945  0.7267E-01  0.4302E-01  0.4302E-01  0.4302E-01  0.0000E+00  0.0000E+00  0.0000E+00  0.0000E+00  0.0000E+00
     11.045  0.4296E-01  0.3520E-01  0.3520E-01  0.3520E-01  0.0000E+00  0.0000E+00  0.0000E+00  0.0000E+00  0.0000E+00
     11.145  0.4545E-01  0.2748E-01  0.2748E-01  0.2748E-01  0.0000E+00  0.0000E+00  0.0000E+00  0.0000E+00  0.0000E+00
     11.246  0.3560E-01  0.3258E-01  0.3258E-01  0.3258E-01  0.0000E+00  0.0000E+00  0.0000E+00  0.0000E+00  0.0000E+00
     11.346  0.3545E-01  0.2840E-01  0.2840E-01  0.2840E-01  0.0000E+00  0.0000E+00  0.0000E+00  0.0000E+00  0.0000E+00
     11.446  0.4950E-01  0.3297E-01  0.3297E-01  0.3297E-01  0.0000E+00  0.0000E+00  0.0000E+00  0.0000E+00  0.0000E+00
     11.546  0.5529E-01  0.4116E-01  0.4116E-01  0.4116E-01  0.0000E+00  0.0000E+00  0.0000E+00  0.0000E+00  0.0000E+00
     11.647  0.4589E-01  0.3293E-01  0.3293E-01  0.3293E-01  0.0000E+00  0.0000E+00  0.0000E+00  0.0000E+00  0.0000E+00
     11.747  0.3208E-01  0.3380E-01  0.3380E-01  0.3380E-01  0.0000E+00  0.0000E+00  0.0000E+00  0.0000E+00  0.0000E+00
     11.847  0.2445E-01  0.2662E-01  0.2662E-01  0.2662E-01  0.0000E+00  0.0000E+00  0.0000E+00  0.0000E+00  0.0000E+00
     11.947  0.3544E-01  0.2872E-01  0.2872E-01  0.2872E-01  0.0000E+00  0.0000E+00  0.0000E+00  0.0000E+00  0.0000E+00
     12.047  0.1875E-01  0.3178E-01  0.3178E-01  0.3178E-01  0.0000E+00  0.0000E+00  0.0000E+00  0.0000E+00  0.0000E+00
     12.148  0.2762E-01  0.2520E-01  0.2520E-01  0.2520E-01  0.0000E+00  0.0000E+00  0.0000E+00  0.0000E+00  0.0000E+00
     12.248  0.2388E-01  0.2715E-01  0.2715E-01  0.2715E-01  0.0000E+00  0.0000E+00  0.0000E+00  0.0000E+00  0.0000E+00
     12.348  0.3274E-01  0.2795E-01  0.2795E-01  0.2795E-01  0.0000E+00  0.0000E+00  0.0000E+00  0.0000E+00  0.0000E+00
     12.448  0.3852E-01  0.2188E-01  0.2188E-01  0.2188E-01  0.0000E+00  0.0000E+00  0.0000E+00  0.0000E+00  0.0000E+00
     12.549  0.3129E-01  0.3512E-01  0.3512E-01  0.3512E-01  0.0000E+00  0.0000E+00  0.0000E+00  0.0000E+00  0.0000E+00
     12.649  0.2274E-01  0.2036E-01  0.2036E-01  0.2036E-01  0.0000E+00  0.0000E+00  0.0000E+00  0.0000E+00  0.0000E+00
     12.749  0.3485E-01  0.3010E-01  0.3010E-01  0.3010E-01  0.0000E+00  0.0000E+00  0.0000E+00  0.0000E+00  0.0000E+00
     12.849  0.2032E-01  0.3305E-01  0.3305E-01  0.3305E-01  0.0000E+00  0.0000E+00  0.0000E+00  0.0000E+00  0.0000E+00
     12.949  0.3894E-01  0.3235E-01  0.3235E-01  0.3235E-01  0.0000E+00  0.0000E+00  0.0000E+00  0.0000E+00  0.0000E+00
     13.050  0.2283E-01  0.4079E-01  0.4079E-01  0.4079E-01  0.0000E+00  0.0000E+00  0.0000E+00  0.0000E+00  0.0000E+00
     13.150  0.2581E-01  0.3289E-01  0.3289E-01  0.3289E-01  0.0000E+00  0.0000E+00  0.0000E+00  0.0000E+00  0.0000E+00
     13.250  0.2784E-01  0.3163E-01  0.3163E-01  0.3163E-01  0.0000E+00  0.0000E+00  0.0000E+00  0.0000E+00  0.0000E+00
     13.350  0.1975E-01  0.4622E-01  0.4622E-01  0.4622E-01  0.0000E+00  0.0000E+00  0.0000E+00  0.0000E+00  0.0000E+00
     13.451  0.2444E-01  0.2649E-01  0.2649E-01  0.2649E-01  0.0000E+00  0.0000E+00  0.0000E+00  0.0000E+00  0.0000E+00
     13.551  0.2892E-01  0.2861E-01  0.2861E-01  0.2861E-01  0.0000E+00  0.0000E+00  0.0000E+00  0.0000E+00  0.0000E+00
     13.651  0.2163E-01  0.4084E-01  0.4084E-01  0.4084E-01  0.0000E+00  0.0000E+00  0.0000E+00  0.0000E+00  0.0000E+00
     13.751  0.2978E-01  0.3314E-01  0.3314E-01  0.3314E-01  0.0000E+00  0.0000E+00  0.0000E+00  0.0000E+00  0.0000E+00
     13.851  0.9982E-01  0.3941E-01  0.3941E-01  0.3941E-01  0.0000E+00  0.0000E+00  0.0000E+00  0.0000E+00  0.0000E+00
     13.952  0.6932E-01  0.3059E-01  0.3059E-01  0.3059E-01  0.0000E+00  0.0000E+00  0.0000E+00  0.0000E+00  0.0000E+00
     14.052  0.5501E-01  0.2913E-01  0.2913E-01  0.2913E-01  0.0000E+00  0.0000E+00  0.0000E+00  0.0000E+00  0.0000E+00
     14.152  0.4718E-01  0.3684E-01  0.3684E-01  0.3684E-01  0.0000E+00  0.0000E+00  0.0000E+00  0.0000E+00  0.0000E+00
     14.252  0.3200E-01  0.1464E-01  0.1464E-01  0.1464E-01  0.0000E+00  0.0000E+00  0.0000E+00  0.0000E+00  0.0000E+00
     14.353  0.3473E-01  0.3045E-01  0.3045E-01  0.3045E-01  0.0000E+00  0.0000E+00  0.0000E+00  0.0000E+00  0.0000E+00
     14.453  0.2946E-01  0.2186E-01  0.2186E-01  0.2186E-01  0.0000E+00  0.0000E+00  0.0000E+00  0.0000E+00  0.0000E+00
     14.553  0.2298E-01  0.1929E-01  0.1929E-01  0.1929E-01  0.0000E+00  0.0000E+00  0.0000E+00  0.0000E+00  0.0000E+00
     14.653  0.3202E-01  0.2927E-01  0.2927E-01  0.2927E-01  0.0000E+00  0.0000E+00  0.0000E+00  0.0000E+00  0.0000E+00
     14.753  0.4466E-01  0.2774E-01  0.2774E-01  0.2774E-01  0.0000E+00  0.0000E+00  0.0000E+00  0.0000E+00  0.0000E+00
     14.854  0.4827E-01  0.2590E-01  0.2590E-01  0.2590E-01  0.0000E+00  0.0000E+00  0.0000E+00  0.0000E+00  0.0000E+00
     14.954  0.4873E-01  0.3546E-01  0.3546E-01  0.3546E-01  0.0000E+00  0.0000E+00  0.0000E+00  0.0000E+00  0.0000E+00
     15.054  0.5039E-01  0.3057E-01  0.3057E-01  0.3057E-01  0.0000E+00  0.0000E+00  0.0000E+00  0.0000E+00  0.0000E+00
     15.154  0.1566E-01  0.2524E-01  0.2524E-01  0.2524E-01  0.0000E+00  0.0000E+00  0.0000E+00  0.0000E+00  0.0000E+00
     15.255  0.2561E-01  0.3601E-01  0.3601E-01  0.3601E-01  0.0000E+00  0.0000E+00  0.0000E+00  0.0000E+00  0.0000E+00
     15.355  0.2361E-01  0.2594E-01  0.2594E-01  0.2594E-01  0.0000E+00  0.0000E+00  0.0000E+00  0.0000E+00  0.0000E+00
     15.455  0.2224E-01  0.3575E-01  0.3575E-01  0.3575E-01  0.0000E+00  0.0000E+00  0.0000E+00  0.0000E+00  0.0000E+00
     15.555  0.1985E-01  0.3026E-01  0.3026E-01  0.3026E-01  0.0000E+00  0.0000E+00  0.0000E+00  0.0000E+00  0.0000E+00
     15.655  0.1987E-01  0.4128E-01  0.4128E-01  0.4128E-01  0.0000E+00  0.0000E+00  0.0000E+00  0.0000E+00  0.0000E+00
     15.756  0.2143E-01  0.4134E-01  0.4134E-01  0.4134E-01  0.0000E+00  0.0000E+00  0.0000E+00  0.0000E+00  0.0000E+00
     15.856  0.1080E-01  0.4604E-01  0.4604E-01  0.4604E-01  0.0000E+00  0.0000E+00  0.0000E+00  0.0000E+00  0.0000E+00
     15.956  0.3127E-01  0.9413E-01  0.9413E-01  0.9413E-01  0.0000E+00  0.0000E+00  0.0000E+00  0.0000E+00  0.0000E+00
     16.056  0.1029E-01  0.4357E-01  0.4357E-01  0.4357E-01  0.0000E+00  0.0000E+00  0.0000E+00  0.0000E+00  0.0000E+00
     16.157  0.9490E-02  0.1714E-01  0.1714E-01  0.1714E-01  0.0000E+00  0.0000E+00  0.0000E+00  0.0000E+00  0.0000E+00
     16.257  0.2621E-01  0.2714E-01  0.2714E-01  0.2714E-01  0.0000E+00  0.0000E+00  0.0000E+00  0.0000E+00  0.0000E+00
     16.357  0.1204E-01  0.3494E-01  0.3494E-01  0.3494E-01  0.0000E+00  0.0000E+00  0.0000E+00  0.0000E+00  0.0000E+00
     16.457  0.1815E-01  0.2300E+00  0.2300E+00  0.2300E+00  0.0000E+00  0.0000E+00  0.0000E+00  0.0000E+00  0.0000E+00
     16.557  0.3031E-01  0.8537E-01  0.8537E-01  0.8537E-01  0.0000E+00  0.0000E+00  0.0000E+00  0.0000E+00  0.0000E+00
     16.658  0.1664E-01  0.4464E-01  0.4464E-01  0.4464E-01  0.0000E+00  0.0000E+00  0.0000E+00  0.0000E+00  0.0000E+00
     16.758  0.1020E-01  0.2143E-01  0.2143E-01  0.2143E-01  0.0000E+00  0.0000E+00  0.0000E+00  0.0000E+00  0.0000E+00
     16.858  0.2779E-01  0.1981E-01  0.1981E-01  0.1981E-01  0.0000E+00  0.0000E+00  0.0000E+00  0.0000E+00  0.0000E+00
     16.958  0.1162E-01  0.9921E-02  0.9921E-02  0.9921E-02  0.0000E+00  0.0000E+00  0.0000E+00  0.0000E+00  0.0000E+00
     17.059  0.1838E-01  0.1668E-01  0.1668E-01  0.1668E-01  0.0000E+00  0.0000E+00  0.0000E+00  0.0000E+00  0.0000E+00
     17.159  0.2009E-01  0.2885E-01  0.2885E-01  0.2885E-01  0.0000E+00  0.0000E+00  0.0000E+00  0.0000E+00  0.0000E+00
     17.259  0.1363E-01  0.1775E-01  0.1775E-01  0.1775E-01  0.0000E+00  0.0000E+00  0.0000E+00  0.0000E+00  0.0000E+00
     17.359  0.1256E-01  0.1397E-01  0.1397E-01  0.1397E-01  0.0000E+00  0.0000E+00  0.0000E+00  0.0000E+00  0.0000E+00
     17.459  0.1157E-01  0.1114E-01  0.1114E-01  0.1114E-01  0.0000E+00  0.0000E+00  0.0000E+00  0.0000E+00  0.0000E+00
     17.560  0.5696E-02  0.7115E-02  0.7115E-02  0.7115E-02  0.0000E+00  0.0000E+00  0.0000E+00  0.0000E+00  0.0000E+00
     17.660  0.9311E-02  0.1105E-01  0.1105E-01  0.1105E-01  0.0000E+00  0.0000E+00  0.0000E+00  0.0000E+00  0.0000E+00
     17.760  0.1279E-01  0.1160E-01  0.1160E-01  0.1160E-01  0.0000E+00  0.0000E+00  0.0000E+00  0.0000E+00  0.0000E+00
     17.860  0.6905E-02  0.8663E-02  0.8663E-02  0.8663E-02  0.0000E+00  0.0000E+00  0.0000E+00  0.0000E+00  0.0000E+00
     17.960  0.9775E-02  0.1191E-01  0.1191E-01  0.1191E-01  0.0000E+00  0.0000E+00  0.0000E+00  0.0000E+00  0.0000E+00
     18.061  0.4012E-02  0.6423E-02  0.6423E-02  0.6423E-02  0.0000E+00  0.0000E+00  0.0000E+00  0.0000E+00  0.0000E+00
     18.161  0.1122E-01  0.1334E-01  0.1334E-01  0.1334E-01  0.0000E+00  0.0000E+00  0.0000E+00  0.0000E+00  0.0000E+00
     18.261  0.8827E-02  0.1047E-01  0.1047E-01  0.1047E-01  0.0000E+00  0.0000E+00  0.0000E+00  0.0000E+00  0.0000E+00
     18.361  0.3189E-02  0.6256E-02  0.6256E-02  0.6256E-02  0.0000E+00  0.0000E+00  0.0000E+00  0.0000E+00  0.0000E+00
     18.462  0.1329E-01  0.1995E-01  0.1995E-01  0.1995E-01  0.0000E+00  0.0000E+00  0.0000E+00  0.0000E+00  0.0000E+00
     18.562  0.1704E-01  0.2414E-01  0.2414E-01  0.2414E-01  0.0000E+00  0.0000E+00  0.0000E+00  0.0000E+00  0.0000E+00
     18.662  0.4837E-01  0.6695E-01  0.6695E-01  0.6695E-01  0.0000E+00  0.0000E+00  0.0000E+00  0.0000E+00  0.0000E+00
     18.762  0.5151E-01  0.7570E-01  0.7570E-01  0.7570E-01  0.0000E+00  0.0000E+00  0.0000E+00  0.0000E+00  0.0000E+00
     18.862  0.6884E-01  0.9555E-01  0.9555E-01  0.9555E-01  0.0000E+00  0.0000E+00  0.0000E+00  0.0000E+00  0.0000E+00
     18.963  0.3918E-01  0.6283E-01  0.6283E-01  0.6283E-01  0.0000E+00  0.0000E+00  0.0000E+00  0.0000E+00  0.0000E+00
     19.063  0.9847E-02  0.1841E-01  0.1841E-01  0.1841E-01  0.0000E+00  0.0000E+00  0.0000E+00  0.0000E+00  0.0000E+00
     19.163  0.7959E-02  0.2476E-01  0.2476E-01  0.2476E-01  0.0000E+00  0.0000E+00  0.0000E+00  0.0000E+00  0.0000E+00
     19.263  0.6813E-02  0.1441E-01  0.1441E-01  0.1441E-01  0.0000E+00  0.0000E+00  0.0000E+00  0.0000E+00  0.0000E+00
     19.364  0.7776E-02  0.1943E-01  0.1943E-01  0.1943E-01  0.0000E+00  0.0000E+00  0.0000E+00  0.0000E+00  0.0000E+00
     19.464  0.8598E-02  0.1739E-01  0.1739E-01  0.1739E-01  0.0000E+00  0.0000E+00  0.0000E+00  0.0000E+00  0.0000E+00
     19.564  0.8229E-02  0.1165E-01  0.1165E-01  0.1165E-01  0.0000E+00  0.0000E+00  0.0000E+00  0.0000E+00  0.0000E+00
     19.664  0.6845E-02  0.1664E-01  0.1664E-01  0.1664E-01  0.0000E+00  0.0000E+00  0.0000E+00  0.0000E+00  0.0000E+00
     19.764  0.7296E-02  0.1433E-01  0.1433E-01  0.1433E-01  0.0000E+00  0.0000E+00  0.0000E+00  0.0000E+00  0.0000E+00
     19.865  0.5978E-02  0.1640E-01  0.1640E-01  0.1640E-01  0.0000E+00  0.0000E+00  0.0000E+00  0.0000E+00  0.0000E+00
     19.965  0.5600E-02  0.1165E-01  0.1165E-01  0.1165E-01  0.0000E+00  0.0000E+00  0.0000E+00  0.0000E+00  0.0000E+00
     20.065  0.4466E-02  0.1133E-01  0.1133E-01  0.1133E-01  0.0000E+00  0.0000E+00  0.0000E+00  0.0000E+00  0.0000E+00
     20.165  0.4146E-02  0.1119E-01  0.1119E-01  0.1119E-01  0.0000E+00  0.0000E+00  0.0000E+00  0.0000E+00  0.0000E+00
     20.266  0.3808E-02  0.1178E-01  0.1178E-01  0.1178E-01  0.0000E+00  0.0000E+00  0.0000E+00  0.0000E+00  0.0000E+00
     20.366  0.3591E-02  0.1204E-01  0.1204E-01  0.1204E-01  0.0000E+00  0.0000E+00  0.0000E+00  0.0000E+00  0.0000E+00
     20.466  0.2889E-02  0.1334E-01  0.1334E-01  0.1334E-01  0.0000E+00  0.0000E+00  0.0000E+00  0.0000E+00  0.0000E+00
     20.566  0.3300E-02  0.1521E-01  0.1521E-01  0.1521E-01  0.0000E+00  0.0000E+00  0.0000E+00  0.0000E+00  0.0000E+00
     20.666  0.2093E-02  0.2460E-01  0.2460E-01  0.2460E-01  0.0000E+00  0.0000E+00  0.0000E+00  0.0000E+00  0.0000E+00
     20.767  0.1979E-02  0.1349E-01  0.1349E-01  0.1349E-01  0.0000E+00  0.0000E+00  0.0000E+00  0.0000E+00  0.0000E+00
     20.867  0.1238E-02  0.7138E-02  0.7138E-02  0.7138E-02  0.0000E+00  0.0000E+00  0.0000E+00  0.0000E+00  0.0000E+00
     20.967  0.5256E-03  0.6104E-02  0.6104E-02  0.6104E-02  0.0000E+00  0.0000E+00  0.0000E+00  0.0000E+00  0.0000E+00
     21.067  0.1611E-02  0.1179E-01  0.1179E-01  0.1179E-01  0.0000E+00  0.0000E+00  0.0000E+00  0.0000E+00  0.0000E+00
     21.168  0.6467E-03  0.6198E-02  0.6198E-02  0.6198E-02  0.0000E+00  0.0000E+00  0.0000E+00  0.0000E+00  0.0000E+00
     21.268  0.4148E-03  0.1256E-02  0.1256E-02  0.1256E-02  0.0000E+00  0.0000E+00  0.0000E+00  0.0000E+00  0.0000E+00
     21.368  0.1650E-04  0.4084E-04  0.4084E-04  0.4084E-04  0.0000E+00  0.0000E+00  0.0000E+00  0.0000E+00  0.0000E+00
     21.468  0.8122E-09  0.2008E-08  0.2008E-08  0.2008E-08  0.0000E+00  0.0000E+00  0.0000E+00  0.0000E+00  0.0000E+00
     21.568  0.1809E-16  0.4473E-16  0.4473E-16  0.4473E-16  0.0000E+00  0.0000E+00  0.0000E+00  0.0000E+00  0.0000E+00
     21.669  0.0000E+00  0.0000E+00  0.0000E+00  0.0000E+00  0.0000E+00  0.0000E+00  0.0000E+00  0.0000E+00  0.0000E+00
     21.769  0.0000E+00  0.0000E+00  0.0000E+00  0.0000E+00  0.0000E+00  0.0000E+00  0.0000E+00  0.0000E+00  0.0000E+00
     21.869  0.0000E+00  0.0000E+00  0.0000E+00  0.0000E+00  0.0000E+00  0.0000E+00  0.0000E+00  0.0000E+00  0.0000E+00
     21.969  0.0000E+00  0.0000E+00  0.0000E+00  0.0000E+00  0.0000E+00  0.0000E+00  0.0000E+00  0.0000E+00  0.0000E+00
     22.070  0.0000E+00  0.0000E+00  0.0000E+00  0.0000E+00  0.0000E+00  0.0000E+00  0.0000E+00  0.0000E+00  0.0000E+00
     22.170  0.0000E+00  0.0000E+00  0.0000E+00  0.0000E+00  0.0000E+00  0.0000E+00  0.0000E+00  0.0000E+00  0.0000E+00
     22.270  0.0000E+00  0.0000E+00  0.0000E+00  0.0000E+00  0.0000E+00  0.0000E+00  0.0000E+00  0.0000E+00  0.0000E+00
     22.370  0.0000E+00  0.0000E+00  0.0000E+00  0.0000E+00  0.0000E+00  0.0000E+00  0.0000E+00  0.0000E+00  0.0000E+00
     22.470  0.0000E+00  0.0000E+00  0.0000E+00  0.0000E+00  0.0000E+00  0.0000E+00  0.0000E+00  0.0000E+00  0.0000E+00
     22.571  0.0000E+00  0.0000E+00  0.0000E+00  0.0000E+00  0.0000E+00  0.0000E+00  0.0000E+00  0.0000E+00  0.0000E+00
