    2    2    1    1
  0.2001288E+02  0.3839590E-09  0.3839590E-09  0.3839590E-09  0.5000000E-15
  1.000000000000000E-004
  CAR 
 Si_diamond_PBE_band_vasp                
      8    180     12
 
  0.5000000E+00  0.5000000E+00  0.5000000E+00  0.5555556E-02
      1         -3.796571   1.000000
      2         -1.136374   1.000000
      3          4.634197   1.000000
      4          4.634197   1.000000
      5          7.373508   0.000000
      6          9.172011   0.000000
      7          9.172011   0.000000
      8         13.561627   0.000000
      9         16.383967   0.000000
     10         16.384284   0.000000
     11         17.179058   0.000000
     12         17.191769   0.000000
 
  0.4857143E+00  0.4857143E+00  0.4857143E+00  0.5555556E-02
      1         -3.808309   1.000000
      2         -1.119598   1.000000
      3          4.635661   1.000000
      4          4.635661   1.000000
      5          7.375196   0.000000
      6          9.173726   0.000000
      7          9.173726   0.000000
      8         13.564269   0.000000
      9         16.286362   0.000000
     10         16.286687   0.000000
     11         17.149645   0.000000
     12         17.282833   0.000000
 
  0.4714286E+00  0.4714286E+00  0.4714286E+00  0.5555556E-02
      1         -3.842622   1.000000
      2         -1.070164   1.000000
      3          4.640052   1.000000
      4          4.640052   1.000000
      5          7.380225   0.000000
      6          9.178767   0.000000
      7          9.178768   0.000000
      8         13.572122   0.000000
      9         16.073647   0.000000
     10         16.073655   0.000000
     11         17.023333   0.000000
     12         17.513544   0.000000
 
  0.4571429E+00  0.4571429E+00  0.4571429E+00  0.5555556E-02
      1         -3.897084   1.000000
      2         -0.990493   1.000000
      3          4.647358   1.000000
      4          4.647358   1.000000
      5          7.388626   0.000000
      6          9.187038   0.000000
      7          9.187038   0.000000
      8         13.584964   0.000000
      9         15.825860   0.000000
     10         15.825860   0.000000
     11         16.846100   0.000000
     12         17.791781   0.000000
 
  0.4428571E+00  0.4428571E+00  0.4428571E+00  0.5555556E-02
      1         -3.968352   1.000000
      2         -0.883951   1.000000
      3          4.657593   1.000000
      4          4.657593   1.000000
      5          7.400367   0.000000
      6          9.198371   0.000000
      7          9.198371   0.000000
      8         13.602433   0.000000
      9         15.569637   0.000000
     10         15.569638   0.000000
     11         16.637166   0.000000
     12         18.090615   0.000000
 
  0.4285714E+00  0.4285714E+00  0.4285714E+00  0.5555556E-02
      1         -4.052825   1.000000
      2         -0.754166   1.000000
      3          4.670751   1.000000
      4          4.670751   1.000000
      5          7.415481   0.000000
      6          9.212612   0.000000
      7          9.212612   0.000000
      8         13.623944   0.000000
      9         15.314225   0.000000
     10         15.314225   0.000000
     11         16.410478   0.000000
     12         18.400627   0.000000
 
  0.4142857E+00  0.4142857E+00  0.4142857E+00  0.5555556E-02
      1         -4.147110   1.000000
      2         -0.604567   1.000000
      3          4.686822   1.000000
      4          4.686822   1.000000
      5          7.433901   0.000000
      6          9.229263   0.000000
      7          9.229263   0.000000
      8         13.648489   0.000000
      9         15.063517   0.000000
     10         15.063517   0.000000
     11         16.174989   0.000000
     12         18.716699   0.000000
 
  0.4000000E+00  0.4000000E+00  0.4000000E+00  0.5555556E-02
      1         -4.248267   1.000000
      2         -0.438151   1.000000
      3          4.705796   1.000000
      4          4.705796   1.000000
      5          7.455614   0.000000
      6          9.247845   0.000000
      7          9.247845   0.000000
      8         13.674718   0.000000
      9         14.819989   0.000000
     10         14.819989   0.000000
     11         15.936727   0.000000
     12         19.037305   0.000000
 
  0.3857143E+00  0.3857143E+00  0.3857143E+00  0.5555556E-02
      1         -4.353874   1.000000
      2         -0.257407   1.000000
      3          4.727660   1.000000
      4          4.727660   1.000000
      5          7.480575   0.000000
      6          9.267764   0.000000
      7          9.267765   0.000000
      8         13.700331   0.000000
      9         14.585096   0.000000
     10         14.585096   0.000000
     11         15.700681   0.000000
     12         19.356978   0.000000
 
  0.3714286E+00  0.3714286E+00  0.3714286E+00  0.5555556E-02
      1         -4.461974   1.000000
      2         -0.064347   1.000000
      3          4.752385   1.000000
      4          4.752385   1.000000
      5          7.508737   0.000000
      6          9.288300   0.000000
      7          9.288300   0.000000
      8         13.721757   0.000000
      9         14.360007   0.000000
     10         14.360008   0.000000
     11         15.472035   0.000000
     12         19.681496   0.000000
 
  0.3571429E+00  0.3571429E+00  0.3571429E+00  0.5555556E-02
      1         -4.571005   1.000000
      2          0.139405   1.000000
      3          4.779970   1.000000
      4          4.779970   1.000000
      5          7.539949   0.000000
      6          9.308627   0.000000
      7          9.308627   0.000000
      8         13.733217   0.000000
      9         14.146168   0.000000
     10         14.146168   0.000000
     11         15.257428   0.000000
     12         19.823660   0.000000
 
  0.3428571E+00  0.3428571E+00  0.3428571E+00  0.5555556E-02
      1         -4.679747   1.000000
      2          0.352538   1.000000
      3          4.810381   1.000000
      4          4.810381   1.000000
      5          7.574330   0.000000
      6          9.327777   0.000000
      7          9.327777   0.000000
      8         13.725797   0.000000
      9         13.944793   0.000000
     10         13.944793   0.000000
     11         15.066381   0.000000
     12         19.627476   0.000000
 
  0.3285714E+00  0.3285714E+00  0.3285714E+00  0.5555556E-02
      1         -4.787247   1.000000
      2          0.573985   1.000000
      3          4.843560   1.000000
      4          4.843560   1.000000
      5          7.611694   0.000000
      6          9.344603   0.000000
      7          9.344603   0.000000
      8         13.687026   0.000000
      9         13.756994   0.000000
     10         13.756994   0.000000
     11         14.911323   0.000000
     12         19.369042   0.000000
 
  0.3142857E+00  0.3142857E+00  0.3142857E+00  0.5555556E-02
      1         -4.892737   1.000000
      2          0.802862   1.000000
      3          4.879468   1.000000
      4          4.879468   1.000000
      5          7.651943   0.000000
      6          9.357894   0.000000
      7          9.357894   0.000000
      8         13.584176   0.000000
      9         13.584176   0.000000
     10         13.604560   0.000000
     11         14.804399   0.000000
     12         19.078602   0.000000
 
  0.3000000E+00  0.3000000E+00  0.3000000E+00  0.5555556E-02
      1         -4.995614   1.000000
      2          1.038431   1.000000
      3          4.918032   1.000000
      4          4.918032   1.000000
      5          7.694960   0.000000
      6          9.366291   0.000000
      7          9.366291   0.000000
      8         13.427568   0.000000
      9         13.427568   0.000000
     10         13.473754   0.000000
     11         14.749760   0.000000
     12         18.770119   0.000000
 
  0.2857143E+00  0.2857143E+00  0.2857143E+00  0.5555556E-02
      1         -5.095404   1.000000
      2          1.280004   1.000000
      3          4.959188   1.000000
      4          4.959188   1.000000
      5          7.740583   0.000000
      6          9.368583   0.000000
      7          9.368583   0.000000
      8         13.289046   0.000000
      9         13.289046   0.000000
     10         13.301029   0.000000
     11         14.740053   0.000000
     12         18.453937   0.000000
 
  0.2714286E+00  0.2714286E+00  0.2714286E+00  0.5555556E-02
      1         -5.191702   1.000000
      2          1.527022   1.000000
      3          5.002822   1.000000
      4          5.002822   1.000000
      5          7.788637   0.000000
      6          9.363315   0.000000
      7          9.363315   0.000000
      8         13.098074   0.000000
      9         13.169369   0.000000
     10         13.169369   0.000000
     11         14.762325   0.000000
     12         18.138294   0.000000
 
  0.2571429E+00  0.2571429E+00  0.2571429E+00  0.5555556E-02
      1         -5.284178   1.000000
      2          1.778936   1.000000
      3          5.048830   1.000000
      4          5.048830   1.000000
      5          7.838896   0.000000
      6          9.349531   0.000000
      7          9.349531   0.000000
      8         12.875190   0.000000
      9         13.069934   0.000000
     10         13.069934   0.000000
     11         14.804351   0.000000
     12         17.829201   0.000000
 
  0.2428571E+00  0.2428571E+00  0.2428571E+00  0.5555556E-02
      1         -5.372577   1.000000
      2          2.035232   1.000000
      3          5.097026   1.000000
      4          5.097026   1.000000
      5          7.891128   0.000000
      6          9.326141   0.000000
      7          9.326141   0.000000
      8         12.639459   0.000000
      9         12.991350   0.000000
     10         12.991350   0.000000
     11         14.856384   0.000000
     12         17.533038   0.000000
 
  0.2285714E+00  0.2285714E+00  0.2285714E+00  0.5555556E-02
      1         -5.456676   1.000000
      2          2.295379   1.000000
      3          5.147243   1.000000
      4          5.147243   1.000000
      5          7.945014   0.000000
      6          9.292821   0.000000
      7          9.292821   0.000000
      8         12.395331   0.000000
      9         12.934073   0.000000
     10         12.934073   0.000000
     11         14.909898   0.000000
     12         17.255740   0.000000
 
  0.2142857E+00  0.2142857E+00  0.2142857E+00  0.5555556E-02
      1         -5.536285   1.000000
      2          2.558842   1.000000
      3          5.199286   1.000000
      4          5.199286   1.000000
      5          8.000186   0.000000
      6          9.249600   0.000000
      7          9.249600   0.000000
      8         12.145616   0.000000
      9         12.898138   0.000000
     10         12.898138   0.000000
     11         14.956183   0.000000
     12         17.005194   0.000000
 
  0.2000000E+00  0.2000000E+00  0.2000000E+00  0.5555556E-02
      1         -5.611271   1.000000
      2          2.824990   1.000000
      3          5.252826   1.000000
      4          5.252826   1.000000
      5          8.056303   0.000000
      6          9.197013   0.000000
      7          9.197013   0.000000
      8         11.892193   0.000000
      9         12.882717   0.000000
     10         12.882717   0.000000
     11         14.984996   0.000000
     12         16.790811   0.000000
 
  0.1857143E+00  0.1857143E+00  0.1857143E+00  0.5555556E-02
      1         -5.681512   1.000000
      2          3.093172   1.000000
      3          5.307562   1.000000
      4          5.307562   1.000000
      5          8.112629   0.000000
      6          9.136064   0.000000
      7          9.136064   0.000000
      8         11.636378   0.000000
      9         12.886345   0.000000
     10         12.886345   0.000000
     11         14.984794   0.000000
     12         16.624211   0.000000
 
  0.1714286E+00  0.1714286E+00  0.1714286E+00  0.5555556E-02
      1         -5.746887   1.000000
      2          3.362625   1.000000
      3          5.363105   1.000000
      4          5.363105   1.000000
      5          8.168627   0.000000
      6          9.068173   0.000000
      7          9.068173   0.000000
      8         11.379383   0.000000
      9         12.907571   0.000000
     10         12.907571   0.000000
     11         14.945687   0.000000
     12         16.515174   0.000000
 
  0.1571429E+00  0.1571429E+00  0.1571429E+00  0.5555556E-02
      1         -5.807301   1.000000
      2          3.632435   1.000000
      3          5.418990   1.000000
      4          5.418990   1.000000
      5          8.223522   0.000000
      6          8.995046   0.000000
      7          8.995046   0.000000
      8         11.122414   0.000000
      9         12.944351   0.000000
     10         12.944351   0.000000
     11         14.865156   0.000000
     12         16.466160   0.000000
 
  0.1428571E+00  0.1428571E+00  0.1428571E+00  0.5555556E-02
      1         -5.862677   1.000000
      2          3.901536   1.000000
      3          5.474631   1.000000
      4          5.474631   1.000000
      5          8.276384   0.000000
      6          8.918578   0.000000
      7          8.918578   0.000000
      8         10.866871   0.000000
      9         12.994376   0.000000
     10         12.994376   0.000000
     11         14.750687   0.000000
     12         16.469688   0.000000
 
  0.1285714E+00  0.1285714E+00  0.1285714E+00  0.5555556E-02
      1         -5.912946   1.000000
      2          4.168371   1.000000
      3          5.529430   1.000000
      4          5.529430   1.000000
      5          8.326003   0.000000
      6          8.840720   0.000000
      7          8.840720   0.000000
      8         10.614540   0.000000
      9         13.054865   0.000000
     10         13.054865   0.000000
     11         14.615405   0.000000
     12         16.511873   0.000000
 
  0.1142857E+00  0.1142857E+00  0.1142857E+00  0.5555556E-02
      1         -5.958052   1.000000
      2          4.431196   1.000000
      3          5.582612   1.000000
      4          5.582612   1.000000
      5          8.370955   0.000000
      6          8.763530   0.000000
      7          8.763530   0.000000
      8         10.367844   0.000000
      9         13.123310   0.000000
     10         13.123313   0.000000
     11         14.472222   0.000000
     12         16.579480   0.000000
 
  0.1000000E+00  0.1000000E+00  0.1000000E+00  0.5555556E-02
      1         -5.997949   1.000000
      2          4.687558   1.000000
      3          5.633303   1.000000
      4          5.633303   1.000000
      5          8.409360   0.000000
      6          8.689098   0.000000
      7          8.689098   0.000000
      8         10.130081   0.000000
      9         13.196696   0.000000
     10         13.196696   0.000000
     11         14.331056   0.000000
     12         16.661445   0.000000
 
  0.8571429E-01  0.8571429E-01  0.8571429E-01  0.5555556E-02
      1         -6.032614   1.000000
      2          4.934188   1.000000
      3          5.680526   1.000000
      4          5.680526   1.000000
      5          8.438985   0.000000
      6          8.619362   0.000000
      7          8.619362   0.000000
      8          9.905941   0.000000
      9         13.271705   0.000000
     10         13.271705   0.000000
     11         14.198982   0.000000
     12         16.751265   0.000000
 
  0.7142857E-01  0.7142857E-01  0.7142857E-01  0.5555556E-02
      1         -6.061998   1.000000
      2          5.166593   1.000000
      3          5.723215   1.000000
      4          5.723215   1.000000
      5          8.456969   0.000000
      6          8.556233   0.000000
      7          8.556233   0.000000
      8          9.701649   0.000000
      9         13.344770   0.000000
     10         13.344770   0.000000
     11         14.080872   0.000000
     12         16.836934   0.000000
 
  0.5714286E-01  0.5714286E-01  0.5714286E-01  0.5555556E-02
      1         -6.086067   1.000000
      2          5.378631   1.000000
      3          5.760277   1.000000
      4          5.760277   1.000000
      5          8.460843   0.000000
      6          8.501569   0.000000
      7          8.501569   0.000000
      8          9.525105   0.000000
      9         13.412263   0.000000
     10         13.412263   0.000000
     11         13.980255   0.000000
     12         16.917968   0.000000
 
  0.4285714E-01  0.4285714E-01  0.4285714E-01  0.5555556E-02
      1         -6.104811   1.000000
      2          5.561938   1.000000
      3          5.790540   1.000000
      4          5.790540   1.000000
      5          8.449754   0.000000
      6          8.457024   0.000000
      7          8.457024   0.000000
      8          9.384510   0.000000
      9         13.470254   0.000000
     10         13.470254   0.000000
     11         13.899630   0.000000
     12         16.989458   0.000000
 
  0.2857143E-01  0.2857143E-01  0.2857143E-01  0.5555556E-02
      1         -6.118208   1.000000
      2          5.706012   1.000000
      3          5.813014   1.000000
      4          5.813014   1.000000
      5          8.424053   0.000000
      6          8.424053   0.000000
      7          8.427927   0.000000
      8          9.285438   0.000000
      9         13.515018   0.000000
     10         13.515022   0.000000
     11         13.840811   0.000000
     12         17.045185   0.000000
 
  0.1428571E-01  0.1428571E-01  0.1428571E-01  0.5555556E-02
      1         -6.126246   1.000000
      2          5.799169   1.000000
      3          5.826863   1.000000
      4          5.826863   1.000000
      5          8.403784   0.000000
      6          8.403784   0.000000
      7          8.406115   0.000000
      8          9.228247   0.000000
      9         13.543353   0.000000
     10         13.543353   0.000000
     11         13.805033   0.000000
     12         17.097442   0.000000
 
  0.0000000E+00  0.0000000E+00  0.1561251E-16  0.5555556E-02
      1         -6.128921   1.000000
      2          5.831544   1.000000
      3          5.831544   1.000000
      4          5.831544   1.000000
      5          8.396945   0.000000
      6          8.396945   0.000000
      7          8.396945   0.000000
      8          9.209801   0.000000
      9         13.553061   0.000000
     10         13.553065   0.000000
     11         13.793025   0.000000
     12         17.085861   0.000000
 
  0.0000000E+00  0.0000000E+00  0.0000000E+00  0.5555556E-02
      1         -6.128921   1.000000
      2          5.831544   1.000000
      3          5.831544   1.000000
      4          5.831544   1.000000
      5          8.396945   0.000000
      6          8.396945   0.000000
      7          8.396945   0.000000
      8          9.209801   0.000000
      9         13.553060   0.000000
     10         13.553063   0.000000
     11         13.793026   0.000000
     12         17.085862   0.000000
 
  0.1428571E-01  0.0000000E+00  0.1428571E-01  0.5555556E-02
      1         -6.125353   1.000000
      2          5.806950   1.000000
      3          5.815980   1.000000
      4          5.815980   1.000000
      5          8.388010   0.000000
      6          8.416917   0.000000
      7          8.416917   0.000000
      8          9.233933   0.000000
      9         13.523340   0.000000
     10         13.557022   0.000000
     11         13.809031   0.000000
     12         17.092163   0.000000
 
  0.2857143E-01  0.0000000E+00  0.2857143E-01  0.5555556E-02
      1         -6.114632   1.000000
      2          5.735299   1.000000
      3          5.770734   1.000000
      4          5.770734   1.000000
      5          8.361560   0.000000
      6          8.475371   0.000000
      7          8.475371   0.000000
      8          9.303857   0.000000
      9         13.437612   0.000000
     10         13.568884   0.000000
     11         13.856670   0.000000
     12         17.111040   0.000000
 
  0.4285714E-01  0.0000000E+00  0.4285714E-01  0.5555556E-02
      1         -6.096760   1.000000
      2          5.622195   1.000000
      3          5.699646   1.000000
      4          5.699646   1.000000
      5          8.318626   0.000000
      6          8.568454   0.000000
      7          8.568454   0.000000
      8          9.412920   0.000000
      9         13.305019   0.000000
     10         13.588661   0.000000
     11         13.934886   0.000000
     12         17.142184   0.000000
 
  0.5714286E-01  0.0000000E+00  0.5714286E-01  0.5555556E-02
      1         -6.071750   1.000000
      2          5.474903   1.000000
      3          5.607728   1.000000
      4          5.607728   1.000000
      5          8.260779   0.000000
      6          8.691085   0.000000
      7          8.691085   0.000000
      8          9.551868   0.000000
      9         13.138008   0.000000
     10         13.616349   0.000000
     11         14.042055   0.000000
     12         17.186353   0.000000
 
  0.7142857E-01  0.0000000E+00  0.7142857E-01  0.5555556E-02
      1         -6.039604   1.000000
      2          5.300654   1.000000
      3          5.500174   1.000000
      4          5.500174   1.000000
      5          8.189955   0.000000
      6          8.838085   0.000000
      7          8.838085   0.000000
      8          9.710061   0.000000
      9         12.950368   0.000000
     10         13.651943   0.000000
     11         14.176161   0.000000
     12         17.242063   0.000000
 
  0.8571429E-01  0.0000000E+00  0.8571429E-01  0.5555556E-02
      1         -6.000342   1.000000
      2          5.105736   1.000000
      3          5.381498   1.000000
      4          5.381498   1.000000
      5          8.108282   0.000000
      6          9.004847   0.000000
      7          9.004847   0.000000
      8          9.875609   0.000000
      9         12.756756   0.000000
     10         13.695443   0.000000
     11         14.334977   0.000000
     12         17.310970   0.000000
 
  0.1000000E+00  0.0000000E+00  0.1000000E+00  0.5555556E-02
      1         -5.954001   1.000000
      2          4.895176   1.000000
      3          5.255433   1.000000
      4          5.255433   1.000000
      5          8.017945   0.000000
      6          9.187730   0.000000
      7          9.187730   0.000000
      8         10.034357   0.000000
      9         12.573699   0.000000
     10         13.747094   0.000000
     11         14.516239   0.000000
     12         17.389384   0.000000
 
  0.1142857E+00  0.0000000E+00  0.1142857E+00  0.5555556E-02
      1         -5.900587   1.000000
      2          4.672828   1.000000
      3          5.124881   1.000000
      4          5.124881   1.000000
      5          7.920965   0.000000
      6          9.383393   0.000000
      7          9.383393   0.000000
      8         10.168186   0.000000
      9         12.421026   0.000000
     10         13.806388   0.000000
     11         14.717640   0.000000
     12         17.481552   0.000000
 
  0.1285714E+00  0.0000000E+00  0.1285714E+00  0.5555556E-02
      1         -5.840112   1.000000
      2          4.441585   1.000000
      3          4.992190   1.000000
      4          4.992190   1.000000
      5          7.819305   0.000000
      6          9.589724   0.000000
      7          9.589724   0.000000
      8         10.254722   0.000000
      9         12.322770   0.000000
     10         13.873642   0.000000
     11         14.937068   0.000000
     12         17.585806   0.000000
 
  0.1428571E+00  0.0000000E+00  0.1428571E+00  0.5555556E-02
      1         -5.772620   1.000000
      2          4.203602   1.000000
      3          4.859003   1.000000
      4          4.859003   1.000000
      5          7.714682   0.000000
      6          9.804755   0.000000
      7          9.804755   0.000000
      8         10.272661   0.000000
      9         12.300886   0.000000
     10         13.948717   0.000000
     11         15.172519   0.000000
     12         17.701823   0.000000
 
  0.1571429E+00  0.0000000E+00  0.1571429E+00  0.5555556E-02
      1         -5.698132   1.000000
      2          3.960493   1.000000
      3          4.726704   1.000000
      4          4.726704   1.000000
      5          7.608660   0.000000
      6         10.027125   0.000000
      7         10.027125   0.000000
      8         10.214273   0.000000
      9         12.364782   0.000000
     10         14.031677   0.000000
     11         15.422141   0.000000
     12         17.829265   0.000000
 
  0.1714286E+00  0.0000000E+00  0.1714286E+00  0.5555556E-02
      1         -5.616685   1.000000
      2          3.713473   1.000000
      3          4.596319   1.000000
      4          4.596319   1.000000
      5          7.502582   0.000000
      6         10.090277   0.000000
      7         10.255869   0.000000
      8         10.255870   0.000000
      9         12.504208   0.000000
     10         14.122828   0.000000
     11         15.684245   0.000000
     12         17.965347   0.000000
 
  0.1857143E+00  0.0000000E+00  0.1857143E+00  0.5555556E-02
      1         -5.528344   1.000000
      2          3.463463   1.000000
      3          4.468686   1.000000
      4          4.468686   1.000000
      5          7.397578   0.000000
      6          9.920362   0.000000
      7         10.489623   0.000000
      8         10.489623   0.000000
      9         12.699457   0.000000
     10         14.221515   0.000000
     11         15.957061   0.000000
     12         18.112487   0.000000
 
  0.2000000E+00  0.0000000E+00  0.2000000E+00  0.5555556E-02
      1         -5.433130   1.000000
      2          3.211183   1.000000
      3          4.344449   1.000000
      4          4.344449   1.000000
      5          7.294709   0.000000
      6          9.723138   0.000000
      7         10.728080   0.000000
      8         10.728082   0.000000
      9         12.933147   0.000000
     10         14.328080   0.000000
     11         16.239035   0.000000
     12         18.268004   0.000000
 
  0.2142857E+00  0.0000000E+00  0.2142857E+00  0.5555556E-02
      1         -5.331094   1.000000
      2          2.957192   1.000000
      3          4.224114   1.000000
      4          4.224114   1.000000
      5          7.194812   0.000000
      6          9.511255   0.000000
      7         10.970497   0.000000
      8         10.970498   0.000000
      9         13.192432   0.000000
     10         14.442500   0.000000
     11         16.528514   0.000000
     12         18.430396   0.000000
 
  0.2285714E+00  0.0000000E+00  0.2285714E+00  0.5555556E-02
      1         -5.222286   1.000000
      2          2.701952   1.000000
      3          4.108115   1.000000
      4          4.108115   1.000000
      5          7.098654   0.000000
      6          9.293111   0.000000
      7         11.216413   0.000000
      8         11.216414   0.000000
      9         13.469006   0.000000
     10         14.564767   0.000000
     11         16.823821   0.000000
     12         18.601883   0.000000
 
  0.2428571E+00  0.0000000E+00  0.2428571E+00  0.5555556E-02
      1         -5.106766   1.000000
      2          2.445832   1.000000
      3          3.996768   1.000000
      4          3.996769   1.000000
      5          7.006822   0.000000
      6          9.074080   0.000000
      7         11.465393   0.000000
      8         11.465399   0.000000
      9         13.757387   0.000000
     10         14.694760   0.000000
     11         17.123025   0.000000
     12         18.765886   0.000000
 
  0.2571429E+00  0.0000000E+00  0.2571429E+00  0.5555556E-02
      1         -4.984594   1.000000
      2          2.189192   1.000000
      3          3.890436   1.000000
      4          3.890436   1.000000
      5          6.920031   0.000000
      6          8.857832   0.000000
      7         11.717232   0.000000
      8         11.717233   0.000000
      9         14.053903   0.000000
     10         14.832687   0.000000
     11         17.424075   0.000000
     12         18.933451   0.000000
 
  0.2714286E+00  0.0000000E+00  0.2714286E+00  0.5555556E-02
      1         -4.855862   1.000000
      2          1.932335   1.000000
      3          3.789295   1.000000
      4          3.789295   1.000000
      5          6.838773   0.000000
      6          8.646752   0.000000
      7         11.971571   0.000000
      8         11.971574   0.000000
      9         14.355895   0.000000
     10         14.978427   0.000000
     11         17.724584   0.000000
     12         19.084821   0.000000
 
  0.2857143E+00  0.0000000E+00  0.2857143E+00  0.5555556E-02
      1         -4.720624   1.000000
      2          1.675547   1.000000
      3          3.693566   1.000000
      4          3.693566   1.000000
      5          6.763341   0.000000
      6          8.442470   0.000000
      7         12.228201   0.000000
      8         12.228214   0.000000
      9         14.661359   0.000000
     10         15.131970   0.000000
     11         18.021508   0.000000
     12         19.217207   0.000000
 
  0.3000000E+00  0.0000000E+00  0.3000000E+00  0.5555556E-02
      1         -4.578957   1.000000
      2          1.419103   1.000000
      3          3.603420   1.000000
      4          3.603420   1.000000
      5          6.694205   0.000000
      6          8.246182   0.000000
      7         12.486970   0.000000
      8         12.486979   0.000000
      9         14.968728   0.000000
     10         15.293301   0.000000
     11         18.311095   0.000000
     12         19.314107   0.000000
 
  0.3142857E+00  0.0000000E+00  0.3142857E+00  0.5555556E-02
      1         -4.430947   1.000000
      2          1.163278   1.000000
      3          3.519002   1.000000
      4          3.519002   1.000000
      5          6.631720   0.000000
      6          8.058846   0.000000
      7         12.747777   0.000000
      8         12.747784   0.000000
      9         15.276785   0.000000
     10         15.462409   0.000000
     11         18.589407   0.000000
     12         19.359605   0.000000
 
  0.3285714E+00  0.0000000E+00  0.3285714E+00  0.5555556E-02
      1         -4.276689   1.000000
      2          0.908322   1.000000
      3          3.440437   1.000000
      4          3.440437   1.000000
      5          6.576201   0.000000
      6          7.880797   0.000000
      7         13.010445   0.000000
      8         13.010455   0.000000
      9         15.584254   0.000000
     10         15.639273   0.000000
     11         18.857561   0.000000
     12         19.340605   0.000000
 
  0.3428571E+00  0.0000000E+00  0.3428571E+00  0.5555556E-02
      1         -4.116282   1.000000
      2          0.654526   1.000000
      3          3.367830   1.000000
      4          3.367831   1.000000
      5          6.527937   0.000000
      6          7.712587   0.000000
      7         13.274893   0.000000
      8         13.274894   0.000000
      9         15.823874   0.000000
     10         15.890243   0.000000
     11         19.112526   0.000000
     12         19.252487   0.000000
 
  0.3571429E+00  0.0000000E+00  0.3571429E+00  0.5555556E-02
      1         -3.949853   1.000000
      2          0.402164   1.000000
      3          3.301275   1.000000
      4          3.301275   1.000000
      5          6.487196   0.000000
      6          7.554497   0.000000
      7         13.541008   0.000000
      8         13.541010   0.000000
      9         16.016200   0.000000
     10         16.193866   0.000000
     11         19.103573   0.000000
     12         19.124635   0.000000
 
  0.3714286E+00  0.0000000E+00  0.3714286E+00  0.5555556E-02
      1         -3.777503   1.000000
      2          0.151508   1.000000
      3          3.240847   1.000000
      4          3.240847   1.000000
      5          6.454159   0.000000
      6          7.406559   0.000000
      7         13.808562   0.000000
      8         13.808562   0.000000
      9         16.216226   0.000000
     10         16.494237   0.000000
     11         18.906976   0.000000
     12         18.933224   0.000000
 
  0.3857143E+00  0.0000000E+00  0.3857143E+00  0.5555556E-02
      1         -3.599346   1.000000
      2         -0.097161   1.000000
      3          3.186619   1.000000
      4          3.186619   1.000000
      5          6.429177   0.000000
      6          7.269173   0.000000
      7         14.077499   0.000000
      8         14.077499   0.000000
      9         16.423935   0.000000
     10         16.790661   0.000000
     11         18.677651   0.000000
     12         18.713760   0.000000
 
  0.4000000E+00  0.0000000E+00  0.4000000E+00  0.5555556E-02
      1         -3.415517   1.000000
      2         -0.343582   1.000000
      3          3.138650   1.000000
      4          3.138650   1.000000
      5          6.412378   0.000000
      6          7.142229   0.000000
      7         14.347334   0.000000
      8         14.347401   0.000000
      9         16.638653   0.000000
     10         17.082267   0.000000
     11         18.426493   0.000000
     12         18.431558   0.000000
 
  0.4142857E+00  0.0000000E+00  0.4142857E+00  0.5555556E-02
      1         -3.226156   1.000000
      2         -0.587476   1.000000
      3          3.096982   1.000000
      4          3.096982   1.000000
      5          6.404047   0.000000
      6          7.025739   0.000000
      7         14.617871   0.000000
      8         14.617872   0.000000
      9         16.861627   0.000000
     10         17.368234   0.000000
     11         18.162322   0.000000
     12         18.162347   0.000000
 
  0.4285714E+00  0.0000000E+00  0.4285714E+00  0.5555556E-02
      1         -3.031414   1.000000
      2         -0.828570   1.000000
      3          3.061660   1.000000
      4          3.061660   1.000000
      5          6.404331   0.000000
      6          6.919618   0.000000
      7         14.887702   0.000000
      8         14.887736   0.000000
      9         17.092377   0.000000
     10         17.647754   0.000000
     11         17.892317   0.000000
     12         17.895594   0.000000
 
  0.4428571E+00  0.0000000E+00  0.4428571E+00  0.5555556E-02
      1         -2.831476   1.000000
      2         -1.066604   1.000000
      3          3.032707   1.000000
      4          3.032707   1.000000
      5          6.413405   0.000000
      6          6.823721   0.000000
      7         15.155040   0.000000
      8         15.155042   0.000000
      9         17.330373   0.000000
     10         17.618803   0.000000
     11         17.618851   0.000000
     12         17.919508   0.000000
 
  0.4571429E+00  0.0000000E+00  0.4571429E+00  0.5555556E-02
      1         -2.626482   1.000000
      2         -1.301309   1.000000
      3          3.010159   1.000000
      4          3.010159   1.000000
      5          6.431310   0.000000
      6          6.737961   0.000000
      7         15.415928   0.000000
      8         15.415937   0.000000
      9         17.352252   0.000000
     10         17.352256   0.000000
     11         17.576024   0.000000
     12         18.182199   0.000000
 
  0.4714286E+00  0.0000000E+00  0.4714286E+00  0.5555556E-02
      1         -2.416618   1.000000
      2         -1.532440   1.000000
      3          2.994047   1.000000
      4          2.994047   1.000000
      5          6.458537   0.000000
      6          6.662451   0.000000
      7         15.660766   0.000000
      8         15.660794   0.000000
      9         17.102414   0.000000
     10         17.102420   0.000000
     11         17.829224   0.000000
     12         18.434688   0.000000
 
  0.4857143E+00  0.0000000E+00  0.4857143E+00  0.5555556E-02
      1         -2.202074   1.000000
      2         -1.759758   1.000000
      3          2.984374   1.000000
      4          2.984374   1.000000
      5          6.495102   0.000000
      6          6.596902   0.000000
      7         15.862467   0.000000
      8         15.862521   0.000000
      9         16.897337   0.000000
     10         16.897352   0.000000
     11         18.090611   0.000000
     12         18.637967   0.000000
 
  0.5000000E+00  0.0000000E+00  0.5000000E+00  0.5555556E-02
      1         -1.983050   1.000000
      2         -1.983050   1.000000
      3          2.981150   1.000000
      4          2.981150   1.000000
      5          6.541170   0.000000
      6          6.541170   0.000000
      7         15.950824   0.000000
      8         15.950833   0.000000
      9         16.807796   0.000000
     10         16.807811   0.000000
     11         18.358292   0.000000
     12         18.358301   0.000000
 
  0.5000000E+00  0.0000000E+00  0.5000000E+00  0.5555556E-02
      1         -1.983050   1.000000
      2         -1.983050   1.000000
      3          2.981150   1.000000
      4          2.981150   1.000000
      5          6.541170   0.000000
      6          6.541170   0.000000
      7         15.950826   0.000000
      8         15.950838   0.000000
      9         16.807802   0.000000
     10         16.807827   0.000000
     11         18.358685   0.000000
     12         18.398374   0.000000
 
  0.5000000E+00  0.7142857E-02  0.5071429E+00  0.5555556E-02
      1         -1.982749   1.000000
      2         -1.982749   1.000000
      3          2.978400   1.000000
      4          2.978400   1.000000
      5          6.546167   0.000000
      6          6.546167   0.000000
      7         15.942843   0.000000
      8         15.942875   0.000000
      9         16.795055   0.000000
     10         16.795085   0.000000
     11         18.369239   0.000000
     12         18.370777   0.000000
 
  0.5000000E+00  0.1428571E-01  0.5142857E+00  0.5555556E-02
      1         -1.981848   1.000000
      2         -1.981848   1.000000
      3          2.970208   1.000000
      4          2.970208   1.000000
      5          6.561101   0.000000
      6          6.561101   0.000000
      7         15.918255   0.000000
      8         15.918306   0.000000
      9         16.759892   0.000000
     10         16.759984   0.000000
     11         18.398527   0.000000
     12         18.401943   0.000000
 
  0.5000000E+00  0.2142857E-01  0.5214286E+00  0.5555556E-02
      1         -1.980353   1.000000
      2         -1.980353   1.000000
      3          2.956742   1.000000
      4          2.956742   1.000000
      5          6.585975   0.000000
      6          6.585975   0.000000
      7         15.875345   0.000000
      8         15.875346   0.000000
      9         16.710119   0.000000
     10         16.710120   0.000000
     11         18.437690   0.000000
     12         18.439269   0.000000
 
  0.5000000E+00  0.2857143E-01  0.5285714E+00  0.5555556E-02
      1         -1.978273   1.000000
      2         -1.978273   1.000000
      3          2.938252   1.000000
      4          2.938252   1.000000
      5          6.620211   0.000000
      6          6.620211   0.000000
      7         15.811937   0.000000
      8         15.811946   0.000000
      9         16.654999   0.000000
     10         16.655005   0.000000
     11         18.477210   0.000000
     12         18.479509   0.000000
 
  0.5000000E+00  0.3571429E-01  0.5357143E+00  0.5555556E-02
      1         -1.975622   1.000000
      2         -1.975622   1.000000
      3          2.915087   1.000000
      4          2.915087   1.000000
      5          6.663632   0.000000
      6          6.663632   0.000000
      7         15.726736   0.000000
      8         15.726761   0.000000
      9         16.602382   0.000000
     10         16.602383   0.000000
     11         18.511619   0.000000
     12         18.514534   0.000000
 
  0.5000000E+00  0.4285714E-01  0.5428571E+00  0.5555556E-02
      1         -1.972415   1.000000
      2         -1.972415   1.000000
      3          2.887656   1.000000
      4          2.887656   1.000000
      5          6.715841   0.000000
      6          6.715841   0.000000
      7         15.620166   0.000000
      8         15.620171   0.000000
      9         16.556988   0.000000
     10         16.556994   0.000000
     11         18.540025   0.000000
     12         18.543821   0.000000
 
  0.5000000E+00  0.5000000E-01  0.5500000E+00  0.5555556E-02
      1         -1.968668   1.000000
      2         -1.968668   1.000000
      3          2.856415   1.000000
      4          2.856415   1.000000
      5          6.776407   0.000000
      6          6.776407   0.000000
      7         15.494581   0.000000
      8         15.494590   0.000000
      9         16.520425   0.000000
     10         16.520425   0.000000
     11         18.563236   0.000000
     12         18.563514   0.000000
 
  0.5000000E+00  0.5714286E-01  0.5571429E+00  0.5555556E-02
      1         -1.964412   1.000000
      2         -1.964412   1.000000
      3          2.821846   1.000000
      4          2.821846   1.000000
      5          6.844840   0.000000
      6          6.844840   0.000000
      7         15.353161   0.000000
      8         15.353163   0.000000
      9         16.492026   0.000000
     10         16.492026   0.000000
     11         18.582627   0.000000
     12         18.582833   0.000000
 
  0.5000000E+00  0.6428571E-01  0.5642857E+00  0.5555556E-02
      1         -1.959667   1.000000
      2         -1.959667   1.000000
      3          2.784444   1.000000
      4          2.784444   1.000000
      5          6.920699   0.000000
      6          6.920699   0.000000
      7         15.199439   0.000000
      8         15.199442   0.000000
      9         16.470543   0.000000
     10         16.470543   0.000000
     11         18.599599   0.000000
     12         18.600006   0.000000
 
  0.5000000E+00  0.7142857E-01  0.5714286E+00  0.5555556E-02
      1         -1.954469   1.000000
      2         -1.954469   1.000000
      3          2.744696   1.000000
      4          2.744696   1.000000
      5          7.003461   0.000000
      6          7.003461   0.000000
      7         15.036298   0.000000
      8         15.036304   0.000000
      9         16.454282   0.000000
     10         16.454282   0.000000
     11         18.614976   0.000000
     12         18.615239   0.000000
 
  0.5000000E+00  0.7857143E-01  0.5785714E+00  0.5555556E-02
      1         -1.948850   1.000000
      2         -1.948850   1.000000
      3          2.703083   1.000000
      4          2.703083   1.000000
      5          7.092692   0.000000
      6          7.092692   0.000000
      7         14.866159   0.000000
      8         14.866166   0.000000
      9         16.442060   0.000000
     10         16.442060   0.000000
     11         18.629528   0.000000
     12         18.630094   0.000000
 
  0.5000000E+00  0.8571429E-01  0.5857143E+00  0.5555556E-02
      1         -1.942853   1.000000
      2         -1.942853   1.000000
      3          2.660061   1.000000
      4          2.660061   1.000000
      5          7.187921   0.000000
      6          7.187921   0.000000
      7         14.690841   0.000000
      8         14.690869   0.000000
      9         16.432847   0.000000
     10         16.432847   0.000000
     11         18.643260   0.000000
     12         18.644451   0.000000
 
  0.5000000E+00  0.9285714E-01  0.5928571E+00  0.5555556E-02
      1         -1.936506   1.000000
      2         -1.936506   1.000000
      3          2.616071   1.000000
      4          2.616071   1.000000
      5          7.288826   0.000000
      6          7.288826   0.000000
      7         14.511764   0.000000
      8         14.511764   0.000000
      9         16.426190   0.000000
     10         16.426190   0.000000
     11         18.657008   0.000000
     12         18.657026   0.000000
 
  0.5000000E+00  0.1000000E+00  0.6000000E+00  0.5555556E-02
      1         -1.929863   1.000000
      2         -1.929863   1.000000
      3          2.571517   1.000000
      4          2.571517   1.000000
      5          7.394930   0.000000
      6          7.394930   0.000000
      7         14.329881   0.000000
      8         14.329881   0.000000
      9         16.421067   0.000000
     10         16.421067   0.000000
     11         18.670613   0.000000
     12         18.670728   0.000000
 
  0.5000000E+00  0.1071429E+00  0.6071429E+00  0.5555556E-02
      1         -1.922970   1.000000
      2         -1.922970   1.000000
      3          2.526780   1.000000
      4          2.526780   1.000000
      5          7.505899   0.000000
      6          7.505899   0.000000
      7         14.146001   0.000000
      8         14.146001   0.000000
      9         16.417294   0.000000
     10         16.417294   0.000000
     11         18.684069   0.000000
     12         18.684095   0.000000
 
  0.5000000E+00  0.1142857E+00  0.6142857E+00  0.5555556E-02
      1         -1.915878   1.000000
      2         -1.915878   1.000000
      3          2.482210   1.000000
      4          2.482211   1.000000
      5          7.621383   0.000000
      6          7.621383   0.000000
      7         13.960805   0.000000
      8         13.960806   0.000000
      9         16.414551   0.000000
     10         16.414551   0.000000
     11         18.697700   0.000000
     12         18.697771   0.000000
 
  0.5000000E+00  0.1214286E+00  0.6214286E+00  0.5555556E-02
      1         -1.908636   1.000000
      2         -1.908636   1.000000
      3          2.438145   1.000000
      4          2.438145   1.000000
      5          7.741135   0.000000
      6          7.741135   0.000000
      7         13.774784   0.000000
      8         13.774788   0.000000
      9         16.412647   0.000000
     10         16.412647   0.000000
     11         18.711362   0.000000
     12         18.711385   0.000000
 
  0.5000000E+00  0.1285714E+00  0.6285714E+00  0.5555556E-02
      1         -1.901303   1.000000
      2         -1.901303   1.000000
      3          2.394880   1.000000
      4          2.394880   1.000000
      5          7.864838   0.000000
      6          7.864838   0.000000
      7         13.588331   0.000000
      8         13.588332   0.000000
      9         16.411386   0.000000
     10         16.411386   0.000000
     11         18.725032   0.000000
     12         18.725040   0.000000
 
  0.5000000E+00  0.1357143E+00  0.6357143E+00  0.5555556E-02
      1         -1.893937   1.000000
      2         -1.893937   1.000000
      3          2.352693   1.000000
      4          2.352693   1.000000
      5          7.992227   0.000000
      6          7.992227   0.000000
      7         13.401782   0.000000
      8         13.401783   0.000000
      9         16.410629   0.000000
     10         16.410630   0.000000
     11         18.738664   0.000000
     12         18.738763   0.000000
 
  0.5000000E+00  0.1428571E+00  0.6428571E+00  0.5555556E-02
      1         -1.886595   1.000000
      2         -1.886595   1.000000
      3          2.311841   1.000000
      4          2.311841   1.000000
      5          8.123053   0.000000
      6          8.123053   0.000000
      7         13.215425   0.000000
      8         13.215426   0.000000
      9         16.410268   0.000000
     10         16.410268   0.000000
     11         18.752188   0.000000
     12         18.752271   0.000000
 
  0.5000000E+00  0.1500000E+00  0.6500000E+00  0.5555556E-02
      1         -1.879340   1.000000
      2         -1.879340   1.000000
      3          2.272559   1.000000
      4          2.272559   1.000000
      5          8.257078   0.000000
      6          8.257078   0.000000
      7         13.029520   0.000000
      8         13.029520   0.000000
      9         16.410213   0.000000
     10         16.410214   0.000000
     11         18.765543   0.000000
     12         18.765813   0.000000
 
  0.5000000E+00  0.1571429E+00  0.6571429E+00  0.5555556E-02
      1         -1.872225   1.000000
      2         -1.872225   1.000000
      3          2.235065   1.000000
      4          2.235065   1.000000
      5          8.394120   0.000000
      6          8.394120   0.000000
      7         12.844344   0.000000
      8         12.844344   0.000000
      9         16.410393   0.000000
     10         16.410393   0.000000
     11         18.778778   0.000000
     12         18.778854   0.000000
 
  0.5000000E+00  0.1642857E+00  0.6642857E+00  0.5555556E-02
      1         -1.865325   1.000000
      2         -1.865325   1.000000
      3          2.199560   1.000000
      4          2.199560   1.000000
      5          8.533855   0.000000
      6          8.533855   0.000000
      7         12.660042   0.000000
      8         12.660043   0.000000
      9         16.410793   0.000000
     10         16.410798   0.000000
     11         18.791553   0.000000
     12         18.791687   0.000000
 
  0.5000000E+00  0.1714286E+00  0.6714286E+00  0.5555556E-02
      1         -1.858703   1.000000
      2         -1.858703   1.000000
      3          2.166215   1.000000
      4          2.166215   1.000000
      5          8.676026   0.000000
      6          8.676026   0.000000
      7         12.476770   0.000000
      8         12.476771   0.000000
      9         16.411100   0.000000
     10         16.411100   0.000000
     11         18.803875   0.000000
     12         18.803884   0.000000
 
  0.5000000E+00  0.1785714E+00  0.6785714E+00  0.5555556E-02
      1         -1.852413   1.000000
      2         -1.852412   1.000000
      3          2.135213   1.000000
      4          2.135213   1.000000
      5          8.820468   0.000000
      6          8.820468   0.000000
      7         12.295012   0.000000
      8         12.295012   0.000000
      9         16.411654   0.000000
     10         16.411655   0.000000
     11         18.815571   0.000000
     12         18.815577   0.000000
 
  0.5000000E+00  0.1857143E+00  0.6857143E+00  0.5555556E-02
      1         -1.846513   1.000000
      2         -1.846513   1.000000
      3          2.106702   1.000000
      4          2.106702   1.000000
      5          8.966828   0.000000
      6          8.966828   0.000000
      7         12.114945   0.000000
      8         12.114945   0.000000
      9         16.412252   0.000000
     10         16.412252   0.000000
     11         18.826519   0.000000
     12         18.826543   0.000000
 
  0.5000000E+00  0.1928571E+00  0.6928571E+00  0.5555556E-02
      1         -1.841063   1.000000
      2         -1.841063   1.000000
      3          2.080818   1.000000
      4          2.080818   1.000000
      5          9.114724   0.000000
      6          9.114724   0.000000
      7         11.936937   0.000000
      8         11.936938   0.000000
      9         16.412862   0.000000
     10         16.412862   0.000000
     11         18.836717   0.000000
     12         18.836746   0.000000
 
  0.5000000E+00  0.2000000E+00  0.7000000E+00  0.5555556E-02
      1         -1.836114   1.000000
      2         -1.836114   1.000000
      3          2.057685   1.000000
      4          2.057685   1.000000
      5          9.263640   0.000000
      6          9.263640   0.000000
      7         11.761487   0.000000
      8         11.761488   0.000000
      9         16.413458   0.000000
     10         16.413459   0.000000
     11         18.845996   0.000000
     12         18.846026   0.000000
 
  0.5000000E+00  0.2071429E+00  0.7071429E+00  0.5555556E-02
      1         -1.831716   1.000000
      2         -1.831716   1.000000
      3          2.037412   1.000000
      4          2.037412   1.000000
      5          9.412833   0.000000
      6          9.412833   0.000000
      7         11.589320   0.000000
      8         11.589320   0.000000
      9         16.414018   0.000000
     10         16.414018   0.000000
     11         18.854288   0.000000
     12         18.854351   0.000000
 
  0.5000000E+00  0.2142857E+00  0.7142857E+00  0.5555556E-02
      1         -1.827910   1.000000
      2         -1.827910   1.000000
      3          2.020095   1.000000
      4          2.020095   1.000000
      5          9.561141   0.000000
      6          9.561141   0.000000
      7         11.421604   0.000000
      8         11.421604   0.000000
      9         16.414536   0.000000
     10         16.414536   0.000000
     11         18.861498   0.000000
     12         18.861515   0.000000
 
  0.5000000E+00  0.2214286E+00  0.7214286E+00  0.5555556E-02
      1         -1.824743   1.000000
      2         -1.824743   1.000000
      3          2.005815   1.000000
      4          2.005815   1.000000
      5          9.706611   0.000000
      6          9.706611   0.000000
      7         11.260274   0.000000
      8         11.260275   0.000000
      9         16.414966   0.000000
     10         16.414966   0.000000
     11         18.867290   0.000000
     12         18.867328   0.000000
 
  0.5000000E+00  0.2285714E+00  0.7285714E+00  0.5555556E-02
      1         -1.822245   1.000000
      2         -1.822245   1.000000
      3          1.994639   1.000000
      4          1.994639   1.000000
      5          9.845268   0.000000
      6          9.845268   0.000000
      7         11.109279   0.000000
      8         11.109279   0.000000
      9         16.415316   0.000000
     10         16.415316   0.000000
     11         18.872049   0.000000
     12         18.872071   0.000000
 
  0.5000000E+00  0.2357143E+00  0.7357143E+00  0.5555556E-02
      1         -1.820442   1.000000
      2         -1.820442   1.000000
      3          1.986619   1.000000
      4          1.986619   1.000000
      5          9.969447   0.000000
      6          9.969447   0.000000
      7         10.976291   0.000000
      8         10.976291   0.000000
      9         16.415573   0.000000
     10         16.415573   0.000000
     11         18.875480   0.000000
     12         18.876147   0.000000
 
  0.5000000E+00  0.2428571E+00  0.7428571E+00  0.5555556E-02
      1         -1.819352   1.000000
      2         -1.819352   1.000000
      3          1.981791   1.000000
      4          1.981791   1.000000
      5         10.063124   0.000000
      6         10.063124   0.000000
      7         10.877331   0.000000
      8         10.877331   0.000000
      9         16.415730   0.000000
     10         16.415736   0.000000
     11         18.877568   0.000000
     12         18.877589   0.000000
 
  0.5000000E+00  0.2500000E+00  0.7500000E+00  0.5555556E-02
      1         -1.818987   1.000000
      2         -1.818987   1.000000
      3          1.980180   1.000000
      4          1.980180   1.000000
      5         10.099912   0.000000
      6         10.099912   0.000000
      7         10.838783   0.000000
      8         10.838783   0.000000
      9         16.415782   0.000000
     10         16.415782   0.000000
     11         18.878258   0.000000
     12         18.878262   0.000000
 
  0.5000000E+00  0.2500000E+00  0.7500000E+00  0.5555556E-02
      1         -1.818987   1.000000
      2         -1.818987   1.000000
      3          1.980180   1.000000
      4          1.980180   1.000000
      5         10.099912   0.000000
      6         10.099912   0.000000
      7         10.838783   0.000000
      8         10.838783   0.000000
      9         16.415782   0.000000
     10         16.415782   0.000000
     11         18.878269   0.000000
     12         18.878312   0.000000
 
  0.4964286E+00  0.2535714E+00  0.7500000E+00  0.5555556E-02
      1         -1.851371   1.000000
      2         -1.786912   1.000000
      3          1.955762   1.000000
      4          2.006200   1.000000
      5         10.056940   0.000000
      6         10.121395   0.000000
      7         10.830658   0.000000
      8         10.870199   0.000000
      9         16.354541   0.000000
     10         16.473604   0.000000
     11         18.817005   0.000000
     12         18.942242   0.000000
 
  0.4928571E+00  0.2571429E+00  0.7500000E+00  0.5555556E-02
      1         -1.882835   1.000000
      2         -1.756378   1.000000
      3          1.931943   1.000000
      4          2.034812   1.000000
      5          9.981969   0.000000
      6         10.136882   0.000000
      7         10.856750   0.000000
      8         10.909021   0.000000
      9         16.291171   0.000000
     10         16.526218   0.000000
     11         18.759350   0.000000
     12         19.008180   0.000000
 
  0.4892857E+00  0.2607143E+00  0.7500000E+00  0.5555556E-02
      1         -1.913379   1.000000
      2         -1.727388   1.000000
      3          1.908734   1.000000
      4          2.065974   1.000000
      5          9.884940   0.000000
      6         10.146908   0.000000
      7         10.907165   0.000000
      8         10.954695   0.000000
      9         16.225868   0.000000
     10         16.572555   0.000000
     11         18.706744   0.000000
     12         19.075858   0.000000
 
  0.4857143E+00  0.2642857E+00  0.7500000E+00  0.5555556E-02
      1         -1.942999   1.000000
      2         -1.699937   1.000000
      3          1.886147   1.000000
      4          2.099631   1.000000
      5          9.774565   0.000000
      6         10.152208   0.000000
      7         10.973240   0.000000
      8         11.006470   0.000000
      9         16.158799   0.000000
     10         16.611432   0.000000
     11         18.660402   0.000000
     12         19.145265   0.000000
 
  0.4821429E+00  0.2678571E+00  0.7500000E+00  0.5555556E-02
      1         -1.971704   1.000000
      2         -1.674013   1.000000
      3          1.864188   1.000000
      4          2.135719   1.000000
      5          9.656476   0.000000
      6         10.153563   0.000000
      7         11.049311   0.000000
      8         11.063518   0.000000
      9         16.090090   0.000000
     10         16.641588   0.000000
     11         18.621693   0.000000
     12         19.216059   0.000000
 
  0.4785714E+00  0.2714286E+00  0.7500000E+00  0.5555556E-02
      1         -1.999475   1.000000
      2         -1.649594   1.000000
      3          1.842870   1.000000
      4          2.174154   1.000000
      5          9.534241   0.000000
      6         10.151789   0.000000
      7         11.125056   0.000000
      8         11.132030   0.000000
      9         16.019899   0.000000
     10         16.661774   0.000000
     11         18.591824   0.000000
     12         19.287762   0.000000
 
  0.4750000E+00  0.2750000E+00  0.7500000E+00  0.5555556E-02
      1         -2.026318   1.000000
      2         -1.626655   1.000000
      3          1.822202   1.000000
      4          2.214849   1.000000
      5          9.409869   0.000000
      6         10.147550   0.000000
      7         11.190379   0.000000
      8         11.219386   0.000000
      9         15.948331   0.000000
     10         16.670950   0.000000
     11         18.572191   0.000000
     12         19.360772   0.000000
 
  0.4714286E+00  0.2785714E+00  0.7500000E+00  0.5555556E-02
      1         -2.052226   1.000000
      2         -1.605161   1.000000
      3          1.802192   1.000000
      4          2.257702   1.000000
      5          9.284679   0.000000
      6         10.141426   0.000000
      7         11.258909   0.000000
      8         11.310184   0.000000
      9         15.875494   0.000000
     10         16.668310   0.000000
     11         18.563611   0.000000
     12         19.434757   0.000000
 
  0.4678571E+00  0.2821429E+00  0.7500000E+00  0.5555556E-02
      1         -2.077205   1.000000
      2         -1.585077   1.000000
      3          1.782846   1.000000
      4          2.302582   1.000000
      5          9.159449   0.000000
      6         10.133890   0.000000
      7         11.330153   0.000000
      8         11.403620   0.000000
      9         15.801436   0.000000
     10         16.653391   0.000000
     11         18.566619   0.000000
     12         19.510020   0.000000
 
  0.4642857E+00  0.2857143E+00  0.7500000E+00  0.5555556E-02
      1         -2.101255   1.000000
      2         -1.566359   1.000000
      3          1.764173   1.000000
      4          2.349361   1.000000
      5          9.034807   0.000000
      6         10.125327   0.000000
      7         11.403619   0.000000
      8         11.499159   0.000000
      9         15.726256   0.000000
     10         16.626274   0.000000
     11         18.581228   0.000000
     12         19.585686   0.000000
 
  0.4607143E+00  0.2892857E+00  0.7500000E+00  0.5555556E-02
      1         -2.124371   1.000000
      2         -1.548953   1.000000
      3          1.746181   1.000000
      4          2.397894   1.000000
      5          8.911204   0.000000
      6         10.116077   0.000000
      7         11.479063   0.000000
      8         11.596566   0.000000
      9         15.650052   0.000000
     10         16.587604   0.000000
     11         18.607284   0.000000
     12         19.662145   0.000000
 
  0.4571429E+00  0.2928571E+00  0.7500000E+00  0.5555556E-02
      1         -2.146553   1.000000
      2         -1.532816   1.000000
      3          1.728874   1.000000
      4          2.448022   1.000000
      5          8.788987   0.000000
      6         10.106322   0.000000
      7         11.556146   0.000000
      8         11.695409   0.000000
      9         15.572836   0.000000
     10         16.537945   0.000000
     11         18.643582   0.000000
     12         19.739155   0.000000
 
  0.4535714E+00  0.2964286E+00  0.7500000E+00  0.5555556E-02
      1         -2.167800   1.000000
      2         -1.517891   1.000000
      3          1.712261   1.000000
      4          2.499570   1.000000
      5          8.668455   0.000000
      6         10.096292   0.000000
      7         11.634676   0.000000
      8         11.795595   0.000000
      9         15.494699   0.000000
     10         16.478504   0.000000
     11         18.689368   0.000000
     12         19.816942   0.000000
 
  0.4500000E+00  0.3000000E+00  0.7500000E+00  0.5555556E-02
      1         -2.188109   1.000000
      2         -1.504121   1.000000
      3          1.696346   1.000000
      4          2.552348   1.000000
      5          8.549870   0.000000
      6         10.086148   0.000000
      7         11.714460   0.000000
      8         11.896984   0.000000
      9         15.415700   0.000000
     10         16.410436   0.000000
     11         18.743628   0.000000
     12         19.894744   0.000000
 
  0.4464286E+00  0.3035714E+00  0.7500000E+00  0.5555556E-02
      1         -2.207481   1.000000
      2         -1.491451   1.000000
      3          1.681136   1.000000
      4          2.606150   1.000000
      5          8.433481   0.000000
      6         10.076018   0.000000
      7         11.795338   0.000000
      8         11.999469   0.000000
      9         15.335899   0.000000
     10         16.334883   0.000000
     11         18.805152   0.000000
     12         19.973353   0.000000
 
  0.4428571E+00  0.3071429E+00  0.7500000E+00  0.5555556E-02
      1         -2.225914   1.000000
      2         -1.479823   1.000000
      3          1.666636   1.000000
      4          2.660754   1.000000
      5          8.319529   0.000000
      6         10.066008   0.000000
      7         11.877171   0.000000
      8         12.102960   0.000000
      9         15.255352   0.000000
     10         16.252917   0.000000
     11         18.873090   0.000000
     12         20.051511   0.000000
 
  0.4392857E+00  0.3107143E+00  0.7500000E+00  0.5555556E-02
      1         -2.243413   1.000000
      2         -1.469180   1.000000
      3          1.652850   1.000000
      4          2.715919   1.000000
      5          8.208257   0.000000
      6         10.056194   0.000000
      7         11.959829   0.000000
      8         12.207386   0.000000
      9         15.174121   0.000000
     10         16.165495   0.000000
     11         18.946513   0.000000
     12         20.131326   0.000000
 
  0.4357143E+00  0.3142857E+00  0.7500000E+00  0.5555556E-02
      1         -2.259966   1.000000
      2         -1.459466   1.000000
      3          1.639785   1.000000
      4          2.771385   1.000000
      5          8.099916   0.000000
      6         10.046667   0.000000
      7         12.043204   0.000000
      8         12.312682   0.000000
      9         15.092265   0.000000
     10         16.073456   0.000000
     11         19.024646   0.000000
     12         20.209126   0.000000
 
  0.4321429E+00  0.3178571E+00  0.7500000E+00  0.5555556E-02
      1         -2.275577   1.000000
      2         -1.450627   1.000000
      3          1.627444   1.000000
      4          2.826870   1.000000
      5          7.994771   0.000000
      6         10.037477   0.000000
      7         12.127184   0.000000
      8         12.418791   0.000000
      9         15.009849   0.000000
     10         15.977522   0.000000
     11         19.106821   0.000000
     12         20.288656   0.000000
 
  0.4285714E+00  0.3214286E+00  0.7500000E+00  0.5555556E-02
      1         -2.290245   1.000000
      2         -1.442608   1.000000
      3          1.615832   1.000000
      4          2.882076   1.000000
      5          7.893062   0.000000
      6         10.028671   0.000000
      7         12.211619   0.000000
      8         12.525637   0.000000
      9         14.926856   0.000000
     10         15.878121   0.000000
     11         19.192470   0.000000
     12         20.371586   0.000000
 
  0.4250000E+00  0.3250000E+00  0.7500000E+00  0.5555556E-02
      1         -2.303970   1.000000
      2         -1.435360   1.000000
      3          1.604951   1.000000
      4          2.936668   1.000000
      5          7.795171   0.000000
      6         10.020295   0.000000
      7         12.296493   0.000000
      8         12.633218   0.000000
      9         14.843538   0.000000
     10         15.776158   0.000000
     11         19.281074   0.000000
     12         20.446683   0.000000
 
  0.4214286E+00  0.3285714E+00  0.7500000E+00  0.5555556E-02
      1         -2.316752   1.000000
      2         -1.428832   1.000000
      3          1.594806   1.000000
      4          2.990297   1.000000
      5          7.701383   0.000000
      6         10.012382   0.000000
      7         12.381648   0.000000
      8         12.741459   0.000000
      9         14.759897   0.000000
     10         15.671898   0.000000
     11         19.372237   0.000000
     12         20.524343   0.000000
 
  0.4178571E+00  0.3321429E+00  0.7500000E+00  0.5555556E-02
      1         -2.328587   1.000000
      2         -1.422978   1.000000
      3          1.585402   1.000000
      4          3.042592   1.000000
      5          7.612056   0.000000
      6         10.005019   0.000000
      7         12.466985   0.000000
      8         12.850365   0.000000
      9         14.676081   0.000000
     10         15.565842   0.000000
     11         19.465908   0.000000
     12         20.606774   0.000000
 
  0.4142857E+00  0.3357143E+00  0.7500000E+00  0.5555556E-02
      1         -2.339482   1.000000
      2         -1.417759   1.000000
      3          1.576735   1.000000
      4          3.093141   1.000000
      5          7.527532   0.000000
      6          9.998095   0.000000
      7         12.552297   0.000000
      8         12.959768   0.000000
      9         14.592081   0.000000
     10         15.458072   0.000000
     11         19.561001   0.000000
     12         20.731933   0.000000
 
  0.4107143E+00  0.3392857E+00  0.7500000E+00  0.5555556E-02
      1         -2.349429   1.000000
      2         -1.413128   1.000000
      3          1.568815   1.000000
      4          3.141527   1.000000
      5          7.448239   0.000000
      6          9.991733   0.000000
      7         12.637473   0.000000
      8         13.069662   0.000000
      9         14.508190   0.000000
     10         15.349056   0.000000
     11         19.657909   0.000000
     12         20.754941   0.000000
 
  0.4071429E+00  0.3428571E+00  0.7500000E+00  0.5555556E-02
      1         -2.358430   1.000000
      2         -1.409052   1.000000
      3          1.561643   1.000000
      4          3.187302   1.000000
      5          7.374587   0.000000
      6          9.985930   0.000000
      7         12.722281   0.000000
      8         13.179974   0.000000
      9         14.424570   0.000000
     10         15.239043   0.000000
     11         19.756886   0.000000
     12         21.124546   0.000000
 
  0.4035714E+00  0.3464286E+00  0.7500000E+00  0.5555556E-02
      1         -2.366485   1.000000
      2         -1.405498   1.000000
      3          1.555219   1.000000
      4          3.230000   1.000000
      5          7.307011   0.000000
      6          9.980701   0.000000
      7         12.806428   0.000000
      8         13.290607   0.000000
      9         14.341502   0.000000
     10         15.128294   0.000000
     11         19.857291   0.000000
     12         20.904494   0.000000
 
  0.4000000E+00  0.3500000E+00  0.7500000E+00  0.5555556E-02
      1         -2.373593   1.000000
      2         -1.402435   1.000000
      3          1.549547   1.000000
      4          3.269153   1.000000
      5          7.245874   0.000000
      6          9.976060   0.000000
      7         12.889507   0.000000
      8         13.401440   0.000000
      9         14.259369   0.000000
     10         15.017073   0.000000
     11         19.964292   0.000000
     12         21.030015   0.000000
 
  0.3964286E+00  0.3535714E+00  0.7500000E+00  0.5555556E-02
      1         -2.379754   1.000000
      2         -1.399835   1.000000
      3          1.544628   1.000000
      4          3.304290   1.000000
      5          7.191800   0.000000
      6          9.972016   0.000000
      7         12.970943   0.000000
      8         13.512286   0.000000
      9         14.178778   0.000000
     10         14.905679   0.000000
     11         20.056998   0.000000
     12         21.084217   0.000000
 
  0.3928571E+00  0.3571429E+00  0.7500000E+00  0.5555556E-02
      1         -2.384968   1.000000
      2         -1.397674   1.000000
      3          1.540463   1.000000
      4          3.334957   1.000000
      5          7.145142   0.000000
      6          9.968581   0.000000
      7         13.049813   0.000000
      8         13.622853   0.000000
      9         14.100631   0.000000
     10         14.794502   0.000000
     11         20.160290   0.000000
     12         21.057888   0.000000
 
  0.3892857E+00  0.3607143E+00  0.7500000E+00  0.5555556E-02
      1         -2.389229   1.000000
      2         -1.395933   1.000000
      3          1.537054   1.000000
      4          3.360733   1.000000
      5          7.106419   0.000000
      6          9.965766   0.000000
      7         13.124642   0.000000
      8         13.732642   0.000000
      9         14.026421   0.000000
     10         14.684165   0.000000
     11         20.261031   0.000000
     12         20.986658   0.000000
 
  0.3857143E+00  0.3642857E+00  0.7500000E+00  0.5555556E-02
      1         -2.392548   1.000000
      2         -1.394596   1.000000
      3          1.534401   1.000000
      4          3.381214   1.000000
      5          7.075790   0.000000
      6          9.963566   0.000000
      7         13.192902   0.000000
      8         13.840469   0.000000
      9         13.958624   0.000000
     10         14.575811   0.000000
     11         20.357541   0.000000
     12         21.002541   0.000000
 
  0.3821429E+00  0.3678571E+00  0.7500000E+00  0.5555556E-02
      1         -2.394918   1.000000
      2         -1.393650   1.000000
      3          1.532505   1.000000
      4          3.396090   1.000000
      5          7.053672   0.000000
      6          9.961991   0.000000
      7         13.250355   0.000000
      8         13.901504   0.000000
      9         13.943541   0.000000
     10         14.472330   0.000000
     11         20.451241   0.000000
     12         20.857369   0.000000
 
  0.3785714E+00  0.3714286E+00  0.7500000E+00  0.5555556E-02
      1         -2.396343   1.000000
      2         -1.393088   1.000000
      3          1.531368   1.000000
      4          3.405113   1.000000
      5          7.040279   0.000000
      6          9.961035   0.000000
      7         13.290323   0.000000
      8         13.861722   0.000000
      9         14.032650   0.000000
     10         14.382858   0.000000
     11         20.558668   0.000000
     12         20.782375   0.000000
 
  0.3750000E+00  0.3750000E+00  0.7500000E+00  0.5555556E-02
      1         -2.396817   1.000000
      2         -1.392900   1.000000
      3          1.530988   1.000000
      4          3.408139   1.000000
      5          7.035806   0.000000
      6          9.960719   0.000000
      7         13.304963   0.000000
      8         13.847151   0.000000
      9         14.075141   0.000000
     10         14.340279   0.000000
     11         20.590733   0.000000
     12         20.740649   0.000000
 
  0.3750000E+00  0.3750000E+00  0.7500000E+00  0.5555556E-02
      1         -2.396817   1.000000
      2         -1.392900   1.000000
      3          1.530988   1.000000
      4          3.408139   1.000000
      5          7.035806   0.000000
      6          9.960719   0.000000
      7         13.304959   0.000000
      8         13.847151   0.000000
      9         14.075141   0.000000
     10         14.340279   0.000000
     11         20.633030   0.000000
     12         20.777334   0.000000
 
  0.3642857E+00  0.3642857E+00  0.7285714E+00  0.5555556E-02
      1         -2.499293   1.000000
      2         -1.287786   1.000000
      3          1.468014   1.000000
      4          3.481691   1.000000
      5          7.121183   0.000000
      6         10.394853   0.000000
      7         13.041827   0.000000
      8         13.579771   0.000000
      9         13.863713   0.000000
     10         14.112404   0.000000
     11         20.673050   0.000000
     12         20.962958   0.000000
 
  0.3535714E+00  0.3535714E+00  0.7071429E+00  0.5555556E-02
      1         -2.614663   1.000000
      2         -1.174166   1.000000
      3          1.429240   1.000000
      4          3.560264   1.000000
      5          7.212401   0.000000
      6         10.832961   0.000000
      7         12.783839   0.000000
      8         13.324885   0.000000
      9         13.655235   0.000000
     10         13.891941   0.000000
     11         20.600290   0.000000
     12         21.204005   0.000000
 
  0.3428571E+00  0.3428571E+00  0.6857143E+00  0.5555556E-02
      1         -2.741781   1.000000
      2         -1.052075   1.000000
      3          1.414252   1.000000
      4          3.643589   1.000000
      5          7.309125   0.000000
      6         11.266908   0.000000
      7         12.531519   0.000000
      8         13.089638   0.000000
      9         13.450761   0.000000
     10         13.679661   0.000000
     11         20.409654   0.000000
     12         21.013388   0.000000
 
  0.3321429E+00  0.3321429E+00  0.6642857E+00  0.5555556E-02
      1         -2.879118   1.000000
      2         -0.921550   1.000000
      3          1.422055   1.000000
      4          3.731344   1.000000
      5          7.410882   0.000000
      6         11.673963   0.000000
      7         12.285225   0.000000
      8         12.895677   0.000000
      9         13.251270   0.000000
     10         13.476178   0.000000
     11         20.181564   0.000000
     12         20.761557   0.000000
 
  0.3214286E+00  0.3214286E+00  0.6428571E+00  0.5555556E-02
      1         -3.024907   1.000000
      2         -0.782636   1.000000
      3          1.451281   1.000000
      4          3.823157   1.000000
      5          7.517111   0.000000
      6         11.972885   0.000000
      7         12.045277   0.000000
      8         12.822818   0.000000
      9         13.057622   0.000000
     10         13.282126   0.000000
     11         19.943989   0.000000
     12         20.519804   0.000000
 
  0.3107143E+00  0.3107143E+00  0.6214286E+00  0.5555556E-02
      1         -3.177264   1.000000
      2         -0.635377   1.000000
      3          1.500381   1.000000
      4          3.918646   1.000000
      5          7.627349   0.000000
      6         11.811961   0.000000
      7         12.015648   0.000000
      8         12.870727   0.000000
      9         13.017710   0.000000
     10         13.098179   0.000000
     11         19.706575   0.000000
     12         20.287236   0.000000
 
  0.3000000E+00  0.3000000E+00  0.6000000E+00  0.5555556E-02
      1         -3.334370   1.000000
      2         -0.479833   1.000000
      3          1.567739   1.000000
      4          4.017365   1.000000
      5          7.740791   0.000000
      6         11.585471   0.000000
      7         11.878699   0.000000
      8         12.691464   0.000000
      9         12.924653   0.000000
     10         13.401694   0.000000
     11         19.472803   0.000000
     12         20.066860   0.000000
 
  0.2892857E+00  0.2892857E+00  0.5785714E+00  0.5555556E-02
      1         -3.494513   1.000000
      2         -0.316041   1.000000
      3          1.651786   1.000000
      4          4.118833   1.000000
      5          7.856635   0.000000
      6         11.366046   0.000000
      7         11.690919   0.000000
      8         12.520760   0.000000
      9         12.762805   0.000000
     10         13.843557   0.000000
     11         19.245121   0.000000
     12         19.860515   0.000000
 
  0.2785714E+00  0.2785714E+00  0.5571429E+00  0.5555556E-02
      1         -3.656121   1.000000
      2         -0.144074   1.000000
      3          1.751052   1.000000
      4          4.222505   1.000000
      5          7.973841   0.000000
      6         11.153818   0.000000
      7         11.491188   0.000000
      8         12.359586   0.000000
      9         12.612986   0.000000
     10         14.300368   0.000000
     11         19.024074   0.000000
     12         19.672090   0.000000
 
  0.2678571E+00  0.2678571E+00  0.5357143E+00  0.5555556E-02
      1         -3.817815   1.000000
      2          0.036001   1.000000
      3          1.864184   1.000000
      4          4.327798   1.000000
      5          8.091198   0.000000
      6         10.948912   0.000000
      7         11.290749   0.000000
      8         12.209015   0.000000
      9         12.475813   0.000000
     10         14.755313   0.000000
     11         18.808907   0.000000
     12         19.504884   0.000000
 
  0.2571429E+00  0.2571429E+00  0.5142857E+00  0.5555556E-02
      1         -3.978398   1.000000
      2          0.224093   1.000000
      3          1.989952   1.000000
      4          4.434052   1.000000
      5          8.207300   0.000000
      6         10.751464   0.000000
      7         11.093600   0.000000
      8         12.070152   0.000000
      9         12.352076   0.000000
     10         15.195540   0.000000
     11         18.599229   0.000000
     12         19.368603   0.000000
 
  0.2464286E+00  0.2464286E+00  0.4928571E+00  0.5555556E-02
      1         -4.136836   1.000000
      2          0.420126   1.000000
      3          2.127254   1.000000
      4          4.540576   1.000000
      5          8.320607   0.000000
      6         10.561531   0.000000
      7         10.901570   0.000000
      8         11.944309   0.000000
      9         12.242237   0.000000
     10         15.606411   0.000000
     11         18.384899   0.000000
     12         18.930613   0.000000
 
  0.2357143E+00  0.2357143E+00  0.4714286E+00  0.5555556E-02
      1         -4.292250   1.000000
      2          0.624004   1.000000
      3          2.275077   1.000000
      4          4.646663   1.000000
      5          8.428983   0.000000
      6         10.379279   0.000000
      7         10.715588   0.000000
      8         11.832693   0.000000
      9         12.147390   0.000000
     10         15.968325   0.000000
     11         18.125986   0.000000
     12         18.434527   0.000000
 
  0.2250000E+00  0.2250000E+00  0.4500000E+00  0.5555556E-02
      1         -4.443881   1.000000
      2          0.835619   1.000000
      3          2.432489   1.000000
      4          4.751538   1.000000
      5          8.530468   0.000000
      6         10.204748   0.000000
      7         10.536123   0.000000
      8         11.736645   0.000000
      9         12.068066   0.000000
     10         16.257564   0.000000
     11         17.731774   0.000000
     12         18.147446   0.000000
 
  0.2142857E+00  0.2142857E+00  0.4285714E+00  0.5555556E-02
      1         -4.591078   1.000000
      2          1.054845   1.000000
      3          2.598609   1.000000
      4          4.854416   1.000000
      5          8.622863   0.000000
      6         10.038008   0.000000
      7         10.363438   0.000000
      8         11.657288   0.000000
      9         12.004966   0.000000
     10         16.453229   0.000000
     11         17.263856   0.000000
     12         17.954013   0.000000
 
  0.2035714E+00  0.2035714E+00  0.4071429E+00  0.5555556E-02
      1         -4.733290   1.000000
      2          1.281545   1.000000
      3          2.772595   1.000000
      4          4.954504   1.000000
      5          8.704013   0.000000
      6          9.879118   0.000000
      7         10.197682   0.000000
      8         11.595349   0.000000
      9         11.958756   0.000000
     10         16.548932   0.000000
     11         16.787012   0.000000
     12         17.789819   0.000000
 
  0.1928571E+00  0.1928571E+00  0.3857143E+00  0.5555556E-02
      1         -4.870057   1.000000
      2          1.515528   1.000000
      3          2.953602   1.000000
      4          5.051001   1.000000
      5          8.772028   0.000000
      6          9.728116   0.000000
      7         10.038859   0.000000
      8         11.550697   0.000000
      9         11.930036   0.000000
     10         16.316600   0.000000
     11         16.556107   0.000000
     12         17.642216   0.000000
 
  0.1821429E+00  0.1821429E+00  0.3642857E+00  0.5555556E-02
      1         -5.000971   1.000000
      2          1.756619   1.000000
      3          3.140791   1.000000
      4          5.143217   1.000000
      5          8.825584   0.000000
      6          9.585082   0.000000
      7          9.887044   0.000000
      8         11.522022   0.000000
      9         11.919338   0.000000
     10         15.858427   0.000000
     11         16.495332   0.000000
     12         17.508452   0.000000
 
  0.1714286E+00  0.1714286E+00  0.3428571E+00  0.5555556E-02
      1         -5.125715   1.000000
      2          2.004577   1.000000
      3          3.333286   1.000000
      4          5.230458   1.000000
      5          8.864099   0.000000
      6          9.450043   0.000000
      7          9.742170   0.000000
      8         11.506164   0.000000
      9         11.927040   0.000000
     10         15.417026   0.000000
     11         16.385457   0.000000
     12         17.387640   0.000000
 
  0.1607143E+00  0.1607143E+00  0.3214286E+00  0.5555556E-02
      1         -5.243976   1.000000
      2          2.259110   1.000000
      3          3.530145   1.000000
      4          5.312144   1.000000
      5          8.887879   0.000000
      6          9.323035   0.000000
      7          9.604161   0.000000
      8         11.497563   0.000000
      9         11.953367   0.000000
     10         14.997639   0.000000
     11         16.240059   0.000000
     12         17.279767   0.000000
 
  0.1500000E+00  0.1500000E+00  0.3000000E+00  0.5555556E-02
      1         -5.355501   1.000000
      2          2.519872   1.000000
      3          3.730358   1.000000
      4          5.387800   1.000000
      5          8.898042   0.000000
      6          9.204085   0.000000
      7          9.472895   0.000000
      8         11.487695   0.000000
      9         11.998326   0.000000
     10         14.607227   0.000000
     11         16.068215   0.000000
     12         17.185082   0.000000
 
  0.1392857E+00  0.1392857E+00  0.2785714E+00  0.5555556E-02
      1         -5.460066   1.000000
      2          2.786470   1.000000
      3          3.932842   1.000000
      4          5.457129   1.000000
      5          8.896349   0.000000
      6          9.093126   0.000000
      7          9.348396   0.000000
      8         11.464756   0.000000
      9         12.062003   0.000000
     10         14.255561   0.000000
     11         15.876254   0.000000
     12         17.104026   0.000000
 
  0.1285714E+00  0.1285714E+00  0.2571429E+00  0.5555556E-02
      1         -5.557496   1.000000
      2          3.058308   1.000000
      3          4.136257   1.000000
      4          5.519845   1.000000
      5          8.884756   0.000000
      6          8.990336   0.000000
      7          9.230223   0.000000
      8         11.413529   0.000000
      9         12.143178   0.000000
     10         13.954247   0.000000
     11         15.669225   0.000000
     12         17.037013   0.000000
 
  0.1178571E+00  0.1178571E+00  0.2357143E+00  0.5555556E-02
      1         -5.647626   1.000000
      2          3.334763   1.000000
      3          4.339224   1.000000
      4          5.576008   1.000000
      5          8.865403   0.000000
      6          8.895747   0.000000
      7          9.118547   0.000000
      8         11.318720   0.000000
      9         12.241647   0.000000
     10         13.716478   0.000000
     11         15.451968   0.000000
     12         16.984917   0.000000
 
  0.1071429E+00  0.1071429E+00  0.2142857E+00  0.5555556E-02
      1         -5.730326   1.000000
      2          3.614942   1.000000
      3          4.540092   1.000000
      4          5.625654   1.000000
      5          8.809346   0.000000
      6          8.840081   0.000000
      7          9.013157   0.000000
      8         11.170029   0.000000
      9         12.356061   0.000000
     10         13.549428   0.000000
     11         15.229402   0.000000
     12         16.947047   0.000000
 
  0.9642857E-01  0.9642857E-01  0.1928571E+00  0.5555556E-02
      1         -5.805459   1.000000
      2          3.897626   1.000000
      3          4.736952   1.000000
      4          5.668987   1.000000
      5          8.731061   0.000000
      6          8.810306   0.000000
      7          8.913959   0.000000
      8         10.968037   0.000000
      9         12.484076   0.000000
     10         13.450305   0.000000
     11         15.006678   0.000000
     12         16.924294   0.000000
 
  0.8571429E-01  0.8571429E-01  0.1714286E+00  0.5555556E-02
      1         -5.872933   1.000000
      2          4.181159   1.000000
      3          4.927465   1.000000
      4          5.706286   1.000000
      5          8.661011   0.000000
      6          8.777010   0.000000
      7          8.821044   0.000000
      8         10.724215   0.000000
      9         12.623997   0.000000
     10         13.406403   0.000000
     11         14.789071   0.000000
     12         16.916141   0.000000
 
  0.7500000E-01  0.7500000E-01  0.1500000E+00  0.5555556E-02
      1         -5.932653   1.000000
      2          4.463264   1.000000
      3          5.109059   1.000000
      4          5.737918   1.000000
      5          8.599173   0.000000
      6          8.734563   0.000000
      7          8.740503   0.000000
      8         10.455300   0.000000
      9         12.772696   0.000000
     10         13.400968   0.000000
     11         14.581777   0.000000
     12         16.938874   0.000000
 
  0.6428571E-01  0.6428571E-01  0.1285714E+00  0.5555556E-02
      1         -5.984549   1.000000
      2          4.740702   1.000000
      3          5.278662   1.000000
      4          5.764274   1.000000
      5          8.545529   0.000000
      6          8.655008   0.000000
      7          8.700237   0.000000
      8         10.178663   0.000000
      9         12.926107   0.000000
     10         13.418647   0.000000
     11         14.389869   0.000000
     12         16.939156   0.000000
 
  0.5357143E-01  0.5357143E-01  0.1071429E+00  0.5555556E-02
      1         -6.028568   1.000000
      2          5.008686   1.000000
      3          5.432843   1.000000
      4          5.785751   1.000000
      5          8.500145   0.000000
      6          8.583374   0.000000
      7          8.654755   0.000000
      8          9.910819   0.000000
      9         13.079283   0.000000
     10         13.447862   0.000000
     11         14.218123   0.000000
     12         16.966921   0.000000
 
  0.4285714E-01  0.4285714E-01  0.8571429E-01  0.5555556E-02
      1         -6.064651   1.000000
      2          5.260145   1.000000
      3          5.567639   1.000000
      4          5.802757   1.000000
      5          8.463002   0.000000
      6          8.520779   0.000000
      7          8.601575   0.000000
      8          9.668341   0.000000
      9         13.225384   0.000000
     10         13.480058   0.000000
     11         14.070852   0.000000
     12         17.000030   0.000000
 
  0.3214286E-01  0.3214286E-01  0.6428571E-01  0.5555556E-02
      1         -6.092754   1.000000
      2          5.484508   1.000000
      3          5.678854   1.000000
      4          5.815577   1.000000
      5          8.434108   0.000000
      6          8.468928   0.000000
      7          8.539487   0.000000
      8          9.467846   0.000000
      9         13.355860   0.000000
     10         13.509744   0.000000
     11         13.951909   0.000000
     12         17.035828   0.000000
 
  0.2142857E-01  0.2142857E-01  0.4285714E-01  0.5555556E-02
      1         -6.112848   1.000000
      2          5.666870   1.000000
      3          5.762201   1.000000
      4          5.824521   1.000000
      5          8.413463   0.000000
      6          8.429777   0.000000
      7          8.473197   0.000000
      8          9.322600   0.000000
      9         13.460608   0.000000
     10         13.533142   0.000000
     11         13.864489   0.000000
     12         17.072490   0.000000
 
  0.1071429E-01  0.1071429E-01  0.2142857E-01  0.5555556E-02
      1         -6.124907   1.000000
      2          5.788463   1.000000
      3          5.813971   1.000000
      4          5.829799   1.000000
      5          8.401075   0.000000
      6          8.405292   0.000000
      7          8.418570   0.000000
      8          9.237434   0.000000
      9         13.529133   0.000000
     10         13.547986   0.000000
     11         13.811023   0.000000
     12         17.078991   0.000000
 
  0.0000000E+00  0.0000000E+00 -0.6938894E-17  0.5555556E-02
      1         -6.128921   1.000000
      2          5.831544   1.000000
      3          5.831544   1.000000
      4          5.831544   1.000000
      5          8.396945   0.000000
      6          8.396945   0.000000
      7          8.396945   0.000000
      8          9.209801   0.000000
      9         13.553060   0.000000
     10         13.553064   0.000000
     11         13.793026   0.000000
     12         17.085861   0.000000
