 vasp.6.6.0 06Mar2026 (build Apr 30 2026 15:36:16) complex                      
  
 executed on             LinuxIFC date 2026.05.01  10:49:52
 running    8 mpi-ranks, on    1 nodes
 distrk:  each k-point on    4 cores,    2 groups
 distr:  one band on NCORE=   4 cores,    1 groups


--------------------------------------------------------------------------------------------------------


 INCAR:
   SYSTEM = Si_diamond_PBE_band_vasp
   GGA = PE
   ENCUT = 400
   EDIFF = 1E-6
   NELM = 100
   PREC = Accurate
   ALGO = Fast
   LREAL = .FALSE.
   IBRION = -1
   NSW = 0
   ISMEAR = 0
   SIGMA = 0.05
   LWAVE = .FALSE.
   KPAR = 2
   NCORE = 4
   ICHARG = 11
   LCHARG = .FALSE.
   LORBIT = 11
   NBANDS = 12

 POTCAR:   PAW_PBE Si 05Jan2001                   
 POTCAR:   PAW_PBE Si 05Jan2001                   
   VRHFIN =Si: s2p2                                                                                 
   LEXCH  = PE                                                                                      
   EATOM  =   103.0669 eV,    7.5752 Ry                                                             
                                                                                                    
   TITEL  = PAW_PBE Si 05Jan2001                                                                    
   LULTRA =        F    use ultrasoft PP ?                                                          
   IUNSCR =        1    unscreen: 0-lin 1-nonlin 2-no                                               
   RPACOR =    1.500    partial core radius                                                         
   POMASS =   28.085; ZVAL   =    4.000    mass and valenz                                          
   RCORE  =    1.900    outmost cutoff radius                                                       
   RWIGS  =    2.480; RWIGS  =    1.312    wigner-seitz radius (au A)                               
   ENMAX  =  245.345; ENMIN  =  184.009 eV                                                          
   ICORE  =        2    local potential                                                             
   LCOR   =        T    correct aug charges                                                         
   LPAW   =        T    paw PP                                                                      
   EAUG   =  322.069                                                                                
   DEXC   =    -.007                                                                                
   RMAX   =    2.944    core radius for proj-oper                                                   
   RAUG   =    1.300    factor for augmentation sphere                                              
   RDEP   =    1.993    radius for radial grids                                                     
   QCUT   =   -4.246; QGAM   =    8.493    optimization parameters                                  
                                                                                                    
   Description                                                                                      
     l     E      TYP  RCUT    TYP  RCUT                                                            
     0   .000     23  1.900                                                                         
     0   .000     23  1.900                                                                         
     1   .000     23  1.900                                                                         
     1   .000     23  1.900                                                                         
     2   .000      7  1.900                                                                         
  local pseudopotential read in
  partial core-charges read in
  atomic valenz-charges read in
  non local Contribution for L=           0  read in
    real space projection operators read in
  non local Contribution for L=           0  read in
    real space projection operators read in
  non local Contribution for L=           1  read in
    real space projection operators read in
  non local Contribution for L=           1  read in
    real space projection operators read in
    PAW grid and wavefunctions read in
 
   number of l-projection  operators is LMAX  =           4
   number of lm-projection operators is LMMAX =           8
 
 PAW_PBE Si 05Jan2001                   :
 energy of atom  1       EATOM= -103.0669
 kinetic energy error for atom=    0.0012 (will be added to EATOM!!)
 
 
 POSCAR: Si diamond primitive PBE a=5.43 Angstrom
  positions in direct lattice
  No initial velocities read in


 exchange-correlation table for PE
   RHO(1)=    0.500       N(1)  =     2000
   RHO(2)=  100.500       N(2)  =     4000
 


--------------------------------------------------------------------------------------------------------


 ion  position               nearest neighbor table
   1  0.000  0.000  0.000-   2 2.35   2 2.35   2 2.35   2 2.35
   2  0.250  0.250  0.250-   1 2.35   1 2.35   1 2.35   1 2.35
 
  LATTYP: Found a face centered cubic cell.
 ALAT       =     5.4300000000
  
  Lattice vectors:
  
 A1 = (   0.0000000000,   2.7150000000,   2.7150000000)
 A2 = (   2.7150000000,   0.0000000000,   2.7150000000)
 A3 = (   2.7150000000,   2.7150000000,   0.0000000000)


Analysis of symmetry for initial positions (statically):
=====================================================================
 Subroutine PRICEL returns:
 Original cell was already a primitive cell.
 

 Routine SETGRP: Setting up the symmetry group for a 
 face centered cubic supercell.


 Subroutine GETGRP returns: Found 48 space group operations
 (whereof 24 operations were pure point group operations)
 out of a pool of 48 trial point group operations.


The static configuration has the point symmetry T_d .
 The point group associated with its full space group is O_h .


Analysis of symmetry for dynamics (positions and initial velocities):
=====================================================================
 Subroutine PRICEL returns:
 Original cell was already a primitive cell.
 

 Routine SETGRP: Setting up the symmetry group for a 
 face centered cubic supercell.


 Subroutine GETGRP returns: Found 48 space group operations
 (whereof 24 operations were pure point group operations)
 out of a pool of 48 trial point group operations.


The dynamic configuration has the point symmetry T_d .
 The point group associated with its full space group is O_h .


 Subroutine INISYM returns: Found 48 space group operations
 (whereof 24 operations are pure point group operations),
 and found     1 'primitive' translations


----------------------------------------------------------------------------------------

                                     Primitive cell                                     

  volume of cell :      40.0258

  direct lattice vectors                    reciprocal lattice vectors
     0.000000000  2.715000000  2.715000000    -0.184162063  0.184162063  0.184162063
     2.715000000  0.000000000  2.715000000     0.184162063 -0.184162063  0.184162063
     2.715000000  2.715000000  0.000000000     0.184162063  0.184162063 -0.184162063

  length of vectors
     3.839589822  3.839589822  3.839589822     0.318978049  0.318978049  0.318978049

  position of ions in fractional coordinates (direct lattice)
     0.000000000  0.000000000  0.000000000
     0.250000000  0.250000000  0.250000000

  ion indices of the primitive-cell ions
   primitive index   ion index
                 1           1
                 2           2

----------------------------------------------------------------------------------------

 
 
 KPOINTS: Si diamond band path L-G-X-W-K-G, 36 poi

Interpolating k-points between supplied coordinates.

 Line segments in fractional coordinates (reciprocal lattice):
    0.500000  0.500000  0.500000  ...  0.000000  0.000000  0.000000
    0.000000  0.000000  0.000000  ...  0.500000  0.000000  0.500000
    0.500000  0.000000  0.500000  ...  0.500000  0.250000  0.750000
    0.500000  0.250000  0.750000  ...  0.375000  0.375000  0.750000
    0.375000  0.375000  0.750000  ...  0.000000  0.000000  0.000000

 Generated    36 points on each line segment, for a total of    180 k-points:

 Following reciprocal coordinates:
            Coordinates               Weight
  0.500000  0.500000  0.500000      0.005556
  0.485714  0.485714  0.485714      0.005556
  0.471429  0.471429  0.471429      0.005556
  0.457143  0.457143  0.457143      0.005556
  0.442857  0.442857  0.442857      0.005556
  0.428571  0.428571  0.428571      0.005556
  0.414286  0.414286  0.414286      0.005556
  0.400000  0.400000  0.400000      0.005556
  0.385714  0.385714  0.385714      0.005556
  0.371429  0.371429  0.371429      0.005556
  0.357143  0.357143  0.357143      0.005556
  0.342857  0.342857  0.342857      0.005556
  0.328571  0.328571  0.328571      0.005556
  0.314286  0.314286  0.314286      0.005556
  0.300000  0.300000  0.300000      0.005556
  0.285714  0.285714  0.285714      0.005556
  0.271429  0.271429  0.271429      0.005556
  0.257143  0.257143  0.257143      0.005556
  0.242857  0.242857  0.242857      0.005556
  0.228571  0.228571  0.228571      0.005556
  0.214286  0.214286  0.214286      0.005556
  0.200000  0.200000  0.200000      0.005556
  0.185714  0.185714  0.185714      0.005556
  0.171429  0.171429  0.171429      0.005556
  0.157143  0.157143  0.157143      0.005556
  0.142857  0.142857  0.142857      0.005556
  0.128571  0.128571  0.128571      0.005556
  0.114286  0.114286  0.114286      0.005556
  0.100000  0.100000  0.100000      0.005556
  0.085714  0.085714  0.085714      0.005556
  0.071429  0.071429  0.071429      0.005556
  0.057143  0.057143  0.057143      0.005556
  0.042857  0.042857  0.042857      0.005556
  0.028571  0.028571  0.028571      0.005556
  0.014286  0.014286  0.014286      0.005556
  0.000000  0.000000  0.000000      0.005556
  0.000000  0.000000  0.000000      0.005556
  0.014286  0.000000  0.014286      0.005556
  0.028571  0.000000  0.028571      0.005556
  0.042857  0.000000  0.042857      0.005556
  0.057143  0.000000  0.057143      0.005556
  0.071429  0.000000  0.071429      0.005556
  0.085714  0.000000  0.085714      0.005556
  0.100000  0.000000  0.100000      0.005556
  0.114286  0.000000  0.114286      0.005556
  0.128571  0.000000  0.128571      0.005556
  0.142857  0.000000  0.142857      0.005556
  0.157143  0.000000  0.157143      0.005556
  0.171429  0.000000  0.171429      0.005556
  0.185714  0.000000  0.185714      0.005556
  0.200000  0.000000  0.200000      0.005556
  0.214286  0.000000  0.214286      0.005556
  0.228571  0.000000  0.228571      0.005556
  0.242857  0.000000  0.242857      0.005556
  0.257143  0.000000  0.257143      0.005556
  0.271429  0.000000  0.271429      0.005556
  0.285714  0.000000  0.285714      0.005556
  0.300000  0.000000  0.300000      0.005556
  0.314286  0.000000  0.314286      0.005556
  0.328571  0.000000  0.328571      0.005556
  0.342857  0.000000  0.342857      0.005556
  0.357143  0.000000  0.357143      0.005556
  0.371429  0.000000  0.371429      0.005556
  0.385714  0.000000  0.385714      0.005556
  0.400000  0.000000  0.400000      0.005556
  0.414286  0.000000  0.414286      0.005556
  0.428571  0.000000  0.428571      0.005556
  0.442857  0.000000  0.442857      0.005556
  0.457143  0.000000  0.457143      0.005556
  0.471429  0.000000  0.471429      0.005556
  0.485714  0.000000  0.485714      0.005556
  0.500000  0.000000  0.500000      0.005556
  0.500000  0.000000  0.500000      0.005556
  0.500000  0.007143  0.507143      0.005556
  0.500000  0.014286  0.514286      0.005556
  0.500000  0.021429  0.521429      0.005556
  0.500000  0.028571  0.528571      0.005556
  0.500000  0.035714  0.535714      0.005556
  0.500000  0.042857  0.542857      0.005556
  0.500000  0.050000  0.550000      0.005556
  0.500000  0.057143  0.557143      0.005556
  0.500000  0.064286  0.564286      0.005556
  0.500000  0.071429  0.571429      0.005556
  0.500000  0.078571  0.578571      0.005556
  0.500000  0.085714  0.585714      0.005556
  0.500000  0.092857  0.592857      0.005556
  0.500000  0.100000  0.600000      0.005556
  0.500000  0.107143  0.607143      0.005556
  0.500000  0.114286  0.614286      0.005556
  0.500000  0.121429  0.621429      0.005556
  0.500000  0.128571  0.628571      0.005556
  0.500000  0.135714  0.635714      0.005556
  0.500000  0.142857  0.642857      0.005556
  0.500000  0.150000  0.650000      0.005556
  0.500000  0.157143  0.657143      0.005556
  0.500000  0.164286  0.664286      0.005556
  0.500000  0.171429  0.671429      0.005556
  0.500000  0.178571  0.678571      0.005556
  0.500000  0.185714  0.685714      0.005556
  0.500000  0.192857  0.692857      0.005556
  0.500000  0.200000  0.700000      0.005556
  0.500000  0.207143  0.707143      0.005556
  0.500000  0.214286  0.714286      0.005556
  0.500000  0.221429  0.721429      0.005556
  0.500000  0.228571  0.728571      0.005556
  0.500000  0.235714  0.735714      0.005556
  0.500000  0.242857  0.742857      0.005556
  0.500000  0.250000  0.750000      0.005556
  0.500000  0.250000  0.750000      0.005556
  0.496429  0.253571  0.750000      0.005556
  0.492857  0.257143  0.750000      0.005556
  0.489286  0.260714  0.750000      0.005556
  0.485714  0.264286  0.750000      0.005556
  0.482143  0.267857  0.750000      0.005556
  0.478571  0.271429  0.750000      0.005556
  0.475000  0.275000  0.750000      0.005556
  0.471429  0.278571  0.750000      0.005556
  0.467857  0.282143  0.750000      0.005556
  0.464286  0.285714  0.750000      0.005556
  0.460714  0.289286  0.750000      0.005556
  0.457143  0.292857  0.750000      0.005556
  0.453571  0.296429  0.750000      0.005556
  0.450000  0.300000  0.750000      0.005556
  0.446429  0.303571  0.750000      0.005556
  0.442857  0.307143  0.750000      0.005556
  0.439286  0.310714  0.750000      0.005556
  0.435714  0.314286  0.750000      0.005556
  0.432143  0.317857  0.750000      0.005556
  0.428571  0.321429  0.750000      0.005556
  0.425000  0.325000  0.750000      0.005556
  0.421429  0.328571  0.750000      0.005556
  0.417857  0.332143  0.750000      0.005556
  0.414286  0.335714  0.750000      0.005556
  0.410714  0.339286  0.750000      0.005556
  0.407143  0.342857  0.750000      0.005556
  0.403571  0.346429  0.750000      0.005556
  0.400000  0.350000  0.750000      0.005556
  0.396429  0.353571  0.750000      0.005556
  0.392857  0.357143  0.750000      0.005556
  0.389286  0.360714  0.750000      0.005556
  0.385714  0.364286  0.750000      0.005556
  0.382143  0.367857  0.750000      0.005556
  0.378571  0.371429  0.750000      0.005556
  0.375000  0.375000  0.750000      0.005556
  0.375000  0.375000  0.750000      0.005556
  0.364286  0.364286  0.728571      0.005556
  0.353571  0.353571  0.707143      0.005556
  0.342857  0.342857  0.685714      0.005556
  0.332143  0.332143  0.664286      0.005556
  0.321429  0.321429  0.642857      0.005556
  0.310714  0.310714  0.621429      0.005556
  0.300000  0.300000  0.600000      0.005556
  0.289286  0.289286  0.578571      0.005556
  0.278571  0.278571  0.557143      0.005556
  0.267857  0.267857  0.535714      0.005556
  0.257143  0.257143  0.514286      0.005556
  0.246429  0.246429  0.492857      0.005556
  0.235714  0.235714  0.471429      0.005556
  0.225000  0.225000  0.450000      0.005556
  0.214286  0.214286  0.428571      0.005556
  0.203571  0.203571  0.407143      0.005556
  0.192857  0.192857  0.385714      0.005556
  0.182143  0.182143  0.364286      0.005556
  0.171429  0.171429  0.342857      0.005556
  0.160714  0.160714  0.321429      0.005556
  0.150000  0.150000  0.300000      0.005556
  0.139286  0.139286  0.278571      0.005556
  0.128571  0.128571  0.257143      0.005556
  0.117857  0.117857  0.235714      0.005556
  0.107143  0.107143  0.214286      0.005556
  0.096429  0.096429  0.192857      0.005556
  0.085714  0.085714  0.171429      0.005556
  0.075000  0.075000  0.150000      0.005556
  0.064286  0.064286  0.128571      0.005556
  0.053571  0.053571  0.107143      0.005556
  0.042857  0.042857  0.085714      0.005556
  0.032143  0.032143  0.064286      0.005556
  0.021429  0.021429  0.042857      0.005556
  0.010714  0.010714  0.021429      0.005556
  0.000000  0.000000 -0.000000      0.005556

 Following cartesian coordinates:
            Coordinates               Weight
  0.092081  0.092081  0.092081      0.005556
  0.089450  0.089450  0.089450      0.005556
  0.086819  0.086819  0.086819      0.005556
  0.084188  0.084188  0.084188      0.005556
  0.081557  0.081557  0.081557      0.005556
  0.078927  0.078927  0.078927      0.005556
  0.076296  0.076296  0.076296      0.005556
  0.073665  0.073665  0.073665      0.005556
  0.071034  0.071034  0.071034      0.005556
  0.068403  0.068403  0.068403      0.005556
  0.065772  0.065772  0.065772      0.005556
  0.063141  0.063141  0.063141      0.005556
  0.060510  0.060510  0.060510      0.005556
  0.057880  0.057880  0.057880      0.005556
  0.055249  0.055249  0.055249      0.005556
  0.052618  0.052618  0.052618      0.005556
  0.049987  0.049987  0.049987      0.005556
  0.047356  0.047356  0.047356      0.005556
  0.044725  0.044725  0.044725      0.005556
  0.042094  0.042094  0.042094      0.005556
  0.039463  0.039463  0.039463      0.005556
  0.036832  0.036832  0.036832      0.005556
  0.034202  0.034202  0.034202      0.005556
  0.031571  0.031571  0.031571      0.005556
  0.028940  0.028940  0.028940      0.005556
  0.026309  0.026309  0.026309      0.005556
  0.023678  0.023678  0.023678      0.005556
  0.021047  0.021047  0.021047      0.005556
  0.018416  0.018416  0.018416      0.005556
  0.015785  0.015785  0.015785      0.005556
  0.013154  0.013154  0.013154      0.005556
  0.010524  0.010524  0.010524      0.005556
  0.007893  0.007893  0.007893      0.005556
  0.005262  0.005262  0.005262      0.005556
  0.002631  0.002631  0.002631      0.005556
  0.000000  0.000000 -0.000000      0.005556
  0.000000  0.000000  0.000000      0.005556
  0.000000  0.005262 -0.000000      0.005556
  0.000000  0.010524 -0.000000      0.005556
 -0.000000  0.015785  0.000000      0.005556
  0.000000  0.021047 -0.000000      0.005556
 -0.000000  0.026309  0.000000      0.005556
 -0.000000  0.031571  0.000000      0.005556
 -0.000000  0.036832  0.000000      0.005556
  0.000000  0.042094 -0.000000      0.005556
 -0.000000  0.047356  0.000000      0.005556
 -0.000000  0.052618  0.000000      0.005556
 -0.000000  0.057880  0.000000      0.005556
 -0.000000  0.063141  0.000000      0.005556
  0.000000  0.068403 -0.000000      0.005556
 -0.000000  0.073665  0.000000      0.005556
 -0.000000  0.078927  0.000000      0.005556
  0.000000  0.084188 -0.000000      0.005556
 -0.000000  0.089450  0.000000      0.005556
 -0.000000  0.094712  0.000000      0.005556
  0.000000  0.099974 -0.000000      0.005556
 -0.000000  0.105235  0.000000      0.005556
  0.000000  0.110497 -0.000000      0.005556
 -0.000000  0.115759  0.000000      0.005556
  0.000000  0.121021 -0.000000      0.005556
 -0.000000  0.126283  0.000000      0.005556
 -0.000000  0.131544  0.000000      0.005556
  0.000000  0.136806 -0.000000      0.005556
 -0.000000  0.142068  0.000000      0.005556
 -0.000000  0.147330  0.000000      0.005556
  0.000000  0.152591 -0.000000      0.005556
 -0.000000  0.157853  0.000000      0.005556
 -0.000000  0.163115  0.000000      0.005556
  0.000000  0.168377 -0.000000      0.005556
  0.000000  0.173639 -0.000000      0.005556
 -0.000000  0.178900  0.000000      0.005556
  0.000000  0.184162  0.000000      0.005556
  0.000000  0.184162  0.000000      0.005556
  0.002631  0.184162  0.000000      0.005556
  0.005262  0.184162  0.000000      0.005556
  0.007893  0.184162 -0.000000      0.005556
  0.010524  0.184162 -0.000000      0.005556
  0.013154  0.184162  0.000000      0.005556
  0.015785  0.184162  0.000000      0.005556
  0.018416  0.184162 -0.000000      0.005556
  0.021047  0.184162 -0.000000      0.005556
  0.023678  0.184162  0.000000      0.005556
  0.026309  0.184162  0.000000      0.005556
  0.028940  0.184162  0.000000      0.005556
  0.031571  0.184162  0.000000      0.005556
  0.034202  0.184162 -0.000000      0.005556
  0.036832  0.184162  0.000000      0.005556
  0.039463  0.184162  0.000000      0.005556
  0.042094  0.184162 -0.000000      0.005556
  0.044725  0.184162 -0.000000      0.005556
  0.047356  0.184162  0.000000      0.005556
  0.049987  0.184162  0.000000      0.005556
  0.052618  0.184162 -0.000000      0.005556
  0.055249  0.184162 -0.000000      0.005556
  0.057880  0.184162 -0.000000      0.005556
  0.060510  0.184162  0.000000      0.005556
  0.063141  0.184162  0.000000      0.005556
  0.065772  0.184162 -0.000000      0.005556
  0.068403  0.184162  0.000000      0.005556
  0.071034  0.184162  0.000000      0.005556
  0.073665  0.184162 -0.000000      0.005556
  0.076296  0.184162 -0.000000      0.005556
  0.078927  0.184162  0.000000      0.005556
  0.081557  0.184162 -0.000000      0.005556
  0.084188  0.184162  0.000000      0.005556
  0.086819  0.184162  0.000000      0.005556
  0.089450  0.184162 -0.000000      0.005556
  0.092081  0.184162  0.000000      0.005556
  0.092081  0.184162  0.000000      0.005556
  0.093396  0.182847  0.000000      0.005556
  0.094712  0.181531  0.000000      0.005556
  0.096027  0.180216  0.000000      0.005556
  0.097343  0.178900  0.000000      0.005556
  0.098658  0.177585 -0.000000      0.005556
  0.099974  0.176269 -0.000000      0.005556
  0.101289  0.174954 -0.000000      0.005556
  0.102605  0.173639 -0.000000      0.005556
  0.103920  0.172323  0.000000      0.005556
  0.105235  0.171008  0.000000      0.005556
  0.106551  0.169692 -0.000000      0.005556
  0.107866  0.168377  0.000000      0.005556
  0.109182  0.167061  0.000000      0.005556
  0.110497  0.165746 -0.000000      0.005556
  0.111813  0.164430 -0.000000      0.005556
  0.113128  0.163115 -0.000000      0.005556
  0.114444  0.161800 -0.000000      0.005556
  0.115759  0.160484  0.000000      0.005556
  0.117074  0.159169  0.000000      0.005556
  0.118390  0.157853 -0.000000      0.005556
  0.119705  0.156538  0.000000      0.005556
  0.121021  0.155222 -0.000000      0.005556
  0.122336  0.153907 -0.000000      0.005556
  0.123652  0.152591  0.000000      0.005556
  0.124967  0.151276 -0.000000      0.005556
  0.126283  0.149961  0.000000      0.005556
  0.127598  0.148645  0.000000      0.005556
  0.128913  0.147330 -0.000000      0.005556
  0.130229  0.146014  0.000000      0.005556
  0.131544  0.144699  0.000000      0.005556
  0.132860  0.143383 -0.000000      0.005556
  0.134175  0.142068  0.000000      0.005556
  0.135491  0.140752  0.000000      0.005556
  0.136806  0.139437 -0.000000      0.005556
  0.138122  0.138122  0.000000      0.005556
  0.138122  0.138122  0.000000      0.005556
  0.134175  0.134175  0.000000      0.005556
  0.130229  0.130229 -0.000000      0.005556
  0.126283  0.126283  0.000000      0.005556
  0.122336  0.122336 -0.000000      0.005556
  0.118390  0.118390 -0.000000      0.005556
  0.114444  0.114444 -0.000000      0.005556
  0.110497  0.110497 -0.000000      0.005556
  0.106551  0.106551 -0.000000      0.005556
  0.102605  0.102605 -0.000000      0.005556
  0.098658  0.098658 -0.000000      0.005556
  0.094712  0.094712  0.000000      0.005556
  0.090766  0.090766 -0.000000      0.005556
  0.086819  0.086819 -0.000000      0.005556
  0.082873  0.082873 -0.000000      0.005556
  0.078927  0.078927  0.000000      0.005556
  0.074980  0.074980 -0.000000      0.005556
  0.071034  0.071034 -0.000000      0.005556
  0.067088  0.067088  0.000000      0.005556
  0.063141  0.063141  0.000000      0.005556
  0.059195  0.059195 -0.000000      0.005556
  0.055249  0.055249 -0.000000      0.005556
  0.051302  0.051302 -0.000000      0.005556
  0.047356  0.047356  0.000000      0.005556
  0.043410  0.043410  0.000000      0.005556
  0.039463  0.039463  0.000000      0.005556
  0.035517  0.035517  0.000000      0.005556
  0.031571  0.031571 -0.000000      0.005556
  0.027624  0.027624  0.000000      0.005556
  0.023678  0.023678  0.000000      0.005556
  0.019732  0.019732 -0.000000      0.005556
  0.015785  0.015785  0.000000      0.005556
  0.011839  0.011839  0.000000      0.005556
  0.007893  0.007893 -0.000000      0.005556
  0.003946  0.003946  0.000000      0.005556
 -0.000000 -0.000000  0.000000      0.005556
 


--------------------------------------------------------------------------------------------------------




 Dimension of arrays:
   k-points           NKPTS =    180   k-points in BZ     NKDIM =    180   number of bands    NBANDS=     12
   number of dos      NEDOS =    301   number of ions     NIONS =      2
   non local maximal  LDIM  =      4   non local SUM 2l+1 LMDIM =      8
   total plane-waves  NPLWV =  21952
   max r-space proj   IRMAX =      1   max aug-charges    IRDMAX=  18535
   dimension x,y,z NGX =    28 NGY =   28 NGZ =   28
   dimension x,y,z NGXF=    56 NGYF=   56 NGZF=   56
   support grid    NGXF=    56 NGYF=   56 NGZF=   56
   ions per type =               2
   NGX,Y,Z   is equivalent  to a cutoff of  12.12, 12.12, 12.12 a.u.
   NGXF,Y,Z  is equivalent  to a cutoff of  24.25, 24.25, 24.25 a.u.

 SYSTEM =  Si_diamond_PBE_band_vasp                
 POSCAR =  Si diamond primitive PBE a=5.43 Angstrom

 Startparameter for this run:
   NWRITE =      2    write-flag & timer
   PREC   = accura    normal or accurate (medium, high low for compatibility)
   ISTART =      0    job   : 0-new  1-cont  2-samecut
   ICHARG =     11    charge: 1-file 2-atom 10-const
   ISPIN  =      1    spin polarized calculation?
   LNONCOLLINEAR =      F non collinear calculations
   LSORBIT =      F    spin-orbit coupling
   INIWAV =      1    electr: 0-lowe 1-rand  2-diag
   LASPH  =      F    aspherical Exc in radial PAW
 Electronic Relaxation 1
   ENCUT  =  400.0 eV  29.40 Ry    5.42 a.u.   6.26  6.26  6.26*2*pi/ulx,y,z
   ENINI  =  400.0     initial cutoff
   ENAUG  =  322.1 eV  augmentation charge cutoff
   NELM   =    100;   NELMIN=  2; NELMDL=  0     # of ELM steps 
   EDIFF  = 0.1E-05   stopping-criterion for ELM
   LREAL  =      F    real-space projection
   NLSPLINE    = F    spline interpolate recip. space projectors
   LCOMPAT=      F    compatible to vasp.4.4
   GGA_COMPAT  = T    GGA compatible to vasp.4.4-vasp.4.6
   LMAXPAW     = -100 max onsite density
   LMAXMIX     =    2 max onsite mixed and CHGCAR
   VOSKOWN=      0    Vosko Wilk Nusair interpolation
   ROPT   =    0.00000

 Ewald summation
   EWALD_CUTOFF =   4.00

 Ionic relaxation
   EDIFFG = 0.1E-04   stopping-criterion for IOM
   NSW    =      0    number of steps for IOM
   NBLOCK =      1;   KBLOCK =      1    inner block; outer block 
   IBRION =     -1    ionic relax: 0-MD 1-quasi-New 2-CG
   NFREE  =      0    steps in history (QN), initial steepest desc. (CG)
   ISIF   =      2    stress and relaxation
   IWAVPR =     10    prediction:  0-non 1-charg 2-wave 3-comb
   MAXDIS =   0.00    maximum displacement; if above reset density
   ISYM   =      2    0-nonsym 1-usesym 2-fastsym
   LCORR  =      T    Harris-Foulkes like correction to forces

   POTIM  = 0.5000    time-step for ionic-motion
   TEIN   =    0.0    initial temperature
   TEBEG  =    0.0;   TEEND  =   0.0 temperature during run
   SMASS  =  -3.00    Nose mass-parameter (am)
   estimated Nose-frequenzy (Omega)   =  0.10E-29 period in steps = 0.13E+47 mass=  -0.337E-27a.u.
   SCALEE = 1.0000    scale energy and forces
   NPACO  =    256;   APACO  = 10.0  distance and # of slots for P.C.
   PSTRESS=    0.0 pullay stress

  Mass of Ions in am
   POMASS =  28.09
  Ionic Valenz
   ZVAL   =   4.00
  Atomic Wigner-Seitz radii
   RWIGS  =  -1.00
  virtual crystal weights 
   VCA    =   1.00
   NELECT =       8.0000    total number of electrons
   NUPDOWN=      -1.0000    fix difference up-down

 DOS related values:
   EMIN   =  10.00;   EMAX   =-10.00  energy-range for DOS
   EFERMI =   0.00;   METHOD = LEGACY      
   ISMEAR =     0;   SIGMA  =   0.05  broadening in eV -4-tet -1-fermi 0-gaus
   EFERMI_NEDOS =   21; number of points for ismear=-14 and -15

 Electronic relaxation 2 (details)
   IALGO  =     68    algorithm
   LDIAG  =      T    sub-space diagonalisation (order eigenvalues)
   LSUBROT=      F    optimize rotation matrix (better conditioning)
   LROBUST=      F    robust break criterion during scf (extrapolated energy error)
   ISEARCH=      0    line search for conjugate gradient (0, 1=use gradient)
   TURBO    =      0    0=normal 1=particle mesh
   IRESTART =      0    0=no restart 2=restart with 2 vectors
   NREBOOT  =      0    no. of reboots
   NMIN     =      0    reboot dimension
   EREF     =   0.00    reference energy to select bands
   IMIX   =      4    mixing-type and parameters
     AMIX     =   0.40;   BMIX     =  1.00
     AMIX_MAG =   1.60;   BMIX_MAG =  1.00
     AMIN     =   0.10
     WC   =   100.;   INIMIX=   1;  MIXPRE=   1;  MAXMIX= -45

 Intra band minimization:
   WEIMIN = 0.0000     energy-eigenvalue tresh-hold
   EBREAK =  0.21E-07  absolut break condition
   DEPER  =   0.30     relativ break condition  

   TIME   =   0.40     timestep for ELM

  volume/ion in A,a.u.               =      20.01       135.05
  Fermi-wavevector in a.u.,A,eV,Ry     =   0.957176  1.808800 12.465458  0.916185
  Thomas-Fermi vector in A             =   2.086170
 
 Write flags
   LH5          =      F    write vaspwave.h5 (instead of legacy files WAVECAR, CHGCAR, etc.)
   LWAVE        =      F    write Kohn-Sham orbitals (WAVECAR/vaspwave.h5)
   LDOWNSAMPLE  =      F    k-point downsampling of WAVECAR
   LCHARG       =      F    write restart densities (CHGCAR/vaspwave.h5)
   LCHARGH5     =      F    write charge density to vaspwave.h5
   LTAU         =      F    evaluate kinetic energy density (TAUCAR/vaspwave.h5)
   LVTOT        =      F    write LOCPOT, total local potential
   LVHAR        =      F    write LOCPOT, Hartree potential only
   WRT_POTENTIAL= None    ! write potential to vaspout.h5
   WRT_DENSITY  = None    ! write densities to vaspout.h5
   LELF         =      F    write electronic localiz. function (ELF)
   LORBIT       =     11    0 simple, 1 ext, 2 COOP (PROOUT), +10 PAW based schemes


 Python interface
   PLUGINS active      =      F    recompile with -DPLUGINS to activate
 
 Dipole corrections
   LMONO      =      F    monopole corrections only (constant potential shift)
   LDIPOL     =      F    correct potential (dipole corrections)
   IDIPOL     =      0    1-x, 2-y, 3-z, 4-all directions 
   EPSILON    =  1.0000000 bulk dielectric constant
   LVACPOTAV  =      F  vacuum potentials using an averaging scheme for the charge density
   VACPOTFLAT =  0.1000000 required flatness to determine vacuum potential
 
Coulomb truncation method
  LTRUNCATE          =      F  Coulomb kernel truncation to be used

 
 Exchange correlation treatment:
   GGA     = PE    functional components
   XC_C    = 1    coefficients multiplying the functional components
   LIBXC   =     F    Libxc                    
   VOSKOWN =     0    Vosko Wilk Nusair interpolation
   LHFCALC =     F    Hartree Fock is set to
   LHFONE  =     F    Hartree Fock one center treatment
   AEXX    =    0.0000 exact exchange contribution
   BEXX    =    1.0000 short-range exact exchange contribution

 Parameters of functionals:
   PE:
     No parameter
 
 Van der Waals corrections
   IVDW    =     0    specifies the selected vdW correction

 Linear response parameters
   LEPSILON=     F    determine dielectric tensor
   LRPA    =     F    only Hartree local field effects (RPA)
   LNABLA  =     F    use nabla operator in PAW spheres
   LVEL    =     F    velocity operator in full k-point grid
   CSHIFT  =0.1000    complex shift for real part using Kramers Kronig
   OMEGAMAX=  -1.0    maximum frequency
   DEG_THRESHOLD= 0.2000000E-02 threshold for treating states as degnerate
   RTIME   =   -0.100 relaxation time in fs
  (WPLASMAI=    0.000 imaginary part of plasma frequency in eV, 0.658/RTIME)
   DFIELD  = 0.0000000 0.0000000 0.0000000 field for delta impulse in time
 
  Optional k-point grid parameters
   LKPOINTS_OPT  =     F    use optional k-point grid
   KPOINTS_OPT_MODE=     1    mode for optional k-point grid
 
 Orbital magnetization related:
   ORBITALMAG=     F  switch on orbital magnetization
   LCHIMAG   =     F  perturbation theory with respect to B field
   DQ        =  0.001000  dq finite difference perturbation B field
   LLRAUG    =     F  two centre corrections for induced B field
   LZORA     =     F  scalar relativistic for chemical shift
   LSOSHIFT  =     F  spin-orbit for chemical shift
   LBONE     =     F  B-component reconstruction in AE one-centre
   LVGVCALC  =     T  calculate vGv susceptibility
   LVGVAPPL  =     F  apply vGv susceptibility instead of pGv for G=0

 Random number generation:
   RANDOM_GENERATOR = DEFAULT
   PCG_SEED         = not used


--------------------------------------------------------------------------------------------------------


 Static calculation
 charge density and potential remain constant during run
 non-spin polarized calculation
 RMM-DIIS sequential band-by-band and
  variant of blocked Davidson during initial phase
 perform sub-space diagonalisation
    before iterative eigenvector-optimisation
 no mixing
 using additional bands            8
 reciprocal scheme for non local part
 use partial core corrections
 calculate Harris-corrections to forces 
   (improved forces if not selfconsistent)
 use gradient corrections 
 WARNING: stress and forces are not correct
  (second derivative of E(xc) not defined)
 use of overlap-Matrix (Vanderbilt PP)
 Gauss-broadening in eV      SIGMA  =   0.05


--------------------------------------------------------------------------------------------------------


  energy-cutoff  :      400.00
  volume of cell :       40.03
      direct lattice vectors                 reciprocal lattice vectors
     0.000000000  2.715000000  2.715000000    -0.184162063  0.184162063  0.184162063
     2.715000000  0.000000000  2.715000000     0.184162063 -0.184162063  0.184162063
     2.715000000  2.715000000  0.000000000     0.184162063  0.184162063 -0.184162063

  length of vectors
     3.839589822  3.839589822  3.839589822     0.318978049  0.318978049  0.318978049


 
 k-points in units of 2pi/SCALE and weight: Si diamond band path L-G-X-W-K-G, 36 poi
   0.09208103  0.09208103  0.09208103       0.006
   0.08945014  0.08945014  0.08945014       0.006
   0.08681926  0.08681926  0.08681926       0.006
   0.08418837  0.08418837  0.08418837       0.006
   0.08155748  0.08155748  0.08155748       0.006
   0.07892660  0.07892660  0.07892660       0.006
   0.07629571  0.07629571  0.07629571       0.006
   0.07366483  0.07366483  0.07366483       0.006
   0.07103394  0.07103394  0.07103394       0.006
   0.06840305  0.06840305  0.06840305       0.006
   0.06577217  0.06577217  0.06577217       0.006
   0.06314128  0.06314128  0.06314128       0.006
   0.06051039  0.06051039  0.06051039       0.006
   0.05787951  0.05787951  0.05787951       0.006
   0.05524862  0.05524862  0.05524862       0.006
   0.05261773  0.05261773  0.05261773       0.006
   0.04998685  0.04998685  0.04998685       0.006
   0.04735596  0.04735596  0.04735596       0.006
   0.04472507  0.04472507  0.04472507       0.006
   0.04209419  0.04209419  0.04209419       0.006
   0.03946330  0.03946330  0.03946330       0.006
   0.03683241  0.03683241  0.03683241       0.006
   0.03420153  0.03420153  0.03420153       0.006
   0.03157064  0.03157064  0.03157064       0.006
   0.02893975  0.02893975  0.02893975       0.006
   0.02630887  0.02630887  0.02630887       0.006
   0.02367798  0.02367798  0.02367798       0.006
   0.02104709  0.02104709  0.02104709       0.006
   0.01841621  0.01841621  0.01841621       0.006
   0.01578532  0.01578532  0.01578532       0.006
   0.01315443  0.01315443  0.01315443       0.006
   0.01052355  0.01052355  0.01052355       0.006
   0.00789266  0.00789266  0.00789266       0.006
   0.00526177  0.00526177  0.00526177       0.006
   0.00263089  0.00263089  0.00263089       0.006
   0.00000000  0.00000000 -0.00000000       0.006
   0.00000000  0.00000000  0.00000000       0.006
   0.00000000  0.00526177 -0.00000000       0.006
   0.00000000  0.01052355 -0.00000000       0.006
  -0.00000000  0.01578532  0.00000000       0.006
   0.00000000  0.02104709 -0.00000000       0.006
  -0.00000000  0.02630887  0.00000000       0.006
  -0.00000000  0.03157064  0.00000000       0.006
  -0.00000000  0.03683241  0.00000000       0.006
   0.00000000  0.04209419 -0.00000000       0.006
  -0.00000000  0.04735596  0.00000000       0.006
  -0.00000000  0.05261773  0.00000000       0.006
  -0.00000000  0.05787951  0.00000000       0.006
  -0.00000000  0.06314128  0.00000000       0.006
   0.00000000  0.06840305 -0.00000000       0.006
  -0.00000000  0.07366483  0.00000000       0.006
  -0.00000000  0.07892660  0.00000000       0.006
   0.00000000  0.08418837 -0.00000000       0.006
  -0.00000000  0.08945014  0.00000000       0.006
  -0.00000000  0.09471192  0.00000000       0.006
   0.00000000  0.09997369 -0.00000000       0.006
  -0.00000000  0.10523546  0.00000000       0.006
   0.00000000  0.11049724 -0.00000000       0.006
  -0.00000000  0.11575901  0.00000000       0.006
   0.00000000  0.12102078 -0.00000000       0.006
  -0.00000000  0.12628256  0.00000000       0.006
  -0.00000000  0.13154433  0.00000000       0.006
   0.00000000  0.13680610 -0.00000000       0.006
  -0.00000000  0.14206788  0.00000000       0.006
  -0.00000000  0.14732965  0.00000000       0.006
   0.00000000  0.15259142 -0.00000000       0.006
  -0.00000000  0.15785320  0.00000000       0.006
  -0.00000000  0.16311497  0.00000000       0.006
   0.00000000  0.16837674 -0.00000000       0.006
   0.00000000  0.17363852 -0.00000000       0.006
  -0.00000000  0.17890029  0.00000000       0.006
   0.00000000  0.18416206  0.00000000       0.006
   0.00000000  0.18416206  0.00000000       0.006
   0.00263089  0.18416206  0.00000000       0.006
   0.00526177  0.18416206  0.00000000       0.006
   0.00789266  0.18416206 -0.00000000       0.006
   0.01052355  0.18416206 -0.00000000       0.006
   0.01315443  0.18416206  0.00000000       0.006
   0.01578532  0.18416206  0.00000000       0.006
   0.01841621  0.18416206 -0.00000000       0.006
   0.02104709  0.18416206 -0.00000000       0.006
   0.02367798  0.18416206  0.00000000       0.006
   0.02630887  0.18416206  0.00000000       0.006
   0.02893975  0.18416206  0.00000000       0.006
   0.03157064  0.18416206 -0.00000000       0.006
   0.03420153  0.18416206  0.00000000       0.006
   0.03683241  0.18416206 -0.00000000       0.006
   0.03946330  0.18416206  0.00000000       0.006
   0.04209419  0.18416206 -0.00000000       0.006
   0.04472507  0.18416206 -0.00000000       0.006
   0.04735596  0.18416206  0.00000000       0.006
   0.04998685  0.18416206  0.00000000       0.006
   0.05261773  0.18416206 -0.00000000       0.006
   0.05524862  0.18416206 -0.00000000       0.006
   0.05787951  0.18416206 -0.00000000       0.006
   0.06051039  0.18416206  0.00000000       0.006
   0.06314128  0.18416206  0.00000000       0.006
   0.06577217  0.18416206 -0.00000000       0.006
   0.06840305  0.18416206  0.00000000       0.006
   0.07103394  0.18416206  0.00000000       0.006
   0.07366483  0.18416206 -0.00000000       0.006
   0.07629571  0.18416206 -0.00000000       0.006
   0.07892660  0.18416206  0.00000000       0.006
   0.08155748  0.18416206 -0.00000000       0.006
   0.08418837  0.18416206  0.00000000       0.006
   0.08681926  0.18416206  0.00000000       0.006
   0.08945014  0.18416206 -0.00000000       0.006
   0.09208103  0.18416206  0.00000000       0.006
   0.09208103  0.18416206  0.00000000       0.006
   0.09339647  0.18284662  0.00000000       0.006
   0.09471192  0.18153118 -0.00000000       0.006
   0.09602736  0.18021573 -0.00000000       0.006
   0.09734280  0.17890029  0.00000000       0.006
   0.09865825  0.17758485 -0.00000000       0.006
   0.09997369  0.17626940  0.00000000       0.006
   0.10128913  0.17495396  0.00000000       0.006
   0.10260458  0.17363852 -0.00000000       0.006
   0.10392002  0.17232307 -0.00000000       0.006
   0.10523546  0.17100763  0.00000000       0.006
   0.10655091  0.16969219 -0.00000000       0.006
   0.10786635  0.16837674 -0.00000000       0.006
   0.10918179  0.16706130  0.00000000       0.006
   0.11049724  0.16574586 -0.00000000       0.006
   0.11181268  0.16443041  0.00000000       0.006
   0.11312812  0.16311497  0.00000000       0.006
   0.11444357  0.16179953 -0.00000000       0.006
   0.11575901  0.16048408 -0.00000000       0.006
   0.11707445  0.15916864  0.00000000       0.006
   0.11838990  0.15785320 -0.00000000       0.006
   0.11970534  0.15653775 -0.00000000       0.006
   0.12102078  0.15522231  0.00000000       0.006
   0.12233623  0.15390687 -0.00000000       0.006
   0.12365167  0.15259142 -0.00000000       0.006
   0.12496711  0.15127598  0.00000000       0.006
   0.12628256  0.14996054 -0.00000000       0.006
   0.12759800  0.14864509 -0.00000000       0.006
   0.12891344  0.14732965  0.00000000       0.006
   0.13022889  0.14601421 -0.00000000       0.006
   0.13154433  0.14469876 -0.00000000       0.006
   0.13285977  0.14338332  0.00000000       0.006
   0.13417522  0.14206788 -0.00000000       0.006
   0.13549066  0.14075243 -0.00000000       0.006
   0.13680610  0.13943699  0.00000000       0.006
   0.13812155  0.13812155  0.00000000       0.006
   0.13812155  0.13812155  0.00000000       0.006
   0.13417522  0.13417522  0.00000000       0.006
   0.13022889  0.13022889 -0.00000000       0.006
   0.12628256  0.12628256  0.00000000       0.006
   0.12233623  0.12233623 -0.00000000       0.006
   0.11838990  0.11838990 -0.00000000       0.006
   0.11444357  0.11444357 -0.00000000       0.006
   0.11049724  0.11049724 -0.00000000       0.006
   0.10655091  0.10655091 -0.00000000       0.006
   0.10260458  0.10260458 -0.00000000       0.006
   0.09865825  0.09865825 -0.00000000       0.006
   0.09471192  0.09471192  0.00000000       0.006
   0.09076559  0.09076559 -0.00000000       0.006
   0.08681926  0.08681926 -0.00000000       0.006
   0.08287293  0.08287293 -0.00000000       0.006
   0.07892660  0.07892660  0.00000000       0.006
   0.07498027  0.07498027 -0.00000000       0.006
   0.07103394  0.07103394 -0.00000000       0.006
   0.06708761  0.06708761  0.00000000       0.006
   0.06314128  0.06314128  0.00000000       0.006
   0.05919495  0.05919495 -0.00000000       0.006
   0.05524862  0.05524862 -0.00000000       0.006
   0.05130229  0.05130229 -0.00000000       0.006
   0.04735596  0.04735596  0.00000000       0.006
   0.04340963  0.04340963  0.00000000       0.006
   0.03946330  0.03946330  0.00000000       0.006
   0.03551697  0.03551697  0.00000000       0.006
   0.03157064  0.03157064 -0.00000000       0.006
   0.02762431  0.02762431  0.00000000       0.006
   0.02367798  0.02367798  0.00000000       0.006
   0.01973165  0.01973165 -0.00000000       0.006
   0.01578532  0.01578532  0.00000000       0.006
   0.01183899  0.01183899  0.00000000       0.006
   0.00789266  0.00789266 -0.00000000       0.006
   0.00394633  0.00394633  0.00000000       0.006
  -0.00000000 -0.00000000  0.00000000       0.006
 
 k-points in reciprocal lattice and weights: Si diamond band path L-G-X-W-K-G, 36 poi
   0.50000000  0.50000000  0.50000000       0.006
   0.48571429  0.48571429  0.48571429       0.006
   0.47142857  0.47142857  0.47142857       0.006
   0.45714286  0.45714286  0.45714286       0.006
   0.44285714  0.44285714  0.44285714       0.006
   0.42857143  0.42857143  0.42857143       0.006
   0.41428571  0.41428571  0.41428571       0.006
   0.40000000  0.40000000  0.40000000       0.006
   0.38571429  0.38571429  0.38571429       0.006
   0.37142857  0.37142857  0.37142857       0.006
   0.35714286  0.35714286  0.35714286       0.006
   0.34285714  0.34285714  0.34285714       0.006
   0.32857143  0.32857143  0.32857143       0.006
   0.31428571  0.31428571  0.31428571       0.006
   0.30000000  0.30000000  0.30000000       0.006
   0.28571429  0.28571429  0.28571429       0.006
   0.27142857  0.27142857  0.27142857       0.006
   0.25714286  0.25714286  0.25714286       0.006
   0.24285714  0.24285714  0.24285714       0.006
   0.22857143  0.22857143  0.22857143       0.006
   0.21428571  0.21428571  0.21428571       0.006
   0.20000000  0.20000000  0.20000000       0.006
   0.18571429  0.18571429  0.18571429       0.006
   0.17142857  0.17142857  0.17142857       0.006
   0.15714286  0.15714286  0.15714286       0.006
   0.14285714  0.14285714  0.14285714       0.006
   0.12857143  0.12857143  0.12857143       0.006
   0.11428571  0.11428571  0.11428571       0.006
   0.10000000  0.10000000  0.10000000       0.006
   0.08571429  0.08571429  0.08571429       0.006
   0.07142857  0.07142857  0.07142857       0.006
   0.05714286  0.05714286  0.05714286       0.006
   0.04285714  0.04285714  0.04285714       0.006
   0.02857143  0.02857143  0.02857143       0.006
   0.01428571  0.01428571  0.01428571       0.006
   0.00000000  0.00000000  0.00000000       0.006
   0.00000000  0.00000000  0.00000000       0.006
   0.01428571  0.00000000  0.01428571       0.006
   0.02857143  0.00000000  0.02857143       0.006
   0.04285714  0.00000000  0.04285714       0.006
   0.05714286  0.00000000  0.05714286       0.006
   0.07142857  0.00000000  0.07142857       0.006
   0.08571429  0.00000000  0.08571429       0.006
   0.10000000  0.00000000  0.10000000       0.006
   0.11428571  0.00000000  0.11428571       0.006
   0.12857143  0.00000000  0.12857143       0.006
   0.14285714  0.00000000  0.14285714       0.006
   0.15714286  0.00000000  0.15714286       0.006
   0.17142857  0.00000000  0.17142857       0.006
   0.18571429  0.00000000  0.18571429       0.006
   0.20000000  0.00000000  0.20000000       0.006
   0.21428571  0.00000000  0.21428571       0.006
   0.22857143  0.00000000  0.22857143       0.006
   0.24285714  0.00000000  0.24285714       0.006
   0.25714286  0.00000000  0.25714286       0.006
   0.27142857  0.00000000  0.27142857       0.006
   0.28571429  0.00000000  0.28571429       0.006
   0.30000000  0.00000000  0.30000000       0.006
   0.31428571  0.00000000  0.31428571       0.006
   0.32857143  0.00000000  0.32857143       0.006
   0.34285714  0.00000000  0.34285714       0.006
   0.35714286  0.00000000  0.35714286       0.006
   0.37142857  0.00000000  0.37142857       0.006
   0.38571429  0.00000000  0.38571429       0.006
   0.40000000  0.00000000  0.40000000       0.006
   0.41428571  0.00000000  0.41428571       0.006
   0.42857143  0.00000000  0.42857143       0.006
   0.44285714  0.00000000  0.44285714       0.006
   0.45714286  0.00000000  0.45714286       0.006
   0.47142857  0.00000000  0.47142857       0.006
   0.48571429  0.00000000  0.48571429       0.006
   0.50000000  0.00000000  0.50000000       0.006
   0.50000000  0.00000000  0.50000000       0.006
   0.50000000  0.00714286  0.50714286       0.006
   0.50000000  0.01428571  0.51428571       0.006
   0.50000000  0.02142857  0.52142857       0.006
   0.50000000  0.02857143  0.52857143       0.006
   0.50000000  0.03571429  0.53571429       0.006
   0.50000000  0.04285714  0.54285714       0.006
   0.50000000  0.05000000  0.55000000       0.006
   0.50000000  0.05714286  0.55714286       0.006
   0.50000000  0.06428571  0.56428571       0.006
   0.50000000  0.07142857  0.57142857       0.006
   0.50000000  0.07857143  0.57857143       0.006
   0.50000000  0.08571429  0.58571429       0.006
   0.50000000  0.09285714  0.59285714       0.006
   0.50000000  0.10000000  0.60000000       0.006
   0.50000000  0.10714286  0.60714286       0.006
   0.50000000  0.11428571  0.61428571       0.006
   0.50000000  0.12142857  0.62142857       0.006
   0.50000000  0.12857143  0.62857143       0.006
   0.50000000  0.13571429  0.63571429       0.006
   0.50000000  0.14285714  0.64285714       0.006
   0.50000000  0.15000000  0.65000000       0.006
   0.50000000  0.15714286  0.65714286       0.006
   0.50000000  0.16428571  0.66428571       0.006
   0.50000000  0.17142857  0.67142857       0.006
   0.50000000  0.17857143  0.67857143       0.006
   0.50000000  0.18571429  0.68571429       0.006
   0.50000000  0.19285714  0.69285714       0.006
   0.50000000  0.20000000  0.70000000       0.006
   0.50000000  0.20714286  0.70714286       0.006
   0.50000000  0.21428571  0.71428571       0.006
   0.50000000  0.22142857  0.72142857       0.006
   0.50000000  0.22857143  0.72857143       0.006
   0.50000000  0.23571429  0.73571429       0.006
   0.50000000  0.24285714  0.74285714       0.006
   0.50000000  0.25000000  0.75000000       0.006
   0.50000000  0.25000000  0.75000000       0.006
   0.49642857  0.25357143  0.75000000       0.006
   0.49285714  0.25714286  0.75000000       0.006
   0.48928571  0.26071429  0.75000000       0.006
   0.48571429  0.26428571  0.75000000       0.006
   0.48214286  0.26785714  0.75000000       0.006
   0.47857143  0.27142857  0.75000000       0.006
   0.47500000  0.27500000  0.75000000       0.006
   0.47142857  0.27857143  0.75000000       0.006
   0.46785714  0.28214286  0.75000000       0.006
   0.46428571  0.28571429  0.75000000       0.006
   0.46071429  0.28928571  0.75000000       0.006
   0.45714286  0.29285714  0.75000000       0.006
   0.45357143  0.29642857  0.75000000       0.006
   0.45000000  0.30000000  0.75000000       0.006
   0.44642857  0.30357143  0.75000000       0.006
   0.44285714  0.30714286  0.75000000       0.006
   0.43928571  0.31071429  0.75000000       0.006
   0.43571429  0.31428571  0.75000000       0.006
   0.43214286  0.31785714  0.75000000       0.006
   0.42857143  0.32142857  0.75000000       0.006
   0.42500000  0.32500000  0.75000000       0.006
   0.42142857  0.32857143  0.75000000       0.006
   0.41785714  0.33214286  0.75000000       0.006
   0.41428571  0.33571429  0.75000000       0.006
   0.41071429  0.33928571  0.75000000       0.006
   0.40714286  0.34285714  0.75000000       0.006
   0.40357143  0.34642857  0.75000000       0.006
   0.40000000  0.35000000  0.75000000       0.006
   0.39642857  0.35357143  0.75000000       0.006
   0.39285714  0.35714286  0.75000000       0.006
   0.38928571  0.36071429  0.75000000       0.006
   0.38571429  0.36428571  0.75000000       0.006
   0.38214286  0.36785714  0.75000000       0.006
   0.37857143  0.37142857  0.75000000       0.006
   0.37500000  0.37500000  0.75000000       0.006
   0.37500000  0.37500000  0.75000000       0.006
   0.36428571  0.36428571  0.72857143       0.006
   0.35357143  0.35357143  0.70714286       0.006
   0.34285714  0.34285714  0.68571429       0.006
   0.33214286  0.33214286  0.66428571       0.006
   0.32142857  0.32142857  0.64285714       0.006
   0.31071429  0.31071429  0.62142857       0.006
   0.30000000  0.30000000  0.60000000       0.006
   0.28928571  0.28928571  0.57857143       0.006
   0.27857143  0.27857143  0.55714286       0.006
   0.26785714  0.26785714  0.53571429       0.006
   0.25714286  0.25714286  0.51428571       0.006
   0.24642857  0.24642857  0.49285714       0.006
   0.23571429  0.23571429  0.47142857       0.006
   0.22500000  0.22500000  0.45000000       0.006
   0.21428571  0.21428571  0.42857143       0.006
   0.20357143  0.20357143  0.40714286       0.006
   0.19285714  0.19285714  0.38571429       0.006
   0.18214286  0.18214286  0.36428571       0.006
   0.17142857  0.17142857  0.34285714       0.006
   0.16071429  0.16071429  0.32142857       0.006
   0.15000000  0.15000000  0.30000000       0.006
   0.13928571  0.13928571  0.27857143       0.006
   0.12857143  0.12857143  0.25714286       0.006
   0.11785714  0.11785714  0.23571429       0.006
   0.10714286  0.10714286  0.21428571       0.006
   0.09642857  0.09642857  0.19285714       0.006
   0.08571429  0.08571429  0.17142857       0.006
   0.07500000  0.07500000  0.15000000       0.006
   0.06428571  0.06428571  0.12857143       0.006
   0.05357143  0.05357143  0.10714286       0.006
   0.04285714  0.04285714  0.08571429       0.006
   0.03214286  0.03214286  0.06428571       0.006
   0.02142857  0.02142857  0.04285714       0.006
   0.01071429  0.01071429  0.02142857       0.006
   0.00000000  0.00000000 -0.00000000       0.006
 
 position of ions in fractional coordinates (direct lattice) 
   0.00000000  0.00000000  0.00000000
   0.25000000  0.25000000  0.25000000
 
 position of ions in cartesian coordinates  (Angst):
   0.00000000  0.00000000  0.00000000
   1.35750000  1.35750000  1.35750000
 


--------------------------------------------------------------------------------------------------------


 k-point     1 :   0.5000 0.5000 0.5000  plane waves:     718
 k-point     2 :   0.4857 0.4857 0.4857  plane waves:     718
 k-point     3 :   0.4714 0.4714 0.4714  plane waves:     724
 k-point     4 :   0.4571 0.4571 0.4571  plane waves:     730
 k-point     5 :   0.4429 0.4429 0.4429  plane waves:     736
 k-point     6 :   0.4286 0.4286 0.4286  plane waves:     736
 k-point     7 :   0.4143 0.4143 0.4143  plane waves:     739
 k-point     8 :   0.4000 0.4000 0.4000  plane waves:     739
 k-point     9 :   0.3857 0.3857 0.3857  plane waves:     739
 k-point    10 :   0.3714 0.3714 0.3714  plane waves:     745
 k-point    11 :   0.3571 0.3571 0.3571  plane waves:     748
 k-point    12 :   0.3429 0.3429 0.3429  plane waves:     745
 k-point    13 :   0.3286 0.3286 0.3286  plane waves:     745
 k-point    14 :   0.3143 0.3143 0.3143  plane waves:     745
 k-point    15 :   0.3000 0.3000 0.3000  plane waves:     745
 k-point    16 :   0.2857 0.2857 0.2857  plane waves:     739
 k-point    17 :   0.2714 0.2714 0.2714  plane waves:     739
 k-point    18 :   0.2571 0.2571 0.2571  plane waves:     733
 k-point    19 :   0.2429 0.2429 0.2429  plane waves:     733
 k-point    20 :   0.2286 0.2286 0.2286  plane waves:     733
 k-point    21 :   0.2143 0.2143 0.2143  plane waves:     724
 k-point    22 :   0.2000 0.2000 0.2000  plane waves:     718
 k-point    23 :   0.1857 0.1857 0.1857  plane waves:     718
 k-point    24 :   0.1714 0.1714 0.1714  plane waves:     718
 k-point    25 :   0.1571 0.1571 0.1571  plane waves:     718
 k-point    26 :   0.1429 0.1429 0.1429  plane waves:     718
 k-point    27 :   0.1286 0.1286 0.1286  plane waves:     724
 k-point    28 :   0.1143 0.1143 0.1143  plane waves:     727
 k-point    29 :   0.1000 0.1000 0.1000  plane waves:     728
 k-point    30 :   0.0857 0.0857 0.0857  plane waves:     728
 k-point    31 :   0.0714 0.0714 0.0714  plane waves:     731
 k-point    32 :   0.0571 0.0571 0.0571  plane waves:     725
 k-point    33 :   0.0429 0.0429 0.0429  plane waves:     725
 k-point    34 :   0.0286 0.0286 0.0286  plane waves:     725
 k-point    35 :   0.0143 0.0143 0.0143  plane waves:     725
 k-point    36 :   0.0000 0.0000 0.0000  plane waves:     725
 k-point    37 :   0.0000 0.0000 0.0000  plane waves:     725
 k-point    38 :   0.0143 0.0000 0.0143  plane waves:     725
 k-point    39 :   0.0286 0.0000 0.0286  plane waves:     725
 k-point    40 :   0.0429 0.0000 0.0429  plane waves:     725
 k-point    41 :   0.0571 0.0000 0.0571  plane waves:     729
 k-point    42 :   0.0714 0.0000 0.0714  plane waves:     729
 k-point    43 :   0.0857 0.0000 0.0857  plane waves:     729
 k-point    44 :   0.1000 0.0000 0.1000  plane waves:     721
 k-point    45 :   0.1143 0.0000 0.1143  plane waves:     725
 k-point    46 :   0.1286 0.0000 0.1286  plane waves:     717
 k-point    47 :   0.1429 0.0000 0.1429  plane waves:     721
 k-point    48 :   0.1571 0.0000 0.1571  plane waves:     721
 k-point    49 :   0.1714 0.0000 0.1714  plane waves:     717
 k-point    50 :   0.1857 0.0000 0.1857  plane waves:     725
 k-point    51 :   0.2000 0.0000 0.2000  plane waves:     721
 k-point    52 :   0.2143 0.0000 0.2143  plane waves:     721
 k-point    53 :   0.2286 0.0000 0.2286  plane waves:     721
 k-point    54 :   0.2429 0.0000 0.2429  plane waves:     729
 k-point    55 :   0.2571 0.0000 0.2571  plane waves:     725
 k-point    56 :   0.2714 0.0000 0.2714  plane waves:     721
 k-point    57 :   0.2857 0.0000 0.2857  plane waves:     721
 k-point    58 :   0.3000 0.0000 0.3000  plane waves:     721
 k-point    59 :   0.3143 0.0000 0.3143  plane waves:     717
 k-point    60 :   0.3286 0.0000 0.3286  plane waves:     717
 k-point    61 :   0.3429 0.0000 0.3429  plane waves:     717
 k-point    62 :   0.3571 0.0000 0.3571  plane waves:     717
 k-point    63 :   0.3714 0.0000 0.3714  plane waves:     725
 k-point    64 :   0.3857 0.0000 0.3857  plane waves:     725
 k-point    65 :   0.4000 0.0000 0.4000  plane waves:     729
 k-point    66 :   0.4143 0.0000 0.4143  plane waves:     725
 k-point    67 :   0.4286 0.0000 0.4286  plane waves:     724
 k-point    68 :   0.4429 0.0000 0.4429  plane waves:     732
 k-point    69 :   0.4571 0.0000 0.4571  plane waves:     740
 k-point    70 :   0.4714 0.0000 0.4714  plane waves:     740
 k-point    71 :   0.4857 0.0000 0.4857  plane waves:     740
 k-point    72 :   0.5000 0.0000 0.5000  plane waves:     740
 k-point    73 :   0.5000 0.0000 0.5000  plane waves:     740
 k-point    74 :   0.5000 0.0071 0.5071  plane waves:     740
 k-point    75 :   0.5000 0.0143 0.5143  plane waves:     740
 k-point    76 :   0.5000 0.0214 0.5214  plane waves:     732
 k-point    77 :   0.5000 0.0286 0.5286  plane waves:     732
 k-point    78 :   0.5000 0.0357 0.5357  plane waves:     732
 k-point    79 :   0.5000 0.0429 0.5429  plane waves:     732
 k-point    80 :   0.5000 0.0500 0.5500  plane waves:     728
 k-point    81 :   0.5000 0.0571 0.5571  plane waves:     728
 k-point    82 :   0.5000 0.0643 0.5643  plane waves:     724
 k-point    83 :   0.5000 0.0714 0.5714  plane waves:     724
 k-point    84 :   0.5000 0.0786 0.5786  plane waves:     724
 k-point    85 :   0.5000 0.0857 0.5857  plane waves:     728
 k-point    86 :   0.5000 0.0929 0.5929  plane waves:     724
 k-point    87 :   0.5000 0.1000 0.6000  plane waves:     724
 k-point    88 :   0.5000 0.1071 0.6071  plane waves:     726
 k-point    89 :   0.5000 0.1143 0.6143  plane waves:     730
 k-point    90 :   0.5000 0.1214 0.6214  plane waves:     730
 k-point    91 :   0.5000 0.1286 0.6286  plane waves:     730
 k-point    92 :   0.5000 0.1357 0.6357  plane waves:     730
 k-point    93 :   0.5000 0.1429 0.6429  plane waves:     730
 k-point    94 :   0.5000 0.1500 0.6500  plane waves:     730
 k-point    95 :   0.5000 0.1571 0.6571  plane waves:     724
 k-point    96 :   0.5000 0.1643 0.6643  plane waves:     720
 k-point    97 :   0.5000 0.1714 0.6714  plane waves:     726
 k-point    98 :   0.5000 0.1786 0.6786  plane waves:     726
 k-point    99 :   0.5000 0.1857 0.6857  plane waves:     726
 k-point   100 :   0.5000 0.1929 0.6929  plane waves:     726
 k-point   101 :   0.5000 0.2000 0.7000  plane waves:     726
 k-point   102 :   0.5000 0.2071 0.7071  plane waves:     726
 k-point   103 :   0.5000 0.2143 0.7143  plane waves:     724
 k-point   104 :   0.5000 0.2214 0.7214  plane waves:     724
 k-point   105 :   0.5000 0.2286 0.7286  plane waves:     724
 k-point   106 :   0.5000 0.2357 0.7357  plane waves:     724
 k-point   107 :   0.5000 0.2429 0.7429  plane waves:     724
 k-point   108 :   0.5000 0.2500 0.7500  plane waves:     724
 k-point   109 :   0.5000 0.2500 0.7500  plane waves:     724
 k-point   110 :   0.4964 0.2536 0.7500  plane waves:     724
 k-point   111 :   0.4929 0.2571 0.7500  plane waves:     724
 k-point   112 :   0.4893 0.2607 0.7500  plane waves:     724
 k-point   113 :   0.4857 0.2643 0.7500  plane waves:     724
 k-point   114 :   0.4821 0.2679 0.7500  plane waves:     727
 k-point   115 :   0.4786 0.2714 0.7500  plane waves:     729
 k-point   116 :   0.4750 0.2750 0.7500  plane waves:     729
 k-point   117 :   0.4714 0.2786 0.7500  plane waves:     727
 k-point   118 :   0.4679 0.2821 0.7500  plane waves:     725
 k-point   119 :   0.4643 0.2857 0.7500  plane waves:     725
 k-point   120 :   0.4607 0.2893 0.7500  plane waves:     721
 k-point   121 :   0.4571 0.2929 0.7500  plane waves:     721
 k-point   122 :   0.4536 0.2964 0.7500  plane waves:     721
 k-point   123 :   0.4500 0.3000 0.7500  plane waves:     721
 k-point   124 :   0.4464 0.3036 0.7500  plane waves:     721
 k-point   125 :   0.4429 0.3071 0.7500  plane waves:     721
 k-point   126 :   0.4393 0.3107 0.7500  plane waves:     722
 k-point   127 :   0.4357 0.3143 0.7500  plane waves:     722
 k-point   128 :   0.4321 0.3179 0.7500  plane waves:     722
 k-point   129 :   0.4286 0.3214 0.7500  plane waves:     724
 k-point   130 :   0.4250 0.3250 0.7500  plane waves:     724
 k-point   131 :   0.4214 0.3286 0.7500  plane waves:     724
 k-point   132 :   0.4179 0.3321 0.7500  plane waves:     720
 k-point   133 :   0.4143 0.3357 0.7500  plane waves:     723
 k-point   134 :   0.4107 0.3393 0.7500  plane waves:     723
 k-point   135 :   0.4071 0.3429 0.7500  plane waves:     723
 k-point   136 :   0.4036 0.3464 0.7500  plane waves:     723
 k-point   137 :   0.4000 0.3500 0.7500  plane waves:     725
 k-point   138 :   0.3964 0.3536 0.7500  plane waves:     725
 k-point   139 :   0.3929 0.3571 0.7500  plane waves:     725
 k-point   140 :   0.3893 0.3607 0.7500  plane waves:     721
 k-point   141 :   0.3857 0.3643 0.7500  plane waves:     721
 k-point   142 :   0.3821 0.3679 0.7500  plane waves:     721
 k-point   143 :   0.3786 0.3714 0.7500  plane waves:     724
 k-point   144 :   0.3750 0.3750 0.7500  plane waves:     724
 k-point   145 :   0.3750 0.3750 0.7500  plane waves:     724
 k-point   146 :   0.3643 0.3643 0.7286  plane waves:     724
 k-point   147 :   0.3536 0.3536 0.7071  plane waves:     724
 k-point   148 :   0.3429 0.3429 0.6857  plane waves:     720
 k-point   149 :   0.3321 0.3321 0.6643  plane waves:     718
 k-point   150 :   0.3214 0.3214 0.6429  plane waves:     722
 k-point   151 :   0.3107 0.3107 0.6214  plane waves:     722
 k-point   152 :   0.3000 0.3000 0.6000  plane waves:     728
 k-point   153 :   0.2893 0.2893 0.5786  plane waves:     728
 k-point   154 :   0.2786 0.2786 0.5571  plane waves:     728
 k-point   155 :   0.2679 0.2679 0.5357  plane waves:     728
 k-point   156 :   0.2571 0.2571 0.5143  plane waves:     728
 k-point   157 :   0.2464 0.2464 0.4929  plane waves:     730
 k-point   158 :   0.2357 0.2357 0.4714  plane waves:     730
 k-point   159 :   0.2250 0.2250 0.4500  plane waves:     730
 k-point   160 :   0.2143 0.2143 0.4286  plane waves:     730
 k-point   161 :   0.2036 0.2036 0.4071  plane waves:     728
 k-point   162 :   0.1929 0.1929 0.3857  plane waves:     732
 k-point   163 :   0.1821 0.1821 0.3643  plane waves:     732
 k-point   164 :   0.1714 0.1714 0.3429  plane waves:     732
 k-point   165 :   0.1607 0.1607 0.3214  plane waves:     732
 k-point   166 :   0.1500 0.1500 0.3000  plane waves:     736
 k-point   167 :   0.1393 0.1393 0.2786  plane waves:     728
 k-point   168 :   0.1286 0.1286 0.2571  plane waves:     737
 k-point   169 :   0.1179 0.1179 0.2357  plane waves:     733
 k-point   170 :   0.1071 0.1071 0.2143  plane waves:     725
 k-point   171 :   0.0964 0.0964 0.1929  plane waves:     719
 k-point   172 :   0.0857 0.0857 0.1714  plane waves:     719
 k-point   173 :   0.0750 0.0750 0.1500  plane waves:     721
 k-point   174 :   0.0643 0.0643 0.1286  plane waves:     729
 k-point   175 :   0.0536 0.0536 0.1071  plane waves:     729
 k-point   176 :   0.0429 0.0429 0.0857  plane waves:     727
 k-point   177 :   0.0321 0.0321 0.0643  plane waves:     725
 k-point   178 :   0.0214 0.0214 0.0429  plane waves:     725
 k-point   179 :   0.0107 0.0107 0.0214  plane waves:     725
 k-point   180 :   0.0000 0.0000-0.0000  plane waves:     725

 maximum and minimum number of plane-waves per node :       193      170

 maximum number of plane-waves:       748
 maximum index in each direction: 
   IXMAX=    6   IYMAX=    6   IZMAX=    6
   IXMIN=   -6   IYMIN=   -6   IZMIN=   -6


 parallel 3D FFT for wavefunctions:
    minimum data exchange during FFTs selected (reduces bandwidth)
 parallel 3D FFT for charge:
    minimum data exchange during FFTs selected (reduces bandwidth)


 total amount of memory used by VASP MPI-rank0    43049. kBytes
=======================================================================

   base                                    :      30000. kBytes
   nonl-proj                               :       2183. kBytes
   fftplans                                :       1675. kBytes
   grid                                    :       2380. kBytes
   one-center                              :          3. kBytes
   wavefun                                 :       6808. kBytes
 
     INWAV:  cpu time      0.0000: real time      0.0001
 initial charge density was supplied:
 number of electron       8.0000001 magnetization 
 keeping initial charge density in first step


--------------------------------------------------------------------------------------------------------


 Maximum index for augmentation-charges         4527 (set IRDMAX)


--------------------------------------------------------------------------------------------------------


 First call to EWALD:  gamma=   0.518
 Maximum number of real-space cells   3x   3x   3
 Maximum number of reciprocal cells   3x   3x   3

    FEWALD:  cpu time      0.0006: real time      0.0006


--------------------------------------- Ionic step        1  -------------------------------------------




--------------------------------------- Iteration      1(   1)  ---------------------------------------


    POTLOK:  cpu time      0.0144: real time      0.0144
    SETDIJ:  cpu time      0.0011: real time      0.0011
     EDDAV:  cpu time      0.3674: real time      0.3674
       DOS:  cpu time      0.0010: real time      0.0010
    --------------------------------------------
      LOOP:  cpu time      0.3842: real time      0.3842

 eigenvalue-minimisations  :  4320
 total energy-change (2. order) : 0.5862066E+01  (-0.2740359E+03)
 number of electron       8.0000001 magnetization 
 augmentation part        8.0000001 magnetization 

 Free energy of the ion-electron system (eV)
  ---------------------------------------------------
  alpha Z        PSCENC =         3.36414203
  Ewald energy   TEWEN  =      -228.56352493
  -Hartree energ DENC   =       -14.93075029
  -exchange      EXHF   =         0.00000000
  -V(xc)+E(xc)   XCENC  =       -17.95976175
  PAW double counting   =        74.30595835      -39.34389256
  entropy T*S    EENTRO =        -0.00117749
  eigenvalues    EBANDS =        22.85958020
  atomic energy  EATOM  =       206.13149246
  Solvation  Ediel_sol  =         0.00000000
  ext. energy  EPLUGINS =         0.00000000
  ---------------------------------------------------
  free energy    TOTEN  =         5.86206602 eV

  energy without entropy =        5.86324350  energy(sigma->0) =        5.86265476


--------------------------------------------------------------------------------------------------------




--------------------------------------- Iteration      1(   2)  ---------------------------------------


     EDDAV:  cpu time      0.4381: real time      0.4382
       DOS:  cpu time      0.0006: real time      0.0006
    --------------------------------------------
      LOOP:  cpu time      0.4387: real time      0.4388

 eigenvalue-minimisations  :  5668
 total energy-change (2. order) :-0.1422216E+02  (-0.1332797E+02)
 number of electron       8.0000001 magnetization 
 augmentation part        8.0000001 magnetization 

 Free energy of the ion-electron system (eV)
  ---------------------------------------------------
  alpha Z        PSCENC =         3.36414203
  Ewald energy   TEWEN  =      -228.56352493
  -Hartree energ DENC   =       -14.93075029
  -exchange      EXHF   =         0.00000000
  -V(xc)+E(xc)   XCENC  =       -17.95976175
  PAW double counting   =        74.30595835      -39.34389256
  entropy T*S    EENTRO =        -0.00050884
  eigenvalues    EBANDS =         8.63674750
  atomic energy  EATOM  =       206.13149246
  Solvation  Ediel_sol  =         0.00000000
  ext. energy  EPLUGINS =         0.00000000
  ---------------------------------------------------
  free energy    TOTEN  =        -8.36009803 eV

  energy without entropy =       -8.35958919  energy(sigma->0) =       -8.35984361


--------------------------------------------------------------------------------------------------------




--------------------------------------- Iteration      1(   3)  ---------------------------------------


     EDDAV:  cpu time      0.4403: real time      0.4404
       DOS:  cpu time      0.0004: real time      0.0004
    --------------------------------------------
      LOOP:  cpu time      0.4407: real time      0.4407

 eigenvalue-minimisations  :  5672
 total energy-change (2. order) :-0.4856634E+00  (-0.4780386E+00)
 number of electron       8.0000001 magnetization 
 augmentation part        8.0000001 magnetization 

 Free energy of the ion-electron system (eV)
  ---------------------------------------------------
  alpha Z        PSCENC =         3.36414203
  Ewald energy   TEWEN  =      -228.56352493
  -Hartree energ DENC   =       -14.93075029
  -exchange      EXHF   =         0.00000000
  -V(xc)+E(xc)   XCENC  =       -17.95976175
  PAW double counting   =        74.30595835      -39.34389256
  entropy T*S    EENTRO =        -0.00000000
  eigenvalues    EBANDS =         8.15057529
  atomic energy  EATOM  =       206.13149246
  Solvation  Ediel_sol  =         0.00000000
  ext. energy  EPLUGINS =         0.00000000
  ---------------------------------------------------
  free energy    TOTEN  =        -8.84576141 eV

  energy without entropy =       -8.84576141  energy(sigma->0) =       -8.84576141


--------------------------------------------------------------------------------------------------------




--------------------------------------- Iteration      1(   4)  ---------------------------------------


     EDDAV:  cpu time      0.3996: real time      0.3997
       DOS:  cpu time      0.0004: real time      0.0004
    --------------------------------------------
      LOOP:  cpu time      0.4000: real time      0.4001

 eigenvalue-minimisations  :  5076
 total energy-change (2. order) :-0.3244584E-02  (-0.3244190E-02)
 number of electron       8.0000001 magnetization 
 augmentation part        8.0000001 magnetization 

 Free energy of the ion-electron system (eV)
  ---------------------------------------------------
  alpha Z        PSCENC =         3.36414203
  Ewald energy   TEWEN  =      -228.56352493
  -Hartree energ DENC   =       -14.93075029
  -exchange      EXHF   =         0.00000000
  -V(xc)+E(xc)   XCENC  =       -17.95976175
  PAW double counting   =        74.30595835      -39.34389256
  entropy T*S    EENTRO =        -0.00000000
  eigenvalues    EBANDS =         8.14733070
  atomic energy  EATOM  =       206.13149246
  Solvation  Ediel_sol  =         0.00000000
  ext. energy  EPLUGINS =         0.00000000
  ---------------------------------------------------
  free energy    TOTEN  =        -8.84900599 eV

  energy without entropy =       -8.84900599  energy(sigma->0) =       -8.84900599


--------------------------------------------------------------------------------------------------------




--------------------------------------- Iteration      1(   5)  ---------------------------------------


     EDDAV:  cpu time      0.4283: real time      0.4284
       DOS:  cpu time      0.0004: real time      0.0004
    --------------------------------------------
      LOOP:  cpu time      0.4287: real time      0.4288

 eigenvalue-minimisations  :  5604
 total energy-change (2. order) :-0.2855385E-04  (-0.2855322E-04)
 number of electron       8.0000001 magnetization 
 augmentation part        8.0000001 magnetization 

 Free energy of the ion-electron system (eV)
  ---------------------------------------------------
  alpha Z        PSCENC =         3.36414203
  Ewald energy   TEWEN  =      -228.56352493
  -Hartree energ DENC   =       -14.93075029
  -exchange      EXHF   =         0.00000000
  -V(xc)+E(xc)   XCENC  =       -17.95976175
  PAW double counting   =        74.30595835      -39.34389256
  entropy T*S    EENTRO =        -0.00000000
  eigenvalues    EBANDS =         8.14730215
  atomic energy  EATOM  =       206.13149246
  Solvation  Ediel_sol  =         0.00000000
  ext. energy  EPLUGINS =         0.00000000
  ---------------------------------------------------
  free energy    TOTEN  =        -8.84903455 eV

  energy without entropy =       -8.84903455  energy(sigma->0) =       -8.84903455


--------------------------------------------------------------------------------------------------------




--------------------------------------- Iteration      1(   6)  ---------------------------------------


    EDDIAG:  cpu time      0.0956: real time      0.0957
  RMM-DIIS:  cpu time      0.2488: real time      0.2488
    ORTHCH:  cpu time      0.0016: real time      0.0016
       DOS:  cpu time      0.0004: real time      0.0004
    --------------------------------------------
      LOOP:  cpu time      0.3465: real time      0.3466

 eigenvalue-minimisations  :  3677
 total energy-change (2. order) :-0.2871260E-06  (-0.2870271E-06)
 number of electron       8.0000001 magnetization 
 augmentation part        8.0000001 magnetization 

 Free energy of the ion-electron system (eV)
  ---------------------------------------------------
  alpha Z        PSCENC =         3.36414203
  Ewald energy   TEWEN  =      -228.56352493
  -Hartree energ DENC   =       -14.93075029
  -exchange      EXHF   =         0.00000000
  -V(xc)+E(xc)   XCENC  =       -17.95976175
  PAW double counting   =        74.30595835      -39.34389256
  entropy T*S    EENTRO =        -0.00000000
  eigenvalues    EBANDS =         8.14730186
  atomic energy  EATOM  =       206.13149246
  Solvation  Ediel_sol  =         0.00000000
  ext. energy  EPLUGINS =         0.00000000
  ---------------------------------------------------
  free energy    TOTEN  =        -8.84903483 eV

  energy without entropy =       -8.84903483  energy(sigma->0) =       -8.84903483


--------------------------------------------------------------------------------------------------------




 average (electrostatic) potential at core
  the test charge radii are     0.9892
  (the norm of the test charge is              1.0000)
       1 -83.2412       2 -83.2412
 
 
 
 E-fermi :   6.0468     XC(G=0):  -9.4097     alpha+bet :-11.9845

 val. band max:        5.8315437185   @ k =   0.0000   0.0000  -0.0000
 cond. band min:       6.4040468345   @ k =   0.4143   0.0000   0.4143
 fundamental gap:      0.5725031160
 Fermi energy:         6.0467587382

 k-point     1 :       0.5000    0.5000    0.5000
  band No.  band energies     occupation 
      1      -3.7966      2.00000
      2      -1.1364      2.00000
      3       4.6342      2.00000
      4       4.6342      2.00000
      5       7.3735      0.00000
      6       9.1720      0.00000
      7       9.1720      0.00000
      8      13.5616      0.00000
      9      16.3840      0.00000
     10      16.3843      0.00000
     11      17.1791      0.00000
     12      17.1918      0.00000

 k-point     2 :       0.4857    0.4857    0.4857
  band No.  band energies     occupation 
      1      -3.8083      2.00000
      2      -1.1196      2.00000
      3       4.6357      2.00000
      4       4.6357      2.00000
      5       7.3752      0.00000
      6       9.1737      0.00000
      7       9.1737      0.00000
      8      13.5643      0.00000
      9      16.2864      0.00000
     10      16.2867      0.00000
     11      17.1496      0.00000
     12      17.2828      0.00000

 k-point     3 :       0.4714    0.4714    0.4714
  band No.  band energies     occupation 
      1      -3.8426      2.00000
      2      -1.0702      2.00000
      3       4.6401      2.00000
      4       4.6401      2.00000
      5       7.3802      0.00000
      6       9.1788      0.00000
      7       9.1788      0.00000
      8      13.5721      0.00000
      9      16.0736      0.00000
     10      16.0737      0.00000
     11      17.0233      0.00000
     12      17.5135      0.00000

 k-point     4 :       0.4571    0.4571    0.4571
  band No.  band energies     occupation 
      1      -3.8971      2.00000
      2      -0.9905      2.00000
      3       4.6474      2.00000
      4       4.6474      2.00000
      5       7.3886      0.00000
      6       9.1870      0.00000
      7       9.1870      0.00000
      8      13.5850      0.00000
      9      15.8259      0.00000
     10      15.8259      0.00000
     11      16.8461      0.00000
     12      17.7918      0.00000

 k-point     5 :       0.4429    0.4429    0.4429
  band No.  band energies     occupation 
      1      -3.9684      2.00000
      2      -0.8840      2.00000
      3       4.6576      2.00000
      4       4.6576      2.00000
      5       7.4004      0.00000
      6       9.1984      0.00000
      7       9.1984      0.00000
      8      13.6024      0.00000
      9      15.5696      0.00000
     10      15.5696      0.00000
     11      16.6372      0.00000
     12      18.0906      0.00000

 k-point     6 :       0.4286    0.4286    0.4286
  band No.  band energies     occupation 
      1      -4.0528      2.00000
      2      -0.7542      2.00000
      3       4.6708      2.00000
      4       4.6708      2.00000
      5       7.4155      0.00000
      6       9.2126      0.00000
      7       9.2126      0.00000
      8      13.6239      0.00000
      9      15.3142      0.00000
     10      15.3142      0.00000
     11      16.4105      0.00000
     12      18.4006      0.00000

 k-point     7 :       0.4143    0.4143    0.4143
  band No.  band energies     occupation 
      1      -4.1471      2.00000
      2      -0.6046      2.00000
      3       4.6868      2.00000
      4       4.6868      2.00000
      5       7.4339      0.00000
      6       9.2293      0.00000
      7       9.2293      0.00000
      8      13.6485      0.00000
      9      15.0635      0.00000
     10      15.0635      0.00000
     11      16.1750      0.00000
     12      18.7167      0.00000

 k-point     8 :       0.4000    0.4000    0.4000
  band No.  band energies     occupation 
      1      -4.2483      2.00000
      2      -0.4382      2.00000
      3       4.7058      2.00000
      4       4.7058      2.00000
      5       7.4556      0.00000
      6       9.2478      0.00000
      7       9.2478      0.00000
      8      13.6747      0.00000
      9      14.8200      0.00000
     10      14.8200      0.00000
     11      15.9367      0.00000
     12      19.0373      0.00000

 k-point     9 :       0.3857    0.3857    0.3857
  band No.  band energies     occupation 
      1      -4.3539      2.00000
      2      -0.2574      2.00000
      3       4.7277      2.00000
      4       4.7277      2.00000
      5       7.4806      0.00000
      6       9.2678      0.00000
      7       9.2678      0.00000
      8      13.7003      0.00000
      9      14.5851      0.00000
     10      14.5851      0.00000
     11      15.7007      0.00000
     12      19.3570      0.00000

 k-point    10 :       0.3714    0.3714    0.3714
  band No.  band energies     occupation 
      1      -4.4620      2.00000
      2      -0.0643      2.00000
      3       4.7524      2.00000
      4       4.7524      2.00000
      5       7.5087      0.00000
      6       9.2883      0.00000
      7       9.2883      0.00000
      8      13.7218      0.00000
      9      14.3600      0.00000
     10      14.3600      0.00000
     11      15.4720      0.00000
     12      19.6815      0.00000

 k-point    11 :       0.3571    0.3571    0.3571
  band No.  band energies     occupation 
      1      -4.5710      2.00000
      2       0.1394      2.00000
      3       4.7800      2.00000
      4       4.7800      2.00000
      5       7.5399      0.00000
      6       9.3086      0.00000
      7       9.3086      0.00000
      8      13.7332      0.00000
      9      14.1462      0.00000
     10      14.1462      0.00000
     11      15.2574      0.00000
     12      19.8237      0.00000

 k-point    12 :       0.3429    0.3429    0.3429
  band No.  band energies     occupation 
      1      -4.6797      2.00000
      2       0.3525      2.00000
      3       4.8104      2.00000
      4       4.8104      2.00000
      5       7.5743      0.00000
      6       9.3278      0.00000
      7       9.3278      0.00000
      8      13.7258      0.00000
      9      13.9448      0.00000
     10      13.9448      0.00000
     11      15.0664      0.00000
     12      19.6275      0.00000

 k-point    13 :       0.3286    0.3286    0.3286
  band No.  band energies     occupation 
      1      -4.7872      2.00000
      2       0.5740      2.00000
      3       4.8436      2.00000
      4       4.8436      2.00000
      5       7.6117      0.00000
      6       9.3446      0.00000
      7       9.3446      0.00000
      8      13.6870      0.00000
      9      13.7570      0.00000
     10      13.7570      0.00000
     11      14.9113      0.00000
     12      19.3690      0.00000

 k-point    14 :       0.3143    0.3143    0.3143
  band No.  band energies     occupation 
      1      -4.8927      2.00000
      2       0.8029      2.00000
      3       4.8795      2.00000
      4       4.8795      2.00000
      5       7.6519      0.00000
      6       9.3579      0.00000
      7       9.3579      0.00000
      8      13.5842      0.00000
      9      13.5842      0.00000
     10      13.6046      0.00000
     11      14.8044      0.00000
     12      19.0786      0.00000

 k-point    15 :       0.3000    0.3000    0.3000
  band No.  band energies     occupation 
      1      -4.9956      2.00000
      2       1.0384      2.00000
      3       4.9180      2.00000
      4       4.9180      2.00000
      5       7.6950      0.00000
      6       9.3663      0.00000
      7       9.3663      0.00000
      8      13.4276      0.00000
      9      13.4276      0.00000
     10      13.4738      0.00000
     11      14.7498      0.00000
     12      18.7701      0.00000

 k-point    16 :       0.2857    0.2857    0.2857
  band No.  band energies     occupation 
      1      -5.0954      2.00000
      2       1.2800      2.00000
      3       4.9592      2.00000
      4       4.9592      2.00000
      5       7.7406      0.00000
      6       9.3686      0.00000
      7       9.3686      0.00000
      8      13.2890      0.00000
      9      13.2890      0.00000
     10      13.3010      0.00000
     11      14.7401      0.00000
     12      18.4539      0.00000

 k-point    17 :       0.2714    0.2714    0.2714
  band No.  band energies     occupation 
      1      -5.1917      2.00000
      2       1.5270      2.00000
      3       5.0028      2.00000
      4       5.0028      2.00000
      5       7.7886      0.00000
      6       9.3633      0.00000
      7       9.3633      0.00000
      8      13.0981      0.00000
      9      13.1694      0.00000
     10      13.1694      0.00000
     11      14.7623      0.00000
     12      18.1383      0.00000

 k-point    18 :       0.2571    0.2571    0.2571
  band No.  band energies     occupation 
      1      -5.2842      2.00000
      2       1.7789      2.00000
      3       5.0488      2.00000
      4       5.0488      2.00000
      5       7.8389      0.00000
      6       9.3495      0.00000
      7       9.3495      0.00000
      8      12.8752      0.00000
      9      13.0699      0.00000
     10      13.0699      0.00000
     11      14.8044      0.00000
     12      17.8292      0.00000

 k-point    19 :       0.2429    0.2429    0.2429
  band No.  band energies     occupation 
      1      -5.3726      2.00000
      2       2.0352      2.00000
      3       5.0970      2.00000
      4       5.0970      2.00000
      5       7.8911      0.00000
      6       9.3261      0.00000
      7       9.3261      0.00000
      8      12.6395      0.00000
      9      12.9913      0.00000
     10      12.9913      0.00000
     11      14.8564      0.00000
     12      17.5330      0.00000

 k-point    20 :       0.2286    0.2286    0.2286
  band No.  band energies     occupation 
      1      -5.4567      2.00000
      2       2.2954      2.00000
      3       5.1472      2.00000
      4       5.1472      2.00000
      5       7.9450      0.00000
      6       9.2928      0.00000
      7       9.2928      0.00000
      8      12.3953      0.00000
      9      12.9341      0.00000
     10      12.9341      0.00000
     11      14.9099      0.00000
     12      17.2557      0.00000

 k-point    21 :       0.2143    0.2143    0.2143
  band No.  band energies     occupation 
      1      -5.5363      2.00000
      2       2.5588      2.00000
      3       5.1993      2.00000
      4       5.1993      2.00000
      5       8.0002      0.00000
      6       9.2496      0.00000
      7       9.2496      0.00000
      8      12.1456      0.00000
      9      12.8981      0.00000
     10      12.8981      0.00000
     11      14.9562      0.00000
     12      17.0052      0.00000

 k-point    22 :       0.2000    0.2000    0.2000
  band No.  band energies     occupation 
      1      -5.6113      2.00000
      2       2.8250      2.00000
      3       5.2528      2.00000
      4       5.2528      2.00000
      5       8.0563      0.00000
      6       9.1970      0.00000
      7       9.1970      0.00000
      8      11.8922      0.00000
      9      12.8827      0.00000
     10      12.8827      0.00000
     11      14.9850      0.00000
     12      16.7908      0.00000

 k-point    23 :       0.1857    0.1857    0.1857
  band No.  band energies     occupation 
      1      -5.6815      2.00000
      2       3.0932      2.00000
      3       5.3076      2.00000
      4       5.3076      2.00000
      5       8.1126      0.00000
      6       9.1361      0.00000
      7       9.1361      0.00000
      8      11.6364      0.00000
      9      12.8863      0.00000
     10      12.8863      0.00000
     11      14.9848      0.00000
     12      16.6242      0.00000

 k-point    24 :       0.1714    0.1714    0.1714
  band No.  band energies     occupation 
      1      -5.7469      2.00000
      2       3.3626      2.00000
      3       5.3631      2.00000
      4       5.3631      2.00000
      5       8.1686      0.00000
      6       9.0682      0.00000
      7       9.0682      0.00000
      8      11.3794      0.00000
      9      12.9076      0.00000
     10      12.9076      0.00000
     11      14.9457      0.00000
     12      16.5152      0.00000

 k-point    25 :       0.1571    0.1571    0.1571
  band No.  band energies     occupation 
      1      -5.8073      2.00000
      2       3.6324      2.00000
      3       5.4190      2.00000
      4       5.4190      2.00000
      5       8.2235      0.00000
      6       8.9950      0.00000
      7       8.9950      0.00000
      8      11.1224      0.00000
      9      12.9444      0.00000
     10      12.9444      0.00000
     11      14.8652      0.00000
     12      16.4662      0.00000

 k-point    26 :       0.1429    0.1429    0.1429
  band No.  band energies     occupation 
      1      -5.8627      2.00000
      2       3.9015      2.00000
      3       5.4746      2.00000
      4       5.4746      2.00000
      5       8.2764      0.00000
      6       8.9186      0.00000
      7       8.9186      0.00000
      8      10.8669      0.00000
      9      12.9944      0.00000
     10      12.9944      0.00000
     11      14.7507      0.00000
     12      16.4697      0.00000

 k-point    27 :       0.1286    0.1286    0.1286
  band No.  band energies     occupation 
      1      -5.9129      2.00000
      2       4.1684      2.00000
      3       5.5294      2.00000
      4       5.5294      2.00000
      5       8.3260      0.00000
      6       8.8407      0.00000
      7       8.8407      0.00000
      8      10.6145      0.00000
      9      13.0549      0.00000
     10      13.0549      0.00000
     11      14.6154      0.00000
     12      16.5119      0.00000

 k-point    28 :       0.1143    0.1143    0.1143
  band No.  band energies     occupation 
      1      -5.9581      2.00000
      2       4.4312      2.00000
      3       5.5826      2.00000
      4       5.5826      2.00000
      5       8.3710      0.00000
      6       8.7635      0.00000
      7       8.7635      0.00000
      8      10.3678      0.00000
      9      13.1233      0.00000
     10      13.1233      0.00000
     11      14.4722      0.00000
     12      16.5795      0.00000

 k-point    29 :       0.1000    0.1000    0.1000
  band No.  band energies     occupation 
      1      -5.9979      2.00000
      2       4.6876      2.00000
      3       5.6333      2.00000
      4       5.6333      2.00000
      5       8.4094      0.00000
      6       8.6891      0.00000
      7       8.6891      0.00000
      8      10.1301      0.00000
      9      13.1967      0.00000
     10      13.1967      0.00000
     11      14.3311      0.00000
     12      16.6614      0.00000

 k-point    30 :       0.0857    0.0857    0.0857
  band No.  band energies     occupation 
      1      -6.0326      2.00000
      2       4.9342      2.00000
      3       5.6805      2.00000
      4       5.6805      2.00000
      5       8.4390      0.00000
      6       8.6194      0.00000
      7       8.6194      0.00000
      8       9.9059      0.00000
      9      13.2717      0.00000
     10      13.2717      0.00000
     11      14.1990      0.00000
     12      16.7513      0.00000

 k-point    31 :       0.0714    0.0714    0.0714
  band No.  band energies     occupation 
      1      -6.0620      2.00000
      2       5.1666      2.00000
      3       5.7232      2.00000
      4       5.7232      2.00000
      5       8.4570      0.00000
      6       8.5562      0.00000
      7       8.5562      0.00000
      8       9.7016      0.00000
      9      13.3448      0.00000
     10      13.3448      0.00000
     11      14.0809      0.00000
     12      16.8369      0.00000

 k-point    32 :       0.0571    0.0571    0.0571
  band No.  band energies     occupation 
      1      -6.0861      2.00000
      2       5.3786      2.00000
      3       5.7603      2.00000
      4       5.7603      2.00000
      5       8.4608      0.00000
      6       8.5016      0.00000
      7       8.5016      0.00000
      8       9.5251      0.00000
      9      13.4123      0.00000
     10      13.4123      0.00000
     11      13.9803      0.00000
     12      16.9180      0.00000

 k-point    33 :       0.0429    0.0429    0.0429
  band No.  band energies     occupation 
      1      -6.1048      2.00000
      2       5.5619      2.00000
      3       5.7905      2.00000
      4       5.7905      2.00000
      5       8.4498      0.00000
      6       8.4570      0.00000
      7       8.4570      0.00000
      8       9.3845      0.00000
      9      13.4703      0.00000
     10      13.4703      0.00000
     11      13.8996      0.00000
     12      16.9895      0.00000

 k-point    34 :       0.0286    0.0286    0.0286
  band No.  band energies     occupation 
      1      -6.1182      2.00000
      2       5.7060      2.00000
      3       5.8130      2.00000
      4       5.8130      2.00000
      5       8.4241      0.00000
      6       8.4241      0.00000
      7       8.4279      0.00000
      8       9.2854      0.00000
      9      13.5150      0.00000
     10      13.5150      0.00000
     11      13.8408      0.00000
     12      17.0452      0.00000

 k-point    35 :       0.0143    0.0143    0.0143
  band No.  band energies     occupation 
      1      -6.1262      2.00000
      2       5.7992      2.00000
      3       5.8269      2.00000
      4       5.8269      2.00000
      5       8.4038      0.00000
      6       8.4038      0.00000
      7       8.4061      0.00000
      8       9.2282      0.00000
      9      13.5434      0.00000
     10      13.5434      0.00000
     11      13.8050      0.00000
     12      17.0974      0.00000

 k-point    36 :       0.0000    0.0000    0.0000
  band No.  band energies     occupation 
      1      -6.1289      2.00000
      2       5.8315      2.00000
      3       5.8315      2.00000
      4       5.8315      2.00000
      5       8.3969      0.00000
      6       8.3969      0.00000
      7       8.3969      0.00000
      8       9.2098      0.00000
      9      13.5531      0.00000
     10      13.5531      0.00000
     11      13.7930      0.00000
     12      17.0859      0.00000

 k-point    37 :       0.0000    0.0000    0.0000
  band No.  band energies     occupation 
      1      -6.1289      2.00000
      2       5.8315      2.00000
      3       5.8315      2.00000
      4       5.8315      2.00000
      5       8.3969      0.00000
      6       8.3969      0.00000
      7       8.3969      0.00000
      8       9.2098      0.00000
      9      13.5531      0.00000
     10      13.5531      0.00000
     11      13.7930      0.00000
     12      17.0859      0.00000

 k-point    38 :       0.0143    0.0000    0.0143
  band No.  band energies     occupation 
      1      -6.1254      2.00000
      2       5.8069      2.00000
      3       5.8160      2.00000
      4       5.8160      2.00000
      5       8.3880      0.00000
      6       8.4169      0.00000
      7       8.4169      0.00000
      8       9.2339      0.00000
      9      13.5233      0.00000
     10      13.5570      0.00000
     11      13.8090      0.00000
     12      17.0922      0.00000

 k-point    39 :       0.0286    0.0000    0.0286
  band No.  band energies     occupation 
      1      -6.1146      2.00000
      2       5.7353      2.00000
      3       5.7707      2.00000
      4       5.7707      2.00000
      5       8.3616      0.00000
      6       8.4754      0.00000
      7       8.4754      0.00000
      8       9.3039      0.00000
      9      13.4376      0.00000
     10      13.5689      0.00000
     11      13.8567      0.00000
     12      17.1110      0.00000

 k-point    40 :       0.0429    0.0000    0.0429
  band No.  band energies     occupation 
      1      -6.0968      2.00000
      2       5.6222      2.00000
      3       5.6996      2.00000
      4       5.6996      2.00000
      5       8.3186      0.00000
      6       8.5685      0.00000
      7       8.5685      0.00000
      8       9.4129      0.00000
      9      13.3050      0.00000
     10      13.5887      0.00000
     11      13.9349      0.00000
     12      17.1422      0.00000

 k-point    41 :       0.0571    0.0000    0.0571
  band No.  band energies     occupation 
      1      -6.0718      2.00000
      2       5.4749      2.00000
      3       5.6077      2.00000
      4       5.6077      2.00000
      5       8.2608      0.00000
      6       8.6911      0.00000
      7       8.6911      0.00000
      8       9.5519      0.00000
      9      13.1380      0.00000
     10      13.6163      0.00000
     11      14.0421      0.00000
     12      17.1864      0.00000

 k-point    42 :       0.0714    0.0000    0.0714
  band No.  band energies     occupation 
      1      -6.0396      2.00000
      2       5.3007      2.00000
      3       5.5002      2.00000
      4       5.5002      2.00000
      5       8.1900      0.00000
      6       8.8381      0.00000
      7       8.8381      0.00000
      8       9.7101      0.00000
      9      12.9504      0.00000
     10      13.6519      0.00000
     11      14.1762      0.00000
     12      17.2421      0.00000

 k-point    43 :       0.0857    0.0000    0.0857
  band No.  band energies     occupation 
      1      -6.0003      2.00000
      2       5.1057      2.00000
      3       5.3815      2.00000
      4       5.3815      2.00000
      5       8.1083      0.00000
      6       9.0048      0.00000
      7       9.0048      0.00000
      8       9.8756      0.00000
      9      12.7568      0.00000
     10      13.6954      0.00000
     11      14.3350      0.00000
     12      17.3110      0.00000

 k-point    44 :       0.1000    0.0000    0.1000
  band No.  band energies     occupation 
      1      -5.9540      2.00000
      2       4.8952      2.00000
      3       5.2554      2.00000
      4       5.2554      2.00000
      5       8.0179      0.00000
      6       9.1877      0.00000
      7       9.1877      0.00000
      8      10.0344      0.00000
      9      12.5737      0.00000
     10      13.7471      0.00000
     11      14.5162      0.00000
     12      17.3894      0.00000

 k-point    45 :       0.1143    0.0000    0.1143
  band No.  band energies     occupation 
      1      -5.9006      2.00000
      2       4.6728      2.00000
      3       5.1249      2.00000
      4       5.1249      2.00000
      5       7.9210      0.00000
      6       9.3834      0.00000
      7       9.3834      0.00000
      8      10.1682      0.00000
      9      12.4210      0.00000
     10      13.8064      0.00000
     11      14.7176      0.00000
     12      17.4816      0.00000

 k-point    46 :       0.1286    0.0000    0.1286
  band No.  band energies     occupation 
      1      -5.8401      2.00000
      2       4.4416      2.00000
      3       4.9922      2.00000
      4       4.9922      2.00000
      5       7.8193      0.00000
      6       9.5897      0.00000
      7       9.5897      0.00000
      8      10.2547      0.00000
      9      12.3228      0.00000
     10      13.8736      0.00000
     11      14.9371      0.00000
     12      17.5858      0.00000

 k-point    47 :       0.1429    0.0000    0.1429
  band No.  band energies     occupation 
      1      -5.7726      2.00000
      2       4.2036      2.00000
      3       4.8590      2.00000
      4       4.8590      2.00000
      5       7.7147      0.00000
      6       9.8048      0.00000
      7       9.8048      0.00000
      8      10.2727      0.00000
      9      12.3009      0.00000
     10      13.9487      0.00000
     11      15.1725      0.00000
     12      17.7018      0.00000

 k-point    48 :       0.1571    0.0000    0.1571
  band No.  band energies     occupation 
      1      -5.6981      2.00000
      2       3.9605      2.00000
      3       4.7267      2.00000
      4       4.7267      2.00000
      5       7.6087      0.00000
      6      10.0271      0.00000
      7      10.0271      0.00000
      8      10.2143      0.00000
      9      12.3648      0.00000
     10      14.0317      0.00000
     11      15.4221      0.00000
     12      17.8293      0.00000

 k-point    49 :       0.1714    0.0000    0.1714
  band No.  band energies     occupation 
      1      -5.6167      2.00000
      2       3.7135      2.00000
      3       4.5963      2.00000
      4       4.5963      2.00000
      5       7.5026      0.00000
      6      10.0903      0.00000
      7      10.2559      0.00000
      8      10.2559      0.00000
      9      12.5042      0.00000
     10      14.1228      0.00000
     11      15.6842      0.00000
     12      17.9653      0.00000

 k-point    50 :       0.1857    0.0000    0.1857
  band No.  band energies     occupation 
      1      -5.5283      2.00000
      2       3.4635      2.00000
      3       4.4687      2.00000
      4       4.4687      2.00000
      5       7.3976      0.00000
      6       9.9204      0.00000
      7      10.4896      0.00000
      8      10.4896      0.00000
      9      12.6995      0.00000
     10      14.2215      0.00000
     11      15.9571      0.00000
     12      18.1125      0.00000

 k-point    51 :       0.2000    0.0000    0.2000
  band No.  band energies     occupation 
      1      -5.4331      2.00000
      2       3.2112      2.00000
      3       4.3444      2.00000
      4       4.3444      2.00000
      5       7.2947      0.00000
      6       9.7231      0.00000
      7      10.7281      0.00000
      8      10.7281      0.00000
      9      12.9331      0.00000
     10      14.3281      0.00000
     11      16.2390      0.00000
     12      18.2680      0.00000

 k-point    52 :       0.2143    0.0000    0.2143
  band No.  band energies     occupation 
      1      -5.3311      2.00000
      2       2.9572      2.00000
      3       4.2241      2.00000
      4       4.2241      2.00000
      5       7.1948      0.00000
      6       9.5113      0.00000
      7      10.9705      0.00000
      8      10.9705      0.00000
      9      13.1924      0.00000
     10      14.4425      0.00000
     11      16.5285      0.00000
     12      18.4304      0.00000

 k-point    53 :       0.2286    0.0000    0.2286
  band No.  band energies     occupation 
      1      -5.2223      2.00000
      2       2.7020      2.00000
      3       4.1081      2.00000
      4       4.1081      2.00000
      5       7.0987      0.00000
      6       9.2931      0.00000
      7      11.2164      0.00000
      8      11.2164      0.00000
      9      13.4690      0.00000
     10      14.5648      0.00000
     11      16.8238      0.00000
     12      18.6019      0.00000

 k-point    54 :       0.2429    0.0000    0.2429
  band No.  band energies     occupation 
      1      -5.1068      2.00000
      2       2.4458      2.00000
      3       3.9968      2.00000
      4       3.9968      2.00000
      5       7.0068      0.00000
      6       9.0741      0.00000
      7      11.4654      0.00000
      8      11.4654      0.00000
      9      13.7574      0.00000
     10      14.6948      0.00000
     11      17.1230      0.00000
     12      18.7659      0.00000

 k-point    55 :       0.2571    0.0000    0.2571
  band No.  band energies     occupation 
      1      -4.9846      2.00000
      2       2.1892      2.00000
      3       3.8904      2.00000
      4       3.8904      2.00000
      5       6.9200      0.00000
      6       8.8578      0.00000
      7      11.7172      0.00000
      8      11.7172      0.00000
      9      14.0539      0.00000
     10      14.8327      0.00000
     11      17.4241      0.00000
     12      18.9335      0.00000

 k-point    56 :       0.2714    0.0000    0.2714
  band No.  band energies     occupation 
      1      -4.8559      2.00000
      2       1.9323      2.00000
      3       3.7893      2.00000
      4       3.7893      2.00000
      5       6.8388      0.00000
      6       8.6468      0.00000
      7      11.9716      0.00000
      8      11.9716      0.00000
      9      14.3559      0.00000
     10      14.9784      0.00000
     11      17.7246      0.00000
     12      19.0848      0.00000

 k-point    57 :       0.2857    0.0000    0.2857
  band No.  band energies     occupation 
      1      -4.7206      2.00000
      2       1.6755      2.00000
      3       3.6936      2.00000
      4       3.6936      2.00000
      5       6.7633      0.00000
      6       8.4425      0.00000
      7      12.2282      0.00000
      8      12.2282      0.00000
      9      14.6614      0.00000
     10      15.1320      0.00000
     11      18.0215      0.00000
     12      19.2172      0.00000

 k-point    58 :       0.3000    0.0000    0.3000
  band No.  band energies     occupation 
      1      -4.5790      2.00000
      2       1.4191      2.00000
      3       3.6034      2.00000
      4       3.6034      2.00000
      5       6.6942      0.00000
      6       8.2462      0.00000
      7      12.4870      0.00000
      8      12.4870      0.00000
      9      14.9687      0.00000
     10      15.2933      0.00000
     11      18.3111      0.00000
     12      19.3141      0.00000

 k-point    59 :       0.3143    0.0000    0.3143
  band No.  band energies     occupation 
      1      -4.4309      2.00000
      2       1.1633      2.00000
      3       3.5190      2.00000
      4       3.5190      2.00000
      5       6.6317      0.00000
      6       8.0588      0.00000
      7      12.7478      0.00000
      8      12.7478      0.00000
      9      15.2768      0.00000
     10      15.4624      0.00000
     11      18.5894      0.00000
     12      19.3596      0.00000

 k-point    60 :       0.3286    0.0000    0.3286
  band No.  band energies     occupation 
      1      -4.2767      2.00000
      2       0.9083      2.00000
      3       3.4404      2.00000
      4       3.4404      2.00000
      5       6.5762      0.00000
      6       7.8808      0.00000
      7      13.0104      0.00000
      8      13.0105      0.00000
      9      15.5843      0.00000
     10      15.6393      0.00000
     11      18.8576      0.00000
     12      19.3406      0.00000

 k-point    61 :       0.3429    0.0000    0.3429
  band No.  band energies     occupation 
      1      -4.1163      2.00000
      2       0.6545      2.00000
      3       3.3678      2.00000
      4       3.3678      2.00000
      5       6.5279      0.00000
      6       7.7126      0.00000
      7      13.2749      0.00000
      8      13.2749      0.00000
      9      15.8239      0.00000
     10      15.8902      0.00000
     11      19.1125      0.00000
     12      19.2525      0.00000

 k-point    62 :       0.3571    0.0000    0.3571
  band No.  band energies     occupation 
      1      -3.9499      2.00000
      2       0.4022      2.00000
      3       3.3013      2.00000
      4       3.3013      2.00000
      5       6.4872      0.00000
      6       7.5545      0.00000
      7      13.5410      0.00000
      8      13.5410      0.00000
      9      16.0162      0.00000
     10      16.1939      0.00000
     11      19.1036      0.00000
     12      19.1246      0.00000

 k-point    63 :       0.3714    0.0000    0.3714
  band No.  band energies     occupation 
      1      -3.7775      2.00000
      2       0.1515      2.00000
      3       3.2408      2.00000
      4       3.2408      2.00000
      5       6.4542      0.00000
      6       7.4066      0.00000
      7      13.8086      0.00000
      8      13.8086      0.00000
      9      16.2162      0.00000
     10      16.4942      0.00000
     11      18.9070      0.00000
     12      18.9332      0.00000

 k-point    64 :       0.3857    0.0000    0.3857
  band No.  band energies     occupation 
      1      -3.5993      2.00000
      2      -0.0972      2.00000
      3       3.1866      2.00000
      4       3.1866      2.00000
      5       6.4292      0.00000
      6       7.2692      0.00000
      7      14.0775      0.00000
      8      14.0775      0.00000
      9      16.4239      0.00000
     10      16.7907      0.00000
     11      18.6777      0.00000
     12      18.7138      0.00000

 k-point    65 :       0.4000    0.0000    0.4000
  band No.  band energies     occupation 
      1      -3.4155      2.00000
      2      -0.3436      2.00000
      3       3.1387      2.00000
      4       3.1387      2.00000
      5       6.4124      0.00000
      6       7.1422      0.00000
      7      14.3473      0.00000
      8      14.3474      0.00000
      9      16.6387      0.00000
     10      17.0823      0.00000
     11      18.4265      0.00000
     12      18.4316      0.00000

 k-point    66 :       0.4143    0.0000    0.4143
  band No.  band energies     occupation 
      1      -3.2262      2.00000
      2      -0.5875      2.00000
      3       3.0970      2.00000
      4       3.0970      2.00000
      5       6.4040      0.00000
      6       7.0257      0.00000
      7      14.6179      0.00000
      8      14.6179      0.00000
      9      16.8616      0.00000
     10      17.3682      0.00000
     11      18.1623      0.00000
     12      18.1623      0.00000

 k-point    67 :       0.4286    0.0000    0.4286
  band No.  band energies     occupation 
      1      -3.0314      2.00000
      2      -0.8286      2.00000
      3       3.0617      2.00000
      4       3.0617      2.00000
      5       6.4043      0.00000
      6       6.9196      0.00000
      7      14.8877      0.00000
      8      14.8877      0.00000
      9      17.0924      0.00000
     10      17.6478      0.00000
     11      17.8923      0.00000
     12      17.8956      0.00000

 k-point    68 :       0.4429    0.0000    0.4429
  band No.  band energies     occupation 
      1      -2.8315      2.00000
      2      -1.0666      2.00000
      3       3.0327      2.00000
      4       3.0327      2.00000
      5       6.4134      0.00000
      6       6.8237      0.00000
      7      15.1550      0.00000
      8      15.1550      0.00000
      9      17.3304      0.00000
     10      17.6188      0.00000
     11      17.6189      0.00000
     12      17.9195      0.00000

 k-point    69 :       0.4571    0.0000    0.4571
  band No.  band energies     occupation 
      1      -2.6265      2.00000
      2      -1.3013      2.00000
      3       3.0102      2.00000
      4       3.0102      2.00000
      5       6.4313      0.00000
      6       6.7380      0.00000
      7      15.4159      0.00000
      8      15.4159      0.00000
      9      17.3523      0.00000
     10      17.3523      0.00000
     11      17.5760      0.00000
     12      18.1822      0.00000

 k-point    70 :       0.4714    0.0000    0.4714
  band No.  band energies     occupation 
      1      -2.4166      2.00000
      2      -1.5324      2.00000
      3       2.9940      2.00000
      4       2.9940      2.00000
      5       6.4585      0.00000
      6       6.6625      0.00000
      7      15.6608      0.00000
      8      15.6608      0.00000
      9      17.1024      0.00000
     10      17.1024      0.00000
     11      17.8292      0.00000
     12      18.4347      0.00000

 k-point    71 :       0.4857    0.0000    0.4857
  band No.  band energies     occupation 
      1      -2.2021      2.00000
      2      -1.7598      2.00000
      3       2.9844      2.00000
      4       2.9844      2.00000
      5       6.4951      0.00000
      6       6.5969      0.00000
      7      15.8625      0.00000
      8      15.8625      0.00000
      9      16.8973      0.00000
     10      16.8974      0.00000
     11      18.0906      0.00000
     12      18.6380      0.00000

 k-point    72 :       0.5000    0.0000    0.5000
  band No.  band energies     occupation 
      1      -1.9830      2.00000
      2      -1.9830      2.00000
      3       2.9811      2.00000
      4       2.9811      2.00000
      5       6.5412      0.00000
      6       6.5412      0.00000
      7      15.9508      0.00000
      8      15.9508      0.00000
      9      16.8078      0.00000
     10      16.8078      0.00000
     11      18.3583      0.00000
     12      18.3583      0.00000

 k-point    73 :       0.5000    0.0000    0.5000
  band No.  band energies     occupation 
      1      -1.9830      2.00000
      2      -1.9830      2.00000
      3       2.9811      2.00000
      4       2.9811      2.00000
      5       6.5412      0.00000
      6       6.5412      0.00000
      7      15.9508      0.00000
      8      15.9508      0.00000
      9      16.8078      0.00000
     10      16.8078      0.00000
     11      18.3587      0.00000
     12      18.3984      0.00000

 k-point    74 :       0.5000    0.0071    0.5071
  band No.  band energies     occupation 
      1      -1.9827      2.00000
      2      -1.9827      2.00000
      3       2.9784      2.00000
      4       2.9784      2.00000
      5       6.5462      0.00000
      6       6.5462      0.00000
      7      15.9428      0.00000
      8      15.9429      0.00000
      9      16.7951      0.00000
     10      16.7951      0.00000
     11      18.3692      0.00000
     12      18.3708      0.00000

 k-point    75 :       0.5000    0.0143    0.5143
  band No.  band energies     occupation 
      1      -1.9818      2.00000
      2      -1.9818      2.00000
      3       2.9702      2.00000
      4       2.9702      2.00000
      5       6.5611      0.00000
      6       6.5611      0.00000
      7      15.9183      0.00000
      8      15.9183      0.00000
      9      16.7599      0.00000
     10      16.7600      0.00000
     11      18.3985      0.00000
     12      18.4019      0.00000

 k-point    76 :       0.5000    0.0214    0.5214
  band No.  band energies     occupation 
      1      -1.9804      2.00000
      2      -1.9804      2.00000
      3       2.9567      2.00000
      4       2.9567      2.00000
      5       6.5860      0.00000
      6       6.5860      0.00000
      7      15.8753      0.00000
      8      15.8753      0.00000
      9      16.7101      0.00000
     10      16.7101      0.00000
     11      18.4377      0.00000
     12      18.4393      0.00000

 k-point    77 :       0.5000    0.0286    0.5286
  band No.  band energies     occupation 
      1      -1.9783      2.00000
      2      -1.9783      2.00000
      3       2.9383      2.00000
      4       2.9383      2.00000
      5       6.6202      0.00000
      6       6.6202      0.00000
      7      15.8119      0.00000
      8      15.8119      0.00000
      9      16.6550      0.00000
     10      16.6550      0.00000
     11      18.4772      0.00000
     12      18.4795      0.00000

 k-point    78 :       0.5000    0.0357    0.5357
  band No.  band energies     occupation 
      1      -1.9756      2.00000
      2      -1.9756      2.00000
      3       2.9151      2.00000
      4       2.9151      2.00000
      5       6.6636      0.00000
      6       6.6636      0.00000
      7      15.7267      0.00000
      8      15.7268      0.00000
      9      16.6024      0.00000
     10      16.6024      0.00000
     11      18.5116      0.00000
     12      18.5145      0.00000

 k-point    79 :       0.5000    0.0429    0.5429
  band No.  band energies     occupation 
      1      -1.9724      2.00000
      2      -1.9724      2.00000
      3       2.8877      2.00000
      4       2.8877      2.00000
      5       6.7158      0.00000
      6       6.7158      0.00000
      7      15.6202      0.00000
      8      15.6202      0.00000
      9      16.5570      0.00000
     10      16.5570      0.00000
     11      18.5400      0.00000
     12      18.5438      0.00000

 k-point    80 :       0.5000    0.0500    0.5500
  band No.  band energies     occupation 
      1      -1.9687      2.00000
      2      -1.9687      2.00000
      3       2.8564      2.00000
      4       2.8564      2.00000
      5       6.7764      0.00000
      6       6.7764      0.00000
      7      15.4946      0.00000
      8      15.4946      0.00000
      9      16.5204      0.00000
     10      16.5204      0.00000
     11      18.5632      0.00000
     12      18.5635      0.00000

 k-point    81 :       0.5000    0.0571    0.5571
  band No.  band energies     occupation 
      1      -1.9644      2.00000
      2      -1.9644      2.00000
      3       2.8218      2.00000
      4       2.8218      2.00000
      5       6.8448      0.00000
      6       6.8448      0.00000
      7      15.3532      0.00000
      8      15.3532      0.00000
      9      16.4920      0.00000
     10      16.4920      0.00000
     11      18.5826      0.00000
     12      18.5828      0.00000

 k-point    82 :       0.5000    0.0643    0.5643
  band No.  band energies     occupation 
      1      -1.9597      2.00000
      2      -1.9597      2.00000
      3       2.7844      2.00000
      4       2.7844      2.00000
      5       6.9207      0.00000
      6       6.9207      0.00000
      7      15.1994      0.00000
      8      15.1994      0.00000
      9      16.4705      0.00000
     10      16.4705      0.00000
     11      18.5996      0.00000
     12      18.6000      0.00000

 k-point    83 :       0.5000    0.0714    0.5714
  band No.  band energies     occupation 
      1      -1.9545      2.00000
      2      -1.9545      2.00000
      3       2.7447      2.00000
      4       2.7447      2.00000
      5       7.0035      0.00000
      6       7.0035      0.00000
      7      15.0363      0.00000
      8      15.0363      0.00000
      9      16.4543      0.00000
     10      16.4543      0.00000
     11      18.6150      0.00000
     12      18.6152      0.00000

 k-point    84 :       0.5000    0.0786    0.5786
  band No.  band energies     occupation 
      1      -1.9488      2.00000
      2      -1.9488      2.00000
      3       2.7031      2.00000
      4       2.7031      2.00000
      5       7.0927      0.00000
      6       7.0927      0.00000
      7      14.8662      0.00000
      8      14.8662      0.00000
      9      16.4421      0.00000
     10      16.4421      0.00000
     11      18.6295      0.00000
     12      18.6301      0.00000

 k-point    85 :       0.5000    0.0857    0.5857
  band No.  band energies     occupation 
      1      -1.9429      2.00000
      2      -1.9429      2.00000
      3       2.6601      2.00000
      4       2.6601      2.00000
      5       7.1879      0.00000
      6       7.1879      0.00000
      7      14.6908      0.00000
      8      14.6909      0.00000
      9      16.4328      0.00000
     10      16.4328      0.00000
     11      18.6433      0.00000
     12      18.6445      0.00000

 k-point    86 :       0.5000    0.0929    0.5929
  band No.  band energies     occupation 
      1      -1.9365      2.00000
      2      -1.9365      2.00000
      3       2.6161      2.00000
      4       2.6161      2.00000
      5       7.2888      0.00000
      6       7.2888      0.00000
      7      14.5118      0.00000
      8      14.5118      0.00000
      9      16.4262      0.00000
     10      16.4262      0.00000
     11      18.6570      0.00000
     12      18.6570      0.00000

 k-point    87 :       0.5000    0.1000    0.6000
  band No.  band energies     occupation 
      1      -1.9299      2.00000
      2      -1.9299      2.00000
      3       2.5715      2.00000
      4       2.5715      2.00000
      5       7.3949      0.00000
      6       7.3949      0.00000
      7      14.3299      0.00000
      8      14.3299      0.00000
      9      16.4211      0.00000
     10      16.4211      0.00000
     11      18.6706      0.00000
     12      18.6707      0.00000

 k-point    88 :       0.5000    0.1071    0.6071
  band No.  band energies     occupation 
      1      -1.9230      2.00000
      2      -1.9230      2.00000
      3       2.5268      2.00000
      4       2.5268      2.00000
      5       7.5059      0.00000
      6       7.5059      0.00000
      7      14.1460      0.00000
      8      14.1460      0.00000
      9      16.4173      0.00000
     10      16.4173      0.00000
     11      18.6841      0.00000
     12      18.6841      0.00000

 k-point    89 :       0.5000    0.1143    0.6143
  band No.  band energies     occupation 
      1      -1.9159      2.00000
      2      -1.9159      2.00000
      3       2.4822      2.00000
      4       2.4822      2.00000
      5       7.6214      0.00000
      6       7.6214      0.00000
      7      13.9608      0.00000
      8      13.9608      0.00000
      9      16.4146      0.00000
     10      16.4146      0.00000
     11      18.6977      0.00000
     12      18.6978      0.00000

 k-point    90 :       0.5000    0.1214    0.6214
  band No.  band energies     occupation 
      1      -1.9086      2.00000
      2      -1.9086      2.00000
      3       2.4381      2.00000
      4       2.4381      2.00000
      5       7.7411      0.00000
      6       7.7411      0.00000
      7      13.7748      0.00000
      8      13.7748      0.00000
      9      16.4126      0.00000
     10      16.4126      0.00000
     11      18.7114      0.00000
     12      18.7114      0.00000

 k-point    91 :       0.5000    0.1286    0.6286
  band No.  band energies     occupation 
      1      -1.9013      2.00000
      2      -1.9013      2.00000
      3       2.3949      2.00000
      4       2.3949      2.00000
      5       7.8648      0.00000
      6       7.8648      0.00000
      7      13.5883      0.00000
      8      13.5883      0.00000
      9      16.4114      0.00000
     10      16.4114      0.00000
     11      18.7250      0.00000
     12      18.7250      0.00000

 k-point    92 :       0.5000    0.1357    0.6357
  band No.  band energies     occupation 
      1      -1.8939      2.00000
      2      -1.8939      2.00000
      3       2.3527      2.00000
      4       2.3527      2.00000
      5       7.9922      0.00000
      6       7.9922      0.00000
      7      13.4018      0.00000
      8      13.4018      0.00000
      9      16.4106      0.00000
     10      16.4106      0.00000
     11      18.7387      0.00000
     12      18.7388      0.00000

 k-point    93 :       0.5000    0.1429    0.6429
  band No.  band energies     occupation 
      1      -1.8866      2.00000
      2      -1.8866      2.00000
      3       2.3118      2.00000
      4       2.3118      2.00000
      5       8.1231      0.00000
      6       8.1231      0.00000
      7      13.2154      0.00000
      8      13.2154      0.00000
      9      16.4103      0.00000
     10      16.4103      0.00000
     11      18.7522      0.00000
     12      18.7523      0.00000

 k-point    94 :       0.5000    0.1500    0.6500
  band No.  band energies     occupation 
      1      -1.8793      2.00000
      2      -1.8793      2.00000
      3       2.2726      2.00000
      4       2.2726      2.00000
      5       8.2571      0.00000
      6       8.2571      0.00000
      7      13.0295      0.00000
      8      13.0295      0.00000
      9      16.4102      0.00000
     10      16.4102      0.00000
     11      18.7655      0.00000
     12      18.7658      0.00000

 k-point    95 :       0.5000    0.1571    0.6571
  band No.  band energies     occupation 
      1      -1.8722      2.00000
      2      -1.8722      2.00000
      3       2.2351      2.00000
      4       2.2351      2.00000
      5       8.3941      0.00000
      6       8.3941      0.00000
      7      12.8443      0.00000
      8      12.8443      0.00000
      9      16.4104      0.00000
     10      16.4104      0.00000
     11      18.7788      0.00000
     12      18.7789      0.00000

 k-point    96 :       0.5000    0.1643    0.6643
  band No.  band energies     occupation 
      1      -1.8653      2.00000
      2      -1.8653      2.00000
      3       2.1996      2.00000
      4       2.1996      2.00000
      5       8.5339      0.00000
      6       8.5339      0.00000
      7      12.6600      0.00000
      8      12.6600      0.00000
      9      16.4108      0.00000
     10      16.4108      0.00000
     11      18.7916      0.00000
     12      18.7917      0.00000

 k-point    97 :       0.5000    0.1714    0.6714
  band No.  band energies     occupation 
      1      -1.8587      2.00000
      2      -1.8587      2.00000
      3       2.1662      2.00000
      4       2.1662      2.00000
      5       8.6760      0.00000
      6       8.6760      0.00000
      7      12.4768      0.00000
      8      12.4768      0.00000
      9      16.4111      0.00000
     10      16.4111      0.00000
     11      18.8039      0.00000
     12      18.8039      0.00000

 k-point    98 :       0.5000    0.1786    0.6786
  band No.  band energies     occupation 
      1      -1.8524      2.00000
      2      -1.8524      2.00000
      3       2.1352      2.00000
      4       2.1352      2.00000
      5       8.8205      0.00000
      6       8.8205      0.00000
      7      12.2950      0.00000
      8      12.2950      0.00000
      9      16.4117      0.00000
     10      16.4117      0.00000
     11      18.8156      0.00000
     12      18.8156      0.00000

 k-point    99 :       0.5000    0.1857    0.6857
  band No.  band energies     occupation 
      1      -1.8465      2.00000
      2      -1.8465      2.00000
      3       2.1067      2.00000
      4       2.1067      2.00000
      5       8.9668      0.00000
      6       8.9668      0.00000
      7      12.1149      0.00000
      8      12.1149      0.00000
      9      16.4123      0.00000
     10      16.4123      0.00000
     11      18.8265      0.00000
     12      18.8265      0.00000

 k-point   100 :       0.5000    0.1929    0.6929
  band No.  band energies     occupation 
      1      -1.8411      2.00000
      2      -1.8411      2.00000
      3       2.0808      2.00000
      4       2.0808      2.00000
      5       9.1147      0.00000
      6       9.1147      0.00000
      7      11.9369      0.00000
      8      11.9369      0.00000
      9      16.4129      0.00000
     10      16.4129      0.00000
     11      18.8367      0.00000
     12      18.8367      0.00000

 k-point   101 :       0.5000    0.2000    0.7000
  band No.  band energies     occupation 
      1      -1.8361      2.00000
      2      -1.8361      2.00000
      3       2.0577      2.00000
      4       2.0577      2.00000
      5       9.2636      0.00000
      6       9.2636      0.00000
      7      11.7615      0.00000
      8      11.7615      0.00000
      9      16.4135      0.00000
     10      16.4135      0.00000
     11      18.8460      0.00000
     12      18.8460      0.00000

 k-point   102 :       0.5000    0.2071    0.7071
  band No.  band energies     occupation 
      1      -1.8317      2.00000
      2      -1.8317      2.00000
      3       2.0374      2.00000
      4       2.0374      2.00000
      5       9.4128      0.00000
      6       9.4128      0.00000
      7      11.5893      0.00000
      8      11.5893      0.00000
      9      16.4140      0.00000
     10      16.4140      0.00000
     11      18.8543      0.00000
     12      18.8544      0.00000

 k-point   103 :       0.5000    0.2143    0.7143
  band No.  band energies     occupation 
      1      -1.8279      2.00000
      2      -1.8279      2.00000
      3       2.0201      2.00000
      4       2.0201      2.00000
      5       9.5611      0.00000
      6       9.5611      0.00000
      7      11.4216      0.00000
      8      11.4216      0.00000
      9      16.4145      0.00000
     10      16.4145      0.00000
     11      18.8615      0.00000
     12      18.8615      0.00000

 k-point   104 :       0.5000    0.2214    0.7214
  band No.  band energies     occupation 
      1      -1.8247      2.00000
      2      -1.8247      2.00000
      3       2.0058      2.00000
      4       2.0058      2.00000
      5       9.7066      0.00000
      6       9.7066      0.00000
      7      11.2603      0.00000
      8      11.2603      0.00000
      9      16.4150      0.00000
     10      16.4150      0.00000
     11      18.8673      0.00000
     12      18.8673      0.00000

 k-point   105 :       0.5000    0.2286    0.7286
  band No.  band energies     occupation 
      1      -1.8222      2.00000
      2      -1.8222      2.00000
      3       1.9946      2.00000
      4       1.9946      2.00000
      5       9.8453      0.00000
      6       9.8453      0.00000
      7      11.1093      0.00000
      8      11.1093      0.00000
      9      16.4153      0.00000
     10      16.4153      0.00000
     11      18.8720      0.00000
     12      18.8721      0.00000

 k-point   106 :       0.5000    0.2357    0.7357
  band No.  band energies     occupation 
      1      -1.8204      2.00000
      2      -1.8204      2.00000
      3       1.9866      2.00000
      4       1.9866      2.00000
      5       9.9694      0.00000
      6       9.9694      0.00000
      7      10.9763      0.00000
      8      10.9763      0.00000
      9      16.4156      0.00000
     10      16.4156      0.00000
     11      18.8755      0.00000
     12      18.8761      0.00000

 k-point   107 :       0.5000    0.2429    0.7429
  band No.  band energies     occupation 
      1      -1.8194      2.00000
      2      -1.8194      2.00000
      3       1.9818      2.00000
      4       1.9818      2.00000
      5      10.0631      0.00000
      6      10.0631      0.00000
      7      10.8773      0.00000
      8      10.8773      0.00000
      9      16.4157      0.00000
     10      16.4157      0.00000
     11      18.8776      0.00000
     12      18.8776      0.00000

 k-point   108 :       0.5000    0.2500    0.7500
  band No.  band energies     occupation 
      1      -1.8190      2.00000
      2      -1.8190      2.00000
      3       1.9802      2.00000
      4       1.9802      2.00000
      5      10.0999      0.00000
      6      10.0999      0.00000
      7      10.8388      0.00000
      8      10.8388      0.00000
      9      16.4158      0.00000
     10      16.4158      0.00000
     11      18.8783      0.00000
     12      18.8783      0.00000

 k-point   109 :       0.5000    0.2500    0.7500
  band No.  band energies     occupation 
      1      -1.8190      2.00000
      2      -1.8190      2.00000
      3       1.9802      2.00000
      4       1.9802      2.00000
      5      10.0999      0.00000
      6      10.0999      0.00000
      7      10.8388      0.00000
      8      10.8388      0.00000
      9      16.4158      0.00000
     10      16.4158      0.00000
     11      18.8783      0.00000
     12      18.8783      0.00000

 k-point   110 :       0.4964    0.2536    0.7500
  band No.  band energies     occupation 
      1      -1.8514      2.00000
      2      -1.7869      2.00000
      3       1.9558      2.00000
      4       2.0062      2.00000
      5      10.0569      0.00000
      6      10.1214      0.00000
      7      10.8307      0.00000
      8      10.8702      0.00000
      9      16.3545      0.00000
     10      16.4736      0.00000
     11      18.8170      0.00000
     12      18.9422      0.00000

 k-point   111 :       0.4929    0.2571    0.7500
  band No.  band energies     occupation 
      1      -1.8828      2.00000
      2      -1.7564      2.00000
      3       1.9319      2.00000
      4       2.0348      2.00000
      5       9.9820      0.00000
      6      10.1369      0.00000
      7      10.8568      0.00000
      8      10.9090      0.00000
      9      16.2912      0.00000
     10      16.5262      0.00000
     11      18.7594      0.00000
     12      19.0082      0.00000

 k-point   112 :       0.4893    0.2607    0.7500
  band No.  band energies     occupation 
      1      -1.9134      2.00000
      2      -1.7274      2.00000
      3       1.9087      2.00000
      4       2.0660      2.00000
      5       9.8849      0.00000
      6      10.1469      0.00000
      7      10.9072      0.00000
      8      10.9547      0.00000
      9      16.2259      0.00000
     10      16.5726      0.00000
     11      18.7067      0.00000
     12      19.0759      0.00000

 k-point   113 :       0.4857    0.2643    0.7500
  band No.  band energies     occupation 
      1      -1.9430      2.00000
      2      -1.6999      2.00000
      3       1.8861      2.00000
      4       2.0996      2.00000
      5       9.7746      0.00000
      6      10.1522      0.00000
      7      10.9732      0.00000
      8      11.0065      0.00000
      9      16.1588      0.00000
     10      16.6114      0.00000
     11      18.6604      0.00000
     12      19.1453      0.00000

 k-point   114 :       0.4821    0.2679    0.7500
  band No.  band energies     occupation 
      1      -1.9717      2.00000
      2      -1.6740      2.00000
      3       1.8642      2.00000
      4       2.1357      2.00000
      5       9.6565      0.00000
      6      10.1536      0.00000
      7      11.0493      0.00000
      8      11.0635      0.00000
      9      16.0901      0.00000
     10      16.6416      0.00000
     11      18.6217      0.00000
     12      19.2161      0.00000

 k-point   115 :       0.4786    0.2714    0.7500
  band No.  band energies     occupation 
      1      -1.9995      2.00000
      2      -1.6496      2.00000
      3       1.8429      2.00000
      4       2.1742      2.00000
      5       9.5342      0.00000
      6      10.1518      0.00000
      7      11.1251      0.00000
      8      11.1320      0.00000
      9      16.0199      0.00000
     10      16.6618      0.00000
     11      18.5918      0.00000
     12      19.2878      0.00000

 k-point   116 :       0.4750    0.2750    0.7500
  band No.  band energies     occupation 
      1      -2.0263      2.00000
      2      -1.6267      2.00000
      3       1.8222      2.00000
      4       2.2148      2.00000
      5       9.4099      0.00000
      6      10.1475      0.00000
      7      11.1904      0.00000
      8      11.2194      0.00000
      9      15.9483      0.00000
     10      16.6709      0.00000
     11      18.5722      0.00000
     12      19.3608      0.00000

 k-point   117 :       0.4714    0.2786    0.7500
  band No.  band energies     occupation 
      1      -2.0522      2.00000
      2      -1.6052      2.00000
      3       1.8022      2.00000
      4       2.2577      2.00000
      5       9.2847      0.00000
      6      10.1414      0.00000
      7      11.2589      0.00000
      8      11.3102      0.00000
      9      15.8755      0.00000
     10      16.6683      0.00000
     11      18.5636      0.00000
     12      19.4348      0.00000

 k-point   118 :       0.4679    0.2821    0.7500
  band No.  band energies     occupation 
      1      -2.0772      2.00000
      2      -1.5851      2.00000
      3       1.7828      2.00000
      4       2.3026      2.00000
      5       9.1594      0.00000
      6      10.1339      0.00000
      7      11.3302      0.00000
      8      11.4036      0.00000
      9      15.8014      0.00000
     10      16.6534      0.00000
     11      18.5666      0.00000
     12      19.5100      0.00000

 k-point   119 :       0.4643    0.2857    0.7500
  band No.  band energies     occupation 
      1      -2.1013      2.00000
      2      -1.5664      2.00000
      3       1.7642      2.00000
      4       2.3494      2.00000
      5       9.0348      0.00000
      6      10.1253      0.00000
      7      11.4036      0.00000
      8      11.4992      0.00000
      9      15.7263      0.00000
     10      16.6263      0.00000
     11      18.5812      0.00000
     12      19.5857      0.00000

 k-point   120 :       0.4607    0.2893    0.7500
  band No.  band energies     occupation 
      1      -2.1244      2.00000
      2      -1.5490      2.00000
      3       1.7462      2.00000
      4       2.3979      2.00000
      5       8.9112      0.00000
      6      10.1161      0.00000
      7      11.4791      0.00000
      8      11.5966      0.00000
      9      15.6501      0.00000
     10      16.5876      0.00000
     11      18.6073      0.00000
     12      19.6621      0.00000

 k-point   121 :       0.4571    0.2929    0.7500
  band No.  band energies     occupation 
      1      -2.1466      2.00000
      2      -1.5328      2.00000
      3       1.7289      2.00000
      4       2.4480      2.00000
      5       8.7890      0.00000
      6      10.1063      0.00000
      7      11.5561      0.00000
      8      11.6954      0.00000
      9      15.5728      0.00000
     10      16.5379      0.00000
     11      18.6436      0.00000
     12      19.7392      0.00000

 k-point   122 :       0.4536    0.2964    0.7500
  band No.  band energies     occupation 
      1      -2.1678      2.00000
      2      -1.5179      2.00000
      3       1.7123      2.00000
      4       2.4996      2.00000
      5       8.6685      0.00000
      6      10.0963      0.00000
      7      11.6347      0.00000
      8      11.7956      0.00000
      9      15.4947      0.00000
     10      16.4785      0.00000
     11      18.6894      0.00000
     12      19.8169      0.00000

 k-point   123 :       0.4500    0.3000    0.7500
  band No.  band energies     occupation 
      1      -2.1881      2.00000
      2      -1.5041      2.00000
      3       1.6963      2.00000
      4       2.5523      2.00000
      5       8.5499      0.00000
      6      10.0861      0.00000
      7      11.7145      0.00000
      8      11.8970      0.00000
      9      15.4157      0.00000
     10      16.4104      0.00000
     11      18.7436      0.00000
     12      19.8947      0.00000

 k-point   124 :       0.4464    0.3036    0.7500
  band No.  band energies     occupation 
      1      -2.2075      2.00000
      2      -1.4915      2.00000
      3       1.6811      2.00000
      4       2.6061      2.00000
      5       8.4335      0.00000
      6      10.0760      0.00000
      7      11.7953      0.00000
      8      11.9995      0.00000
      9      15.3359      0.00000
     10      16.3349      0.00000
     11      18.8052      0.00000
     12      19.9734      0.00000

 k-point   125 :       0.4429    0.3071    0.7500
  band No.  band energies     occupation 
      1      -2.2259      2.00000
      2      -1.4798      2.00000
      3       1.6666      2.00000
      4       2.6608      2.00000
      5       8.3195      0.00000
      6      10.0660      0.00000
      7      11.8772      0.00000
      8      12.1030      0.00000
      9      15.2554      0.00000
     10      16.2529      0.00000
     11      18.8731      0.00000
     12      20.0515      0.00000

 k-point   126 :       0.4393    0.3107    0.7500
  band No.  band energies     occupation 
      1      -2.2434      2.00000
      2      -1.4692      2.00000
      3       1.6529      2.00000
      4       2.7159      2.00000
      5       8.2083      0.00000
      6      10.0562      0.00000
      7      11.9598      0.00000
      8      12.2074      0.00000
      9      15.1741      0.00000
     10      16.1655      0.00000
     11      18.9465      0.00000
     12      20.1313      0.00000

 k-point   127 :       0.4357    0.3143    0.7500
  band No.  band energies     occupation 
      1      -2.2600      2.00000
      2      -1.4595      2.00000
      3       1.6398      2.00000
      4       2.7714      2.00000
      5       8.0999      0.00000
      6      10.0467      0.00000
      7      12.0432      0.00000
      8      12.3127      0.00000
      9      15.0923      0.00000
     10      16.0735      0.00000
     11      19.0246      0.00000
     12      20.2091      0.00000

 k-point   128 :       0.4321    0.3179    0.7500
  band No.  band energies     occupation 
      1      -2.2756      2.00000
      2      -1.4506      2.00000
      3       1.6274      2.00000
      4       2.8269      2.00000
      5       7.9948      0.00000
      6      10.0375      0.00000
      7      12.1272      0.00000
      8      12.4188      0.00000
      9      15.0098      0.00000
     10      15.9775      0.00000
     11      19.1068      0.00000
     12      20.2887      0.00000

 k-point   129 :       0.4286    0.3214    0.7500
  band No.  band energies     occupation 
      1      -2.2902      2.00000
      2      -1.4426      2.00000
      3       1.6158      2.00000
      4       2.8821      2.00000
      5       7.8931      0.00000
      6      10.0287      0.00000
      7      12.2116      0.00000
      8      12.5256      0.00000
      9      14.9269      0.00000
     10      15.8781      0.00000
     11      19.1925      0.00000
     12      20.3716      0.00000

 k-point   130 :       0.4250    0.3250    0.7500
  band No.  band energies     occupation 
      1      -2.3040      2.00000
      2      -1.4354      2.00000
      3       1.6050      2.00000
      4       2.9367      2.00000
      5       7.7952      0.00000
      6      10.0203      0.00000
      7      12.2965      0.00000
      8      12.6332      0.00000
      9      14.8435      0.00000
     10      15.7762      0.00000
     11      19.2811      0.00000
     12      20.4467      0.00000

 k-point   131 :       0.4214    0.3286    0.7500
  band No.  band energies     occupation 
      1      -2.3168      2.00000
      2      -1.4288      2.00000
      3       1.5948      2.00000
      4       2.9903      2.00000
      5       7.7014      0.00000
      6      10.0124      0.00000
      7      12.3816      0.00000
      8      12.7415      0.00000
      9      14.7599      0.00000
     10      15.6719      0.00000
     11      19.3722      0.00000
     12      20.5243      0.00000

 k-point   132 :       0.4179    0.3321    0.7500
  band No.  band energies     occupation 
      1      -2.3286      2.00000
      2      -1.4230      2.00000
      3       1.5854      2.00000
      4       3.0426      2.00000
      5       7.6121      0.00000
      6      10.0050      0.00000
      7      12.4670      0.00000
      8      12.8504      0.00000
      9      14.6761      0.00000
     10      15.5658      0.00000
     11      19.4659      0.00000
     12      20.6068      0.00000

 k-point   133 :       0.4143    0.3357    0.7500
  band No.  band energies     occupation 
      1      -2.3395      2.00000
      2      -1.4178      2.00000
      3       1.5767      2.00000
      4       3.0931      2.00000
      5       7.5275      0.00000
      6       9.9981      0.00000
      7      12.5523      0.00000
      8      12.9598      0.00000
      9      14.5921      0.00000
     10      15.4581      0.00000
     11      19.5610      0.00000
     12      20.7319      0.00000

 k-point   134 :       0.4107    0.3393    0.7500
  band No.  band energies     occupation 
      1      -2.3494      2.00000
      2      -1.4131      2.00000
      3       1.5688      2.00000
      4       3.1415      2.00000
      5       7.4482      0.00000
      6       9.9917      0.00000
      7      12.6375      0.00000
      8      13.0697      0.00000
      9      14.5082      0.00000
     10      15.3491      0.00000
     11      19.6579      0.00000
     12      20.7549      0.00000

 k-point   135 :       0.4071    0.3429    0.7500
  band No.  band energies     occupation 
      1      -2.3584      2.00000
      2      -1.4091      2.00000
      3       1.5616      2.00000
      4       3.1873      2.00000
      5       7.3746      0.00000
      6       9.9859      0.00000
      7      12.7223      0.00000
      8      13.1800      0.00000
      9      14.4246      0.00000
     10      15.2390      0.00000
     11      19.7569      0.00000
     12      21.1245      0.00000

 k-point   136 :       0.4036    0.3464    0.7500
  band No.  band energies     occupation 
      1      -2.3665      2.00000
      2      -1.4055      2.00000
      3       1.5552      2.00000
      4       3.2300      2.00000
      5       7.3070      0.00000
      6       9.9807      0.00000
      7      12.8064      0.00000
      8      13.2906      0.00000
      9      14.3415      0.00000
     10      15.1283      0.00000
     11      19.8573      0.00000
     12      20.9045      0.00000

 k-point   137 :       0.4000    0.3500    0.7500
  band No.  band energies     occupation 
      1      -2.3736      2.00000
      2      -1.4024      2.00000
      3       1.5495      2.00000
      4       3.2692      2.00000
      5       7.2459      0.00000
      6       9.9761      0.00000
      7      12.8895      0.00000
      8      13.4014      0.00000
      9      14.2594      0.00000
     10      15.0171      0.00000
     11      19.9643      0.00000
     12      21.0300      0.00000

 k-point   138 :       0.3964    0.3536    0.7500
  band No.  band energies     occupation 
      1      -2.3798      2.00000
      2      -1.3998      2.00000
      3       1.5446      2.00000
      4       3.3043      2.00000
      5       7.1918      0.00000
      6       9.9720      0.00000
      7      12.9709      0.00000
      8      13.5123      0.00000
      9      14.1788      0.00000
     10      14.9057      0.00000
     11      20.0570      0.00000
     12      21.0842      0.00000

 k-point   139 :       0.3929    0.3571    0.7500
  band No.  band energies     occupation 
      1      -2.3850      2.00000
      2      -1.3977      2.00000
      3       1.5405      2.00000
      4       3.3350      2.00000
      5       7.1451      0.00000
      6       9.9686      0.00000
      7      13.0498      0.00000
      8      13.6229      0.00000
      9      14.1006      0.00000
     10      14.7945      0.00000
     11      20.1603      0.00000
     12      21.0579      0.00000

 k-point   140 :       0.3893    0.3607    0.7500
  band No.  band energies     occupation 
      1      -2.3892      2.00000
      2      -1.3959      2.00000
      3       1.5371      2.00000
      4       3.3607      2.00000
      5       7.1064      0.00000
      6       9.9658      0.00000
      7      13.1246      0.00000
      8      13.7326      0.00000
      9      14.0264      0.00000
     10      14.6842      0.00000
     11      20.2610      0.00000
     12      20.9867      0.00000

 k-point   141 :       0.3857    0.3643    0.7500
  band No.  band energies     occupation 
      1      -2.3925      2.00000
      2      -1.3946      2.00000
      3       1.5344      2.00000
      4       3.3812      2.00000
      5       7.0758      0.00000
      6       9.9636      0.00000
      7      13.1929      0.00000
      8      13.8405      0.00000
      9      13.9586      0.00000
     10      14.5758      0.00000
     11      20.3575      0.00000
     12      21.0025      0.00000

 k-point   142 :       0.3821    0.3679    0.7500
  band No.  band energies     occupation 
      1      -2.3949      2.00000
      2      -1.3937      2.00000
      3       1.5325      2.00000
      4       3.3961      2.00000
      5       7.0537      0.00000
      6       9.9620      0.00000
      7      13.2504      0.00000
      8      13.9015      0.00000
      9      13.9435      0.00000
     10      14.4723      0.00000
     11      20.4512      0.00000
     12      20.8574      0.00000

 k-point   143 :       0.3786    0.3714    0.7500
  band No.  band energies     occupation 
      1      -2.3963      2.00000
      2      -1.3931      2.00000
      3       1.5314      2.00000
      4       3.4051      2.00000
      5       7.0403      0.00000
      6       9.9610      0.00000
      7      13.2903      0.00000
      8      13.8617      0.00000
      9      14.0327      0.00000
     10      14.3829      0.00000
     11      20.5587      0.00000
     12      20.7824      0.00000

 k-point   144 :       0.3750    0.3750    0.7500
  band No.  band energies     occupation 
      1      -2.3968      2.00000
      2      -1.3929      2.00000
      3       1.5310      2.00000
      4       3.4081      2.00000
      5       7.0358      0.00000
      6       9.9607      0.00000
      7      13.3050      0.00000
      8      13.8472      0.00000
      9      14.0751      0.00000
     10      14.3403      0.00000
     11      20.5907      0.00000
     12      20.7406      0.00000

 k-point   145 :       0.3750    0.3750    0.7500
  band No.  band energies     occupation 
      1      -2.3968      2.00000
      2      -1.3929      2.00000
      3       1.5310      2.00000
      4       3.4081      2.00000
      5       7.0358      0.00000
      6       9.9607      0.00000
      7      13.3050      0.00000
      8      13.8472      0.00000
      9      14.0751      0.00000
     10      14.3403      0.00000
     11      20.6330      0.00000
     12      20.7773      0.00000

 k-point   146 :       0.3643    0.3643    0.7286
  band No.  band energies     occupation 
      1      -2.4993      2.00000
      2      -1.2878      2.00000
      3       1.4680      2.00000
      4       3.4817      2.00000
      5       7.1212      0.00000
      6      10.3949      0.00000
      7      13.0418      0.00000
      8      13.5798      0.00000
      9      13.8637      0.00000
     10      14.1124      0.00000
     11      20.6731      0.00000
     12      20.9630      0.00000

 k-point   147 :       0.3536    0.3536    0.7071
  band No.  band energies     occupation 
      1      -2.6147      2.00000
      2      -1.1742      2.00000
      3       1.4292      2.00000
      4       3.5603      2.00000
      5       7.2124      0.00000
      6      10.8330      0.00000
      7      12.7838      0.00000
      8      13.3249      0.00000
      9      13.6552      0.00000
     10      13.8919      0.00000
     11      20.6003      0.00000
     12      21.2040      0.00000

 k-point   148 :       0.3429    0.3429    0.6857
  band No.  band energies     occupation 
      1      -2.7418      2.00000
      2      -1.0521      2.00000
      3       1.4143      2.00000
      4       3.6436      2.00000
      5       7.3091      0.00000
      6      11.2669      0.00000
      7      12.5315      0.00000
      8      13.0896      0.00000
      9      13.4508      0.00000
     10      13.6797      0.00000
     11      20.4097      0.00000
     12      21.0134      0.00000

 k-point   149 :       0.3321    0.3321    0.6643
  band No.  band energies     occupation 
      1      -2.8791      2.00000
      2      -0.9215      2.00000
      3       1.4221      2.00000
      4       3.7313      2.00000
      5       7.4109      0.00000
      6      11.6740      0.00000
      7      12.2852      0.00000
      8      12.8957      0.00000
      9      13.2513      0.00000
     10      13.4762      0.00000
     11      20.1816      0.00000
     12      20.7616      0.00000

 k-point   150 :       0.3214    0.3214    0.6429
  band No.  band energies     occupation 
      1      -3.0249      2.00000
      2      -0.7826      2.00000
      3       1.4513      2.00000
      4       3.8232      2.00000
      5       7.5171      0.00000
      6      11.9729      0.00000
      7      12.0453      0.00000
      8      12.8228      0.00000
      9      13.0576      0.00000
     10      13.2821      0.00000
     11      19.9440      0.00000
     12      20.5198      0.00000

 k-point   151 :       0.3107    0.3107    0.6214
  band No.  band energies     occupation 
      1      -3.1773      2.00000
      2      -0.6354      2.00000
      3       1.5004      2.00000
      4       3.9186      2.00000
      5       7.6273      0.00000
      6      11.8120      0.00000
      7      12.0156      0.00000
      8      12.8707      0.00000
      9      13.0177      0.00000
     10      13.0982      0.00000
     11      19.7066      0.00000
     12      20.2872      0.00000

 k-point   152 :       0.3000    0.3000    0.6000
  band No.  band energies     occupation 
      1      -3.3344      2.00000
      2      -0.4798      2.00000
      3       1.5677      2.00000
      4       4.0174      2.00000
      5       7.7408      0.00000
      6      11.5855      0.00000
      7      11.8787      0.00000
      8      12.6915      0.00000
      9      12.9247      0.00000
     10      13.4017      0.00000
     11      19.4728      0.00000
     12      20.0669      0.00000

 k-point   153 :       0.2893    0.2893    0.5786
  band No.  band energies     occupation 
      1      -3.4945      2.00000
      2      -0.3160      2.00000
      3       1.6518      2.00000
      4       4.1188      2.00000
      5       7.8566      0.00000
      6      11.3660      0.00000
      7      11.6909      0.00000
      8      12.5208      0.00000
      9      12.7628      0.00000
     10      13.8436      0.00000
     11      19.2451      0.00000
     12      19.8605      0.00000

 k-point   154 :       0.2786    0.2786    0.5571
  band No.  band energies     occupation 
      1      -3.6561      2.00000
      2      -0.1441      2.00000
      3       1.7511      2.00000
      4       4.2225      2.00000
      5       7.9738      0.00000
      6      11.1538      0.00000
      7      11.4912      0.00000
      8      12.3596      0.00000
      9      12.6130      0.00000
     10      14.3004      0.00000
     11      19.0241      0.00000
     12      19.6721      0.00000

 k-point   155 :       0.2679    0.2679    0.5357
  band No.  band energies     occupation 
      1      -3.8178      2.00000
      2       0.0360      2.00000
      3       1.8642      2.00000
      4       4.3278      2.00000
      5       8.0912      0.00000
      6      10.9489      0.00000
      7      11.2907      0.00000
      8      12.2090      0.00000
      9      12.4758      0.00000
     10      14.7553      0.00000
     11      18.8089      0.00000
     12      19.5049      0.00000

 k-point   156 :       0.2571    0.2571    0.5143
  band No.  band energies     occupation 
      1      -3.9784      2.00000
      2       0.2241      2.00000
      3       1.9900      2.00000
      4       4.4341      2.00000
      5       8.2073      0.00000
      6      10.7515      0.00000
      7      11.0936      0.00000
      8      12.0702      0.00000
      9      12.3521      0.00000
     10      15.1955      0.00000
     11      18.5992      0.00000
     12      19.3686      0.00000

 k-point   157 :       0.2464    0.2464    0.4929
  band No.  band energies     occupation 
      1      -4.1368      2.00000
      2       0.4201      2.00000
      3       2.1273      2.00000
      4       4.5406      2.00000
      5       8.3206      0.00000
      6      10.5615      0.00000
      7      10.9016      0.00000
      8      11.9443      0.00000
      9      12.2422      0.00000
     10      15.6064      0.00000
     11      18.3849      0.00000
     12      18.9306      0.00000

 k-point   158 :       0.2357    0.2357    0.4714
  band No.  band energies     occupation 
      1      -4.2922      2.00000
      2       0.6240      2.00000
      3       2.2751      2.00000
      4       4.6467      2.00000
      5       8.4290      0.00000
      6      10.3793      0.00000
      7      10.7156      0.00000
      8      11.8327      0.00000
      9      12.1474      0.00000
     10      15.9683      0.00000
     11      18.1260      0.00000
     12      18.4345      0.00000

 k-point   159 :       0.2250    0.2250    0.4500
  band No.  band energies     occupation 
      1      -4.4439      2.00000
      2       0.8356      2.00000
      3       2.4325      2.00000
      4       4.7515      2.00000
      5       8.5305      0.00000
      6      10.2047      0.00000
      7      10.5361      0.00000
      8      11.7366      0.00000
      9      12.0681      0.00000
     10      16.2576      0.00000
     11      17.7318      0.00000
     12      18.1474      0.00000

 k-point   160 :       0.2143    0.2143    0.4286
  band No.  band energies     occupation 
      1      -4.5911      2.00000
      2       1.0548      2.00000
      3       2.5986      2.00000
      4       4.8544      2.00000
      5       8.6229      0.00000
      6      10.0380      0.00000
      7      10.3634      0.00000
      8      11.6573      0.00000
      9      12.0050      0.00000
     10      16.4532      0.00000
     11      17.2639      0.00000
     12      17.9540      0.00000

 k-point   161 :       0.2036    0.2036    0.4071
  band No.  band energies     occupation 
      1      -4.7333      2.00000
      2       1.2815      2.00000
      3       2.7726      2.00000
      4       4.9545      2.00000
      5       8.7040      0.00000
      6       9.8791      0.00000
      7      10.1977      0.00000
      8      11.5953      0.00000
      9      11.9588      0.00000
     10      16.5489      0.00000
     11      16.7870      0.00000
     12      17.7898      0.00000

 k-point   162 :       0.1929    0.1929    0.3857
  band No.  band energies     occupation 
      1      -4.8701      2.00000
      2       1.5155      2.00000
      3       2.9536      2.00000
      4       5.0510      2.00000
      5       8.7720      0.00000
      6       9.7281      0.00000
      7      10.0389      0.00000
      8      11.5507      0.00000
      9      11.9300      0.00000
     10      16.3166      0.00000
     11      16.5561      0.00000
     12      17.6422      0.00000

 k-point   163 :       0.1821    0.1821    0.3643
  band No.  band energies     occupation 
      1      -5.0010      2.00000
      2       1.7566      2.00000
      3       3.1408      2.00000
      4       5.1432      2.00000
      5       8.8256      0.00000
      6       9.5851      0.00000
      7       9.8870      0.00000
      8      11.5220      0.00000
      9      11.9193      0.00000
     10      15.8584      0.00000
     11      16.4953      0.00000
     12      17.5085      0.00000

 k-point   164 :       0.1714    0.1714    0.3429
  band No.  band energies     occupation 
      1      -5.1257      2.00000
      2       2.0046      2.00000
      3       3.3333      2.00000
      4       5.2305      2.00000
      5       8.8641      0.00000
      6       9.4500      0.00000
      7       9.7422      0.00000
      8      11.5062      0.00000
      9      11.9270      0.00000
     10      15.4170      0.00000
     11      16.3855      0.00000
     12      17.3876      0.00000

 k-point   165 :       0.1607    0.1607    0.3214
  band No.  band energies     occupation 
      1      -5.2440      2.00000
      2       2.2591      2.00000
      3       3.5301      2.00000
      4       5.3121      2.00000
      5       8.8879      0.00000
      6       9.3230      0.00000
      7       9.6042      0.00000
      8      11.4976      0.00000
      9      11.9534      0.00000
     10      14.9976      0.00000
     11      16.2401      0.00000
     12      17.2798      0.00000

 k-point   166 :       0.1500    0.1500    0.3000
  band No.  band energies     occupation 
      1      -5.3555      2.00000
      2       2.5199      2.00000
      3       3.7304      2.00000
      4       5.3878      2.00000
      5       8.8980      0.00000
      6       9.2041      0.00000
      7       9.4729      0.00000
      8      11.4877      0.00000
      9      11.9983      0.00000
     10      14.6072      0.00000
     11      16.0682      0.00000
     12      17.1851      0.00000

 k-point   167 :       0.1393    0.1393    0.2786
  band No.  band energies     occupation 
      1      -5.4601      2.00000
      2       2.7865      2.00000
      3       3.9328      2.00000
      4       5.4571      2.00000
      5       8.8963      0.00000
      6       9.0931      0.00000
      7       9.3484      0.00000
      8      11.4648      0.00000
      9      12.0620      0.00000
     10      14.2556      0.00000
     11      15.8763      0.00000
     12      17.1040      0.00000

 k-point   168 :       0.1286    0.1286    0.2571
  band No.  band energies     occupation 
      1      -5.5575      2.00000
      2       3.0583      2.00000
      3       4.1363      2.00000
      4       5.5198      2.00000
      5       8.8848      0.00000
      6       8.9903      0.00000
      7       9.2302      0.00000
      8      11.4135      0.00000
      9      12.1432      0.00000
     10      13.9542      0.00000
     11      15.6692      0.00000
     12      17.0370      0.00000

 k-point   169 :       0.1179    0.1179    0.2357
  band No.  band energies     occupation 
      1      -5.6476      2.00000
      2       3.3348      2.00000
      3       4.3392      2.00000
      4       5.5760      2.00000
      5       8.8654      0.00000
      6       8.8957      0.00000
      7       9.1185      0.00000
      8      11.3187      0.00000
      9      12.2416      0.00000
     10      13.7165      0.00000
     11      15.4520      0.00000
     12      16.9849      0.00000

 k-point   170 :       0.1071    0.1071    0.2143
  band No.  band energies     occupation 
      1      -5.7303      2.00000
      2       3.6149      2.00000
      3       4.5401      2.00000
      4       5.6257      2.00000
      5       8.8093      0.00000
      6       8.8401      0.00000
      7       9.0132      0.00000
      8      11.1700      0.00000
      9      12.3561      0.00000
     10      13.5494      0.00000
     11      15.2294      0.00000
     12      16.9470      0.00000

 k-point   171 :       0.0964    0.0964    0.1929
  band No.  band energies     occupation 
      1      -5.8055      2.00000
      2       3.8976      2.00000
      3       4.7370      2.00000
      4       5.6690      2.00000
      5       8.7311      0.00000
      6       8.8103      0.00000
      7       8.9140      0.00000
      8      10.9680      0.00000
      9      12.4841      0.00000
     10      13.4503      0.00000
     11      15.0067      0.00000
     12      16.9243      0.00000

 k-point   172 :       0.0857    0.0857    0.1714
  band No.  band energies     occupation 
      1      -5.8729      2.00000
      2       4.1812      2.00000
      3       4.9275      2.00000
      4       5.7063      2.00000
      5       8.6610      0.00000
      6       8.7770      0.00000
      7       8.8210      0.00000
      8      10.7242      0.00000
      9      12.6240      0.00000
     10      13.4064      0.00000
     11      14.7891      0.00000
     12      16.9161      0.00000

 k-point   173 :       0.0750    0.0750    0.1500
  band No.  band energies     occupation 
      1      -5.9327      2.00000
      2       4.4633      2.00000
      3       5.1091      2.00000
      4       5.7379      2.00000
      5       8.5992      0.00000
      6       8.7346      0.00000
      7       8.7405      0.00000
      8      10.4553      0.00000
      9      12.7727      0.00000
     10      13.4010      0.00000
     11      14.5818      0.00000
     12      16.9389      0.00000

 k-point   174 :       0.0643    0.0643    0.1286
  band No.  band energies     occupation 
      1      -5.9845      2.00000
      2       4.7407      2.00000
      3       5.2787      2.00000
      4       5.7643      2.00000
      5       8.5455      0.00000
      6       8.6550      0.00000
      7       8.7002      0.00000
      8      10.1787      0.00000
      9      12.9261      0.00000
     10      13.4186      0.00000
     11      14.3899      0.00000
     12      16.9392      0.00000

 k-point   175 :       0.0536    0.0536    0.1071
  band No.  band energies     occupation 
      1      -6.0286      2.00000
      2       5.0087      2.00000
      3       5.4328      2.00000
      4       5.7858      2.00000
      5       8.5001      0.00000
      6       8.5834      0.00000
      7       8.6548      0.00000
      8       9.9108      0.00000
      9      13.0793      0.00000
     10      13.4479      0.00000
     11      14.2181      0.00000
     12      16.9669      0.00000

 k-point   176 :       0.0429    0.0429    0.0857
  band No.  band energies     occupation 
      1      -6.0647      2.00000
      2       5.2601      2.00000
      3       5.5676      2.00000
      4       5.8028      2.00000
      5       8.4630      0.00000
      6       8.5208      0.00000
      7       8.6016      0.00000
      8       9.6683      0.00000
      9      13.2254      0.00000
     10      13.4801      0.00000
     11      14.0709      0.00000
     12      17.0000      0.00000

 k-point   177 :       0.0321    0.0321    0.0643
  band No.  band energies     occupation 
      1      -6.0928      2.00000
      2       5.4845      2.00000
      3       5.6789      2.00000
      4       5.8156      2.00000
      5       8.4341      0.00000
      6       8.4689      0.00000
      7       8.5395      0.00000
      8       9.4678      0.00000
      9      13.3559      0.00000
     10      13.5097      0.00000
     11      13.9519      0.00000
     12      17.0358      0.00000

 k-point   178 :       0.0214    0.0214    0.0429
  band No.  band energies     occupation 
      1      -6.1128      2.00000
      2       5.6669      2.00000
      3       5.7622      2.00000
      4       5.8245      2.00000
      5       8.4135      0.00000
      6       8.4298      0.00000
      7       8.4732      0.00000
      8       9.3226      0.00000
      9      13.4606      0.00000
     10      13.5331      0.00000
     11      13.8645      0.00000
     12      17.0725      0.00000

 k-point   179 :       0.0107    0.0107    0.0214
  band No.  band energies     occupation 
      1      -6.1249      2.00000
      2       5.7885      2.00000
      3       5.8140      2.00000
      4       5.8298      2.00000
      5       8.4011      0.00000
      6       8.4053      0.00000
      7       8.4186      0.00000
      8       9.2374      0.00000
      9      13.5291      0.00000
     10      13.5480      0.00000
     11      13.8110      0.00000
     12      17.0790      0.00000

 k-point   180 :       0.0000    0.0000   -0.0000
  band No.  band energies     occupation 
      1      -6.1289      2.00000
      2       5.8315      2.00000
      3       5.8315      2.00000
      4       5.8315      2.00000
      5       8.3969      0.00000
      6       8.3969      0.00000
      7       8.3969      0.00000
      8       9.2098      0.00000
      9      13.5531      0.00000
     10      13.5531      0.00000
     11      13.7930      0.00000
     12      17.0859      0.00000


--------------------------------------------------------------------------------------------------------


 soft charge-density along one line, spin component           1
         0         1         2         3         4         5         6         7         8         9
 total charge-density along one line
 
 pseudopotential strength for first ion, spin component:           1
 18.413  -0.001   0.000   0.000   0.000  -0.000  -0.000  -0.000
 -0.001   0.006  -0.000  -0.000  -0.000   0.000   0.000   0.000
  0.000  -0.000   4.178  -0.000  -0.000  -0.005   0.000   0.000
  0.000  -0.000  -0.000   4.178  -0.000   0.000  -0.005   0.000
  0.000  -0.000  -0.000  -0.000   4.178   0.000   0.000  -0.005
 -0.000   0.000  -0.005   0.000   0.000   0.005  -0.000  -0.000
 -0.000   0.000   0.000  -0.005   0.000  -0.000   0.005  -0.000
 -0.000   0.000   0.000   0.000  -0.005  -0.000  -0.000   0.005
 total augmentation occupancy for first ion, spin component:           1
  2.000   0.000   0.000   0.000   0.000   0.000   0.000   0.000
  0.000   0.000   0.000   0.000   0.000   0.000   0.000   0.000
  0.000   0.000   0.667   0.000   0.000   0.000   0.000   0.000
  0.000   0.000   0.000   0.667   0.000   0.000   0.000   0.000
  0.000   0.000   0.000   0.000   0.667   0.000   0.000   0.000
  0.000   0.000   0.000   0.000   0.000   0.000   0.000   0.000
  0.000   0.000   0.000   0.000   0.000   0.000   0.000   0.000
  0.000   0.000   0.000   0.000   0.000   0.000   0.000   0.000


------------------------ aborting loop because EDIFF is reached ----------------------------------------





 total charge

# of ion       s       p       d       tot
------------------------------------------
    1        0.708   0.993   0.000   1.701
    2        0.708   0.993   0.000   1.701
--------------------------------------------------
tot          1.415   1.986   0.000   3.402
 
    CHARGE:  cpu time      0.0172: real time      0.0172
    FORLOC:  cpu time      0.0005: real time      0.0005
    FORNL :  cpu time      0.0126: real time      0.0127
    STRESS:  cpu time      0.0658: real time      0.0658
    FORCOR:  cpu time      0.0138: real time      0.0138
    FORHAR:  cpu time      0.0023: real time      0.0023
    OFIELD:  cpu time      0.0000: real time      0.0000

  FORCE on cell =-STRESS in cart. coord.  units (eV):
  Direction    XX          YY          ZZ          XY          YZ          ZX
  --------------------------------------------------------------------------------------
  Alpha Z     3.36414     3.36414     3.36414
  Ewald     -76.18788   -76.18788   -76.18788     0.00000    -0.00000     0.00000
  Hartree     5.37305     5.37305     5.37305     0.00000     0.00000     0.00000
  E(xc)     -25.40204   -25.40204   -25.40204     0.00000     0.00000     0.00000
  Local     -30.02522   -30.02522   -30.02522     0.00001     0.00001     0.00001
  n-local    78.95503    75.04377    76.70399    -1.84348    -0.67923    -0.67922
  augment   -11.25093   -11.25093   -11.25093    -0.00001    -0.00001    -0.00001
  Kinetic    59.35741    58.29702    60.70461    -1.63386    -0.75095    -0.75095
  Fock        0.00000     0.00000     0.00000     0.00000     0.00000     0.00000
  -------------------------------------------------------------------------------------
  Total       2.22508     2.22508     2.22508     0.00000    -0.00000     0.00000
  in kB      89.06693    89.06693    89.06693     0.00000    -0.00000     0.00000
  external pressure =       89.07 kB  Pullay stress =        0.00 kB


 VOLUME and BASIS-vectors are now :
 -----------------------------------------------------------------------------
  energy-cutoff  :      400.00
  volume of cell :       40.03
      direct lattice vectors                 reciprocal lattice vectors
     0.000000000  2.715000000  2.715000000    -0.184162063  0.184162063  0.184162063
     2.715000000  0.000000000  2.715000000     0.184162063 -0.184162063  0.184162063
     2.715000000  2.715000000  0.000000000     0.184162063  0.184162063 -0.184162063

  length of vectors
     3.839589822  3.839589822  3.839589822     0.318978049  0.318978049  0.318978049


 FORCES acting on ions
    electron-ion (+dipol)            ewald-force                    non-local-force                 convergence-correction
 -----------------------------------------------------------------------------------------------
   0.855E-08 0.855E-08 0.518E-08   -.127E-14 0.350E-15 -.192E-14   -.952E-16 -.102E-15 -.914E-16   0.492E-09 0.492E-09 0.492E-09
   -.855E-08 -.855E-08 -.518E-08   0.113E-14 -.165E-15 0.160E-14   0.108E-15 0.806E-16 0.898E-16   -.492E-09 -.492E-09 -.492E-09
 -----------------------------------------------------------------------------------------------
   0.947E-13 0.568E-13 -.307E-14   -.140E-15 0.185E-15 -.327E-15   0.131E-16 -.215E-16 -.163E-17   -.711E-15 0.224E-14 0.488E-14
 
 
 POSITION                                       TOTAL-FORCE (eV/Angst)
 -----------------------------------------------------------------------------------
      0.00000      0.00000      0.00000         0.000000      0.000000      0.000000
      1.35750      1.35750      1.35750        -0.000000     -0.000000     -0.000000
 -----------------------------------------------------------------------------------
    total drift:                                0.000000      0.000000      0.000000


--------------------------------------------------------------------------------------------------------



  FREE ENERGIE OF THE ION-ELECTRON SYSTEM (eV)
  ---------------------------------------------------
  free  energy   TOTEN  =        -8.84903483 eV

  energy  without entropy=       -8.84903483  energy(sigma->0) =       -8.84903483
 


--------------------------------------------------------------------------------------------------------


    POTLOK:  cpu time      0.0139: real time      0.0139


--------------------------------------------------------------------------------------------------------


     LOOP+:  cpu time      2.5703: real time      2.5708
    4ORBIT:  cpu time      0.0000: real time      0.0000



 total charge

# of ion       s       p       d       tot
------------------------------------------
    1        0.708   0.993   0.000   1.701
    2        0.708   0.993   0.000   1.701
--------------------------------------------------
tot          1.415   1.986   0.000   3.402
 

 total amount of memory used by VASP MPI-rank0    43049. kBytes
=======================================================================

   base                                    :      30000. kBytes
   nonl-proj                               :       2183. kBytes
   fftplans                                :       1675. kBytes
   grid                                    :       2380. kBytes
   one-center                              :          3. kBytes
   wavefun                                 :       6808. kBytes
 
  
  
 General timing and accounting informations for this job:
 ========================================================
  
                  Total CPU time used (sec):        3.150
                            User time (sec):        2.829
                          System time (sec):        0.321
                         Elapsed time (sec):        3.626
  
                   Maximum memory used (kb):      161156.
                   Average memory used (kb):          N/A
  
                          Minor page faults:        16768
                          Major page faults:            1
                 Voluntary context switches:         1135
