 vasp.6.6.0 06Mar2026 (build Apr 30 2026 15:36:16) complex                      
  
 executed on             LinuxIFC date 2026.05.01  10:49:49
 running    8 mpi-ranks, on    1 nodes
 distrk:  each k-point on    4 cores,    2 groups
 distr:  one band on NCORE=   4 cores,    1 groups


--------------------------------------------------------------------------------------------------------


 INCAR:
   SYSTEM = Si_diamond_PBE_band_vasp
   GGA = PE
   ENCUT = 400
   EDIFF = 1E-6
   NELM = 100
   PREC = Accurate
   ALGO = Fast
   LREAL = .FALSE.
   IBRION = -1
   NSW = 0
   ISMEAR = 0
   SIGMA = 0.05
   LWAVE = .FALSE.
   KPAR = 2
   NCORE = 4
   ICHARG = 2
   LCHARG = .TRUE.

 POTCAR:   PAW_PBE Si 05Jan2001                   
 POTCAR:   PAW_PBE Si 05Jan2001                   
   VRHFIN =Si: s2p2                                                                                 
   LEXCH  = PE                                                                                      
   EATOM  =   103.0669 eV,    7.5752 Ry                                                             
                                                                                                    
   TITEL  = PAW_PBE Si 05Jan2001                                                                    
   LULTRA =        F    use ultrasoft PP ?                                                          
   IUNSCR =        1    unscreen: 0-lin 1-nonlin 2-no                                               
   RPACOR =    1.500    partial core radius                                                         
   POMASS =   28.085; ZVAL   =    4.000    mass and valenz                                          
   RCORE  =    1.900    outmost cutoff radius                                                       
   RWIGS  =    2.480; RWIGS  =    1.312    wigner-seitz radius (au A)                               
   ENMAX  =  245.345; ENMIN  =  184.009 eV                                                          
   ICORE  =        2    local potential                                                             
   LCOR   =        T    correct aug charges                                                         
   LPAW   =        T    paw PP                                                                      
   EAUG   =  322.069                                                                                
   DEXC   =    -.007                                                                                
   RMAX   =    2.944    core radius for proj-oper                                                   
   RAUG   =    1.300    factor for augmentation sphere                                              
   RDEP   =    1.993    radius for radial grids                                                     
   QCUT   =   -4.246; QGAM   =    8.493    optimization parameters                                  
                                                                                                    
   Description                                                                                      
     l     E      TYP  RCUT    TYP  RCUT                                                            
     0   .000     23  1.900                                                                         
     0   .000     23  1.900                                                                         
     1   .000     23  1.900                                                                         
     1   .000     23  1.900                                                                         
     2   .000      7  1.900                                                                         
  local pseudopotential read in
  partial core-charges read in
  atomic valenz-charges read in
  non local Contribution for L=           0  read in
    real space projection operators read in
  non local Contribution for L=           0  read in
    real space projection operators read in
  non local Contribution for L=           1  read in
    real space projection operators read in
  non local Contribution for L=           1  read in
    real space projection operators read in
    PAW grid and wavefunctions read in
 
   number of l-projection  operators is LMAX  =           4
   number of lm-projection operators is LMMAX =           8
 
 PAW_PBE Si 05Jan2001                   :
 energy of atom  1       EATOM= -103.0669
 kinetic energy error for atom=    0.0012 (will be added to EATOM!!)
 
 
 POSCAR: Si diamond primitive PBE a=5.43 Angstrom
  positions in direct lattice
  No initial velocities read in


 exchange-correlation table for PE
   RHO(1)=    0.500       N(1)  =     2000
   RHO(2)=  100.500       N(2)  =     4000
 


--------------------------------------------------------------------------------------------------------


 ion  position               nearest neighbor table
   1  0.000  0.000  0.000-   2 2.35   2 2.35   2 2.35   2 2.35
   2  0.250  0.250  0.250-   1 2.35   1 2.35   1 2.35   1 2.35
 
  LATTYP: Found a face centered cubic cell.
 ALAT       =     5.4300000000
  
  Lattice vectors:
  
 A1 = (   0.0000000000,   2.7150000000,   2.7150000000)
 A2 = (   2.7150000000,   0.0000000000,   2.7150000000)
 A3 = (   2.7150000000,   2.7150000000,   0.0000000000)


Analysis of symmetry for initial positions (statically):
=====================================================================
 Subroutine PRICEL returns:
 Original cell was already a primitive cell.
 

 Routine SETGRP: Setting up the symmetry group for a 
 face centered cubic supercell.


 Subroutine GETGRP returns: Found 48 space group operations
 (whereof 24 operations were pure point group operations)
 out of a pool of 48 trial point group operations.


The static configuration has the point symmetry T_d .
 The point group associated with its full space group is O_h .


Analysis of symmetry for dynamics (positions and initial velocities):
=====================================================================
 Subroutine PRICEL returns:
 Original cell was already a primitive cell.
 

 Routine SETGRP: Setting up the symmetry group for a 
 face centered cubic supercell.


 Subroutine GETGRP returns: Found 48 space group operations
 (whereof 24 operations were pure point group operations)
 out of a pool of 48 trial point group operations.


The dynamic configuration has the point symmetry T_d .
 The point group associated with its full space group is O_h .


 Subroutine INISYM returns: Found 48 space group operations
 (whereof 24 operations are pure point group operations),
 and found     1 'primitive' translations


----------------------------------------------------------------------------------------

                                     Primitive cell                                     

  volume of cell :      40.0258

  direct lattice vectors                    reciprocal lattice vectors
     0.000000000  2.715000000  2.715000000    -0.184162063  0.184162063  0.184162063
     2.715000000  0.000000000  2.715000000     0.184162063 -0.184162063  0.184162063
     2.715000000  2.715000000  0.000000000     0.184162063  0.184162063 -0.184162063

  length of vectors
     3.839589822  3.839589822  3.839589822     0.318978049  0.318978049  0.318978049

  position of ions in fractional coordinates (direct lattice)
     0.000000000  0.000000000  0.000000000
     0.250000000  0.250000000  0.250000000

  ion indices of the primitive-cell ions
   primitive index   ion index
                 1           1
                 2           2

----------------------------------------------------------------------------------------

 
 
 KPOINTS: Si diamond SCF Gamma-centered 8x8x8     

Automatic generation of k-mesh.
 Grid dimensions read from file:
 generate k-points for:    8    8    8

 Generating k-lattice:

  Cartesian coordinates                     Fractional coordinates (reciprocal lattice)
    -0.023020258  0.023020258  0.023020258     0.125000000  0.000000000  0.000000000
     0.023020258 -0.023020258  0.023020258     0.000000000  0.125000000 -0.000000000
     0.023020258  0.023020258 -0.023020258    -0.000000000 -0.000000000  0.125000000

  Length of vectors
     0.039872256  0.039872256  0.039872256

  Shift w.r.t. Gamma in fractional coordinates (k-lattice)
     0.000000000  0.000000000  0.000000000

 
 Subroutine IBZKPT returns following result:
 ===========================================
 
 Found     29 irreducible k-points:
 
 Following reciprocal coordinates:
            Coordinates               Weight
  0.000000  0.000000  0.000000      1.000000
  0.125000  0.000000  0.000000      8.000000
  0.250000  0.000000  0.000000      8.000000
  0.375000  0.000000  0.000000      8.000000
  0.500000  0.000000  0.000000      4.000000
  0.125000  0.125000  0.000000      6.000000
  0.250000  0.125000  0.000000     24.000000
  0.375000  0.125000  0.000000     24.000000
  0.500000  0.125000  0.000000     24.000000
 -0.375000  0.125000  0.000000     24.000000
 -0.250000  0.125000  0.000000     24.000000
 -0.125000  0.125000  0.000000     12.000000
  0.250000  0.250000  0.000000      6.000000
  0.375000  0.250000  0.000000     24.000000
  0.500000  0.250000  0.000000     24.000000
 -0.375000  0.250000  0.000000     24.000000
 -0.250000  0.250000  0.000000     12.000000
  0.375000  0.375000  0.000000      6.000000
  0.500000  0.375000  0.000000     24.000000
 -0.375000  0.375000  0.000000     12.000000
  0.500000  0.500000  0.000000      3.000000
  0.375000  0.250000  0.125000     24.000000
  0.500000  0.250000  0.125000     48.000000
 -0.375000  0.250000  0.125000     24.000000
  0.500000  0.375000  0.125000     24.000000
 -0.375000  0.375000  0.125000     48.000000
 -0.250000  0.375000  0.125000     24.000000
 -0.375000  0.500000  0.125000     12.000000
 -0.250000  0.500000  0.250000      6.000000
 
 Following cartesian coordinates:
            Coordinates               Weight
  0.000000  0.000000  0.000000      1.000000
 -0.023020  0.023020  0.023020      8.000000
 -0.046041  0.046041  0.046041      8.000000
 -0.069061  0.069061  0.069061      8.000000
 -0.092081  0.092081  0.092081      4.000000
  0.000000  0.000000  0.046041      6.000000
 -0.023020  0.023020  0.069061     24.000000
 -0.046041  0.046041  0.092081     24.000000
 -0.069061  0.069061  0.115101     24.000000
  0.092081 -0.092081 -0.046041     24.000000
  0.069061 -0.069061 -0.023020     24.000000
  0.046041 -0.046041  0.000000     12.000000
  0.000000  0.000000  0.092081      6.000000
 -0.023020  0.023020  0.115101     24.000000
 -0.046041  0.046041  0.138122     24.000000
  0.115101 -0.115101 -0.023020     24.000000
  0.092081 -0.092081  0.000000     12.000000
  0.000000  0.000000  0.138122      6.000000
 -0.023020  0.023020  0.161142     24.000000
  0.138122 -0.138122  0.000000     12.000000
  0.000000  0.000000  0.184162      3.000000
  0.000000  0.046041  0.092081     24.000000
 -0.023020  0.069061  0.115101     48.000000
  0.138122 -0.092081 -0.046041     24.000000
  0.000000  0.046041  0.138122     24.000000
  0.161142 -0.115101 -0.023020     48.000000
  0.138122 -0.092081  0.000000     24.000000
  0.184162 -0.138122  0.000000     12.000000
  0.184162 -0.092081  0.000000      6.000000
 


--------------------------------------------------------------------------------------------------------




 Dimension of arrays:
   k-points           NKPTS =     29   k-points in BZ     NKDIM =     29   number of bands    NBANDS=      8
   number of dos      NEDOS =    301   number of ions     NIONS =      2
   non local maximal  LDIM  =      4   non local SUM 2l+1 LMDIM =      8
   total plane-waves  NPLWV =  21952
   max r-space proj   IRMAX =      1   max aug-charges    IRDMAX=  18535
   dimension x,y,z NGX =    28 NGY =   28 NGZ =   28
   dimension x,y,z NGXF=    56 NGYF=   56 NGZF=   56
   support grid    NGXF=    56 NGYF=   56 NGZF=   56
   ions per type =               2
   NGX,Y,Z   is equivalent  to a cutoff of  12.12, 12.12, 12.12 a.u.
   NGXF,Y,Z  is equivalent  to a cutoff of  24.25, 24.25, 24.25 a.u.

 SYSTEM =  Si_diamond_PBE_band_vasp                
 POSCAR =  Si diamond primitive PBE a=5.43 Angstrom

 Startparameter for this run:
   NWRITE =      2    write-flag & timer
   PREC   = accura    normal or accurate (medium, high low for compatibility)
   ISTART =      0    job   : 0-new  1-cont  2-samecut
   ICHARG =      2    charge: 1-file 2-atom 10-const
   ISPIN  =      1    spin polarized calculation?
   LNONCOLLINEAR =      F non collinear calculations
   LSORBIT =      F    spin-orbit coupling
   INIWAV =      1    electr: 0-lowe 1-rand  2-diag
   LASPH  =      F    aspherical Exc in radial PAW
 Electronic Relaxation 1
   ENCUT  =  400.0 eV  29.40 Ry    5.42 a.u.   6.26  6.26  6.26*2*pi/ulx,y,z
   ENINI  =  400.0     initial cutoff
   ENAUG  =  322.1 eV  augmentation charge cutoff
   NELM   =    100;   NELMIN=  2; NELMDL=  0     # of ELM steps 
   EDIFF  = 0.1E-05   stopping-criterion for ELM
   LREAL  =      F    real-space projection
   NLSPLINE    = F    spline interpolate recip. space projectors
   LCOMPAT=      F    compatible to vasp.4.4
   GGA_COMPAT  = T    GGA compatible to vasp.4.4-vasp.4.6
   LMAXPAW     = -100 max onsite density
   LMAXMIX     =    2 max onsite mixed and CHGCAR
   VOSKOWN=      0    Vosko Wilk Nusair interpolation
   ROPT   =    0.00000

 Ewald summation
   EWALD_CUTOFF =   4.00

 Ionic relaxation
   EDIFFG = 0.1E-04   stopping-criterion for IOM
   NSW    =      0    number of steps for IOM
   NBLOCK =      1;   KBLOCK =      1    inner block; outer block 
   IBRION =     -1    ionic relax: 0-MD 1-quasi-New 2-CG
   NFREE  =      0    steps in history (QN), initial steepest desc. (CG)
   ISIF   =      2    stress and relaxation
   IWAVPR =     10    prediction:  0-non 1-charg 2-wave 3-comb
   MAXDIS =   0.00    maximum displacement; if above reset density
   ISYM   =      2    0-nonsym 1-usesym 2-fastsym
   LCORR  =      T    Harris-Foulkes like correction to forces

   POTIM  = 0.5000    time-step for ionic-motion
   TEIN   =    0.0    initial temperature
   TEBEG  =    0.0;   TEEND  =   0.0 temperature during run
   SMASS  =  -3.00    Nose mass-parameter (am)
   estimated Nose-frequenzy (Omega)   =  0.10E-29 period in steps = 0.13E+47 mass=  -0.337E-27a.u.
   SCALEE = 1.0000    scale energy and forces
   NPACO  =    256;   APACO  = 10.0  distance and # of slots for P.C.
   PSTRESS=    0.0 pullay stress

  Mass of Ions in am
   POMASS =  28.09
  Ionic Valenz
   ZVAL   =   4.00
  Atomic Wigner-Seitz radii
   RWIGS  =  -1.00
  virtual crystal weights 
   VCA    =   1.00
   NELECT =       8.0000    total number of electrons
   NUPDOWN=      -1.0000    fix difference up-down

 DOS related values:
   EMIN   =  10.00;   EMAX   =-10.00  energy-range for DOS
   EFERMI =   0.00;   METHOD = LEGACY      
   ISMEAR =     0;   SIGMA  =   0.05  broadening in eV -4-tet -1-fermi 0-gaus
   EFERMI_NEDOS =   21; number of points for ismear=-14 and -15

 Electronic relaxation 2 (details)
   IALGO  =     68    algorithm
   LDIAG  =      T    sub-space diagonalisation (order eigenvalues)
   LSUBROT=      F    optimize rotation matrix (better conditioning)
   LROBUST=      F    robust break criterion during scf (extrapolated energy error)
   ISEARCH=      0    line search for conjugate gradient (0, 1=use gradient)
   TURBO    =      0    0=normal 1=particle mesh
   IRESTART =      0    0=no restart 2=restart with 2 vectors
   NREBOOT  =      0    no. of reboots
   NMIN     =      0    reboot dimension
   EREF     =   0.00    reference energy to select bands
   IMIX   =      4    mixing-type and parameters
     AMIX     =   0.40;   BMIX     =  1.00
     AMIX_MAG =   1.60;   BMIX_MAG =  1.00
     AMIN     =   0.10
     WC   =   100.;   INIMIX=   1;  MIXPRE=   1;  MAXMIX= -45

 Intra band minimization:
   WEIMIN = 0.0000     energy-eigenvalue tresh-hold
   EBREAK =  0.31E-07  absolut break condition
   DEPER  =   0.30     relativ break condition  

   TIME   =   0.40     timestep for ELM

  volume/ion in A,a.u.               =      20.01       135.05
  Fermi-wavevector in a.u.,A,eV,Ry     =   0.957176  1.808800 12.465458  0.916185
  Thomas-Fermi vector in A             =   2.086170
 
 Write flags
   LH5          =      F    write vaspwave.h5 (instead of legacy files WAVECAR, CHGCAR, etc.)
   LWAVE        =      F    write Kohn-Sham orbitals (WAVECAR/vaspwave.h5)
   LDOWNSAMPLE  =      F    k-point downsampling of WAVECAR
   LCHARG       =      T    write restart densities (CHGCAR/vaspwave.h5)
   LCHARGH5     =      F    write charge density to vaspwave.h5
   LTAU         =      F    evaluate kinetic energy density (TAUCAR/vaspwave.h5)
   LVTOT        =      F    write LOCPOT, total local potential
   LVHAR        =      F    write LOCPOT, Hartree potential only
   WRT_POTENTIAL= None    ! write potential to vaspout.h5
   WRT_DENSITY  = None    ! write densities to vaspout.h5
   LELF         =      F    write electronic localiz. function (ELF)
   LORBIT       =      0    0 simple, 1 ext, 2 COOP (PROOUT), +10 PAW based schemes


 Python interface
   PLUGINS active      =      F    recompile with -DPLUGINS to activate
 
 Dipole corrections
   LMONO      =      F    monopole corrections only (constant potential shift)
   LDIPOL     =      F    correct potential (dipole corrections)
   IDIPOL     =      0    1-x, 2-y, 3-z, 4-all directions 
   EPSILON    =  1.0000000 bulk dielectric constant
   LVACPOTAV  =      F  vacuum potentials using an averaging scheme for the charge density
   VACPOTFLAT =  0.1000000 required flatness to determine vacuum potential
 
Coulomb truncation method
  LTRUNCATE          =      F  Coulomb kernel truncation to be used

 
 Exchange correlation treatment:
   GGA     = PE    functional components
   XC_C    = 1    coefficients multiplying the functional components
   LIBXC   =     F    Libxc                    
   VOSKOWN =     0    Vosko Wilk Nusair interpolation
   LHFCALC =     F    Hartree Fock is set to
   LHFONE  =     F    Hartree Fock one center treatment
   AEXX    =    0.0000 exact exchange contribution
   BEXX    =    1.0000 short-range exact exchange contribution

 Parameters of functionals:
   PE:
     No parameter
 
 Van der Waals corrections
   IVDW    =     0    specifies the selected vdW correction

 Linear response parameters
   LEPSILON=     F    determine dielectric tensor
   LRPA    =     F    only Hartree local field effects (RPA)
   LNABLA  =     F    use nabla operator in PAW spheres
   LVEL    =     F    velocity operator in full k-point grid
   CSHIFT  =0.1000    complex shift for real part using Kramers Kronig
   OMEGAMAX=  -1.0    maximum frequency
   DEG_THRESHOLD= 0.2000000E-02 threshold for treating states as degnerate
   RTIME   =   -0.100 relaxation time in fs
  (WPLASMAI=    0.000 imaginary part of plasma frequency in eV, 0.658/RTIME)
   DFIELD  = 0.0000000 0.0000000 0.0000000 field for delta impulse in time
 
  Optional k-point grid parameters
   LKPOINTS_OPT  =     F    use optional k-point grid
   KPOINTS_OPT_MODE=     1    mode for optional k-point grid
 
 Orbital magnetization related:
   ORBITALMAG=     F  switch on orbital magnetization
   LCHIMAG   =     F  perturbation theory with respect to B field
   DQ        =  0.001000  dq finite difference perturbation B field
   LLRAUG    =     F  two centre corrections for induced B field
   LZORA     =     F  scalar relativistic for chemical shift
   LSOSHIFT  =     F  spin-orbit for chemical shift
   LBONE     =     F  B-component reconstruction in AE one-centre
   LVGVCALC  =     T  calculate vGv susceptibility
   LVGVAPPL  =     F  apply vGv susceptibility instead of pGv for G=0

 Random number generation:
   RANDOM_GENERATOR = DEFAULT
   PCG_SEED         = not used


--------------------------------------------------------------------------------------------------------


 Static calculation
 charge density and potential will be updated during run
 non-spin polarized calculation
 RMM-DIIS sequential band-by-band and
  variant of blocked Davidson during initial phase
 perform sub-space diagonalisation
    before iterative eigenvector-optimisation
 modified Broyden-mixing scheme, WC =      100.0
 initial mixing is a Kerker type mixing with AMIX =  0.4000 and BMIX =      1.0000
 Hartree-type preconditioning will be used
 using additional bands            4
 reciprocal scheme for non local part
 use partial core corrections
 calculate Harris-corrections to forces 
   (improved forces if not selfconsistent)
 use gradient corrections 
 use of overlap-Matrix (Vanderbilt PP)
 Gauss-broadening in eV      SIGMA  =   0.05


--------------------------------------------------------------------------------------------------------


  energy-cutoff  :      400.00
  volume of cell :       40.03
      direct lattice vectors                 reciprocal lattice vectors
     0.000000000  2.715000000  2.715000000    -0.184162063  0.184162063  0.184162063
     2.715000000  0.000000000  2.715000000     0.184162063 -0.184162063  0.184162063
     2.715000000  2.715000000  0.000000000     0.184162063  0.184162063 -0.184162063

  length of vectors
     3.839589822  3.839589822  3.839589822     0.318978049  0.318978049  0.318978049


 
 k-points in units of 2pi/SCALE and weight: Si diamond SCF Gamma-centered 8x8x8     
   0.00000000  0.00000000  0.00000000       0.002
  -0.02302026  0.02302026  0.02302026       0.016
  -0.04604052  0.04604052  0.04604052       0.016
  -0.06906077  0.06906077  0.06906077       0.016
  -0.09208103  0.09208103  0.09208103       0.008
   0.00000000  0.00000000  0.04604052       0.012
  -0.02302026  0.02302026  0.06906077       0.047
  -0.04604052  0.04604052  0.09208103       0.047
  -0.06906077  0.06906077  0.11510129       0.047
   0.09208103 -0.09208103 -0.04604052       0.047
   0.06906077 -0.06906077 -0.02302026       0.047
   0.04604052 -0.04604052  0.00000000       0.023
   0.00000000  0.00000000  0.09208103       0.012
  -0.02302026  0.02302026  0.11510129       0.047
  -0.04604052  0.04604052  0.13812155       0.047
   0.11510129 -0.11510129 -0.02302026       0.047
   0.09208103 -0.09208103  0.00000000       0.023
   0.00000000  0.00000000  0.13812155       0.012
  -0.02302026  0.02302026  0.16114180       0.047
   0.13812155 -0.13812155  0.00000000       0.023
   0.00000000  0.00000000  0.18416206       0.006
   0.00000000  0.04604052  0.09208103       0.047
  -0.02302026  0.06906077  0.11510129       0.094
   0.13812155 -0.09208103 -0.04604052       0.047
   0.00000000  0.04604052  0.13812155       0.047
   0.16114180 -0.11510129 -0.02302026       0.094
   0.13812155 -0.09208103  0.00000000       0.047
   0.18416206 -0.13812155  0.00000000       0.023
   0.18416206 -0.09208103  0.00000000       0.012
 
 k-points in reciprocal lattice and weights: Si diamond SCF Gamma-centered 8x8x8     
   0.00000000  0.00000000  0.00000000       0.002
   0.12500000  0.00000000  0.00000000       0.016
   0.25000000  0.00000000  0.00000000       0.016
   0.37500000  0.00000000  0.00000000       0.016
   0.50000000  0.00000000  0.00000000       0.008
   0.12500000  0.12500000  0.00000000       0.012
   0.25000000  0.12500000  0.00000000       0.047
   0.37500000  0.12500000  0.00000000       0.047
   0.50000000  0.12500000  0.00000000       0.047
  -0.37500000  0.12500000  0.00000000       0.047
  -0.25000000  0.12500000  0.00000000       0.047
  -0.12500000  0.12500000  0.00000000       0.023
   0.25000000  0.25000000  0.00000000       0.012
   0.37500000  0.25000000  0.00000000       0.047
   0.50000000  0.25000000  0.00000000       0.047
  -0.37500000  0.25000000  0.00000000       0.047
  -0.25000000  0.25000000  0.00000000       0.023
   0.37500000  0.37500000  0.00000000       0.012
   0.50000000  0.37500000  0.00000000       0.047
  -0.37500000  0.37500000  0.00000000       0.023
   0.50000000  0.50000000  0.00000000       0.006
   0.37500000  0.25000000  0.12500000       0.047
   0.50000000  0.25000000  0.12500000       0.094
  -0.37500000  0.25000000  0.12500000       0.047
   0.50000000  0.37500000  0.12500000       0.047
  -0.37500000  0.37500000  0.12500000       0.094
  -0.25000000  0.37500000  0.12500000       0.047
  -0.37500000  0.50000000  0.12500000       0.023
  -0.25000000  0.50000000  0.25000000       0.012
 
 position of ions in fractional coordinates (direct lattice) 
   0.00000000  0.00000000  0.00000000
   0.25000000  0.25000000  0.25000000
 
 position of ions in cartesian coordinates  (Angst):
   0.00000000  0.00000000  0.00000000
   1.35750000  1.35750000  1.35750000
 


--------------------------------------------------------------------------------------------------------


 k-point     1 :   0.0000 0.0000 0.0000  plane waves:     725
 k-point     2 :   0.1250 0.0000 0.0000  plane waves:     724
 k-point     3 :   0.2500 0.0000 0.0000  plane waves:     733
 k-point     4 :   0.3750 0.0000 0.0000  plane waves:     739
 k-point     5 :   0.5000 0.0000 0.0000  plane waves:     718
 k-point     6 :   0.1250 0.1250 0.0000  plane waves:     717
 k-point     7 :   0.2500 0.1250 0.0000  plane waves:     722
 k-point     8 :   0.3750 0.1250 0.0000  plane waves:     736
 k-point     9 :   0.5000 0.1250 0.0000  plane waves:     726
 k-point    10 :  -0.3750 0.1250 0.0000  plane waves:     730
 k-point    11 :  -0.2500 0.1250 0.0000  plane waves:     733
 k-point    12 :  -0.1250 0.1250 0.0000  plane waves:     737
 k-point    13 :   0.2500 0.2500 0.0000  plane waves:     729
 k-point    14 :   0.3750 0.2500 0.0000  plane waves:     724
 k-point    15 :   0.5000 0.2500 0.0000  plane waves:     724
 k-point    16 :  -0.3750 0.2500 0.0000  plane waves:     722
 k-point    17 :  -0.2500 0.2500 0.0000  plane waves:     716
 k-point    18 :   0.3750 0.3750 0.0000  plane waves:     725
 k-point    19 :   0.5000 0.3750 0.0000  plane waves:     730
 k-point    20 :  -0.3750 0.3750 0.0000  plane waves:     724
 k-point    21 :   0.5000 0.5000 0.0000  plane waves:     740
 k-point    22 :   0.3750 0.2500 0.1250  plane waves:     733
 k-point    23 :   0.5000 0.2500 0.1250  plane waves:     729
 k-point    24 :  -0.3750 0.2500 0.1250  plane waves:     722
 k-point    25 :   0.5000 0.3750 0.1250  plane waves:     728
 k-point    26 :  -0.3750 0.3750 0.1250  plane waves:     721
 k-point    27 :  -0.2500 0.3750 0.1250  plane waves:     726
 k-point    28 :  -0.3750 0.5000 0.1250  plane waves:     730
 k-point    29 :  -0.2500 0.5000 0.2500  plane waves:     724

 maximum and minimum number of plane-waves per node :       191      174

 maximum number of plane-waves:       740
 maximum index in each direction: 
   IXMAX=    6   IYMAX=    6   IZMAX=    6
   IXMIN=   -6   IYMIN=   -6   IZMIN=   -6


 parallel 3D FFT for wavefunctions:
    minimum data exchange during FFTs selected (reduces bandwidth)
 parallel 3D FFT for charge:
    minimum data exchange during FFTs selected (reduces bandwidth)


 total amount of memory used by VASP MPI-rank0    35139. kBytes
=======================================================================

   base                                    :      30000. kBytes
   nonl-proj                               :        354. kBytes
   fftplans                                :       1675. kBytes
   grid                                    :       2380. kBytes
   one-center                              :          3. kBytes
   wavefun                                 :        727. kBytes
 
     INWAV:  cpu time      0.0000: real time      0.0001
 Broyden mixing: mesh for mixing (old mesh)
   NGX = 13   NGY = 13   NGZ = 13
  (NGX  = 56   NGY  = 56   NGZ  = 56)
  gives a total of   2197 points

 initial charge density was supplied:
 charge density of overlapping atoms calculated
 number of electron       8.0000000 magnetization 
 keeping initial charge density in first step


--------------------------------------------------------------------------------------------------------


 Maximum index for augmentation-charges         4527 (set IRDMAX)


--------------------------------------------------------------------------------------------------------


 First call to EWALD:  gamma=   0.518
 Maximum number of real-space cells   3x   3x   3
 Maximum number of reciprocal cells   3x   3x   3

    FEWALD:  cpu time      0.0006: real time      0.0007


--------------------------------------- Ionic step        1  -------------------------------------------




--------------------------------------- Iteration      1(   1)  ---------------------------------------


    POTLOK:  cpu time      0.0173: real time      0.0173
    SETDIJ:  cpu time      0.0010: real time      0.0010
     EDDAV:  cpu time      0.0524: real time      0.0524
       DOS:  cpu time      0.0003: real time      0.0003
    --------------------------------------------
      LOOP:  cpu time      0.0718: real time      0.0719

 eigenvalue-minimisations  :   464
 total energy-change (2. order) : 0.5284443E+01  (-0.2986448E+03)
 number of electron       8.0000000 magnetization 
 augmentation part        8.0000000 magnetization 

 Free energy of the ion-electron system (eV)
  ---------------------------------------------------
  alpha Z        PSCENC =         3.36414203
  Ewald energy   TEWEN  =      -228.56352493
  -Hartree energ DENC   =       -11.00108243
  -exchange      EXHF   =         0.00000000
  -V(xc)+E(xc)   XCENC  =       -18.60186955
  PAW double counting   =        65.95520812      -30.76852678
  entropy T*S    EENTRO =        -0.00266197
  eigenvalues    EBANDS =        18.77126592
  atomic energy  EATOM  =       206.13149246
  Solvation  Ediel_sol  =         0.00000000
  ext. energy  EPLUGINS =         0.00000000
  ---------------------------------------------------
  free energy    TOTEN  =         5.28444286 eV

  energy without entropy =        5.28710483  energy(sigma->0) =        5.28577385


--------------------------------------------------------------------------------------------------------




--------------------------------------- Iteration      1(   2)  ---------------------------------------


     EDDAV:  cpu time      0.0705: real time      0.0707
       DOS:  cpu time      0.0001: real time      0.0001
    --------------------------------------------
      LOOP:  cpu time      0.0700: real time      0.0702

 eigenvalue-minimisations  :   728
 total energy-change (2. order) :-0.1610414E+02  (-0.1555032E+02)
 number of electron       8.0000000 magnetization 
 augmentation part        8.0000000 magnetization 

 Free energy of the ion-electron system (eV)
  ---------------------------------------------------
  alpha Z        PSCENC =         3.36414203
  Ewald energy   TEWEN  =      -228.56352493
  -Hartree energ DENC   =       -11.00108243
  -exchange      EXHF   =         0.00000000
  -V(xc)+E(xc)   XCENC  =       -18.60186955
  PAW double counting   =        65.95520812      -30.76852678
  entropy T*S    EENTRO =        -0.00000000
  eigenvalues    EBANDS =         2.66445953
  atomic energy  EATOM  =       206.13149246
  Solvation  Ediel_sol  =         0.00000000
  ext. energy  EPLUGINS =         0.00000000
  ---------------------------------------------------
  free energy    TOTEN  =       -10.81970156 eV

  energy without entropy =      -10.81970156  energy(sigma->0) =      -10.81970156


--------------------------------------------------------------------------------------------------------




--------------------------------------- Iteration      1(   3)  ---------------------------------------


     EDDAV:  cpu time      0.0550: real time      0.0551
       DOS:  cpu time      0.0001: real time      0.0001
    --------------------------------------------
      LOOP:  cpu time      0.0551: real time      0.0552

 eigenvalue-minimisations  :   552
 total energy-change (2. order) :-0.2008425E+00  (-0.2008425E+00)
 number of electron       8.0000000 magnetization 
 augmentation part        8.0000000 magnetization 

 Free energy of the ion-electron system (eV)
  ---------------------------------------------------
  alpha Z        PSCENC =         3.36414203
  Ewald energy   TEWEN  =      -228.56352493
  -Hartree energ DENC   =       -11.00108243
  -exchange      EXHF   =         0.00000000
  -V(xc)+E(xc)   XCENC  =       -18.60186955
  PAW double counting   =        65.95520812      -30.76852678
  entropy T*S    EENTRO =        -0.00000000
  eigenvalues    EBANDS =         2.46361702
  atomic energy  EATOM  =       206.13149246
  Solvation  Ediel_sol  =         0.00000000
  ext. energy  EPLUGINS =         0.00000000
  ---------------------------------------------------
  free energy    TOTEN  =       -11.02054407 eV

  energy without entropy =      -11.02054407  energy(sigma->0) =      -11.02054407


--------------------------------------------------------------------------------------------------------




--------------------------------------- Iteration      1(   4)  ---------------------------------------


     EDDAV:  cpu time      0.0739: real time      0.0741
       DOS:  cpu time      0.0001: real time      0.0001
    --------------------------------------------
      LOOP:  cpu time      0.0741: real time      0.0742

 eigenvalue-minimisations  :   800
 total energy-change (2. order) :-0.1018872E-02  (-0.1018872E-02)
 number of electron       8.0000000 magnetization 
 augmentation part        8.0000000 magnetization 

 Free energy of the ion-electron system (eV)
  ---------------------------------------------------
  alpha Z        PSCENC =         3.36414203
  Ewald energy   TEWEN  =      -228.56352493
  -Hartree energ DENC   =       -11.00108243
  -exchange      EXHF   =         0.00000000
  -V(xc)+E(xc)   XCENC  =       -18.60186955
  PAW double counting   =        65.95520812      -30.76852678
  entropy T*S    EENTRO =        -0.00000000
  eigenvalues    EBANDS =         2.46259815
  atomic energy  EATOM  =       206.13149246
  Solvation  Ediel_sol  =         0.00000000
  ext. energy  EPLUGINS =         0.00000000
  ---------------------------------------------------
  free energy    TOTEN  =       -11.02156294 eV

  energy without entropy =      -11.02156294  energy(sigma->0) =      -11.02156294


--------------------------------------------------------------------------------------------------------




--------------------------------------- Iteration      1(   5)  ---------------------------------------


     EDDAV:  cpu time      0.0547: real time      0.0549
       DOS:  cpu time      0.0002: real time      0.0002
    CHARGE:  cpu time      0.0067: real time      0.0067
    MIXING:  cpu time      0.0007: real time      0.0007
    --------------------------------------------
      LOOP:  cpu time      0.0621: real time      0.0623

 eigenvalue-minimisations  :   552
 total energy-change (2. order) :-0.5094269E-06  (-0.5097905E-06)
 number of electron       8.0000001 magnetization 
 augmentation part       -0.4706805 magnetization 

 Broyden mixing:
  rms(total) = 0.30154E+00    rms(broyden)= 0.30154E+00
  rms(prec ) = 0.87484E+00
  weight for this iteration     100.00

 Free energy of the ion-electron system (eV)
  ---------------------------------------------------
  alpha Z        PSCENC =         3.36414203
  Ewald energy   TEWEN  =      -228.56352493
  -Hartree energ DENC   =       -11.00108243
  -exchange      EXHF   =         0.00000000
  -V(xc)+E(xc)   XCENC  =       -18.60186955
  PAW double counting   =        65.95520812      -30.76852678
  entropy T*S    EENTRO =        -0.00000000
  eigenvalues    EBANDS =         2.46259764
  atomic energy  EATOM  =       206.13149246
  Solvation  Ediel_sol  =         0.00000000
  ext. energy  EPLUGINS =         0.00000000
  ---------------------------------------------------
  free energy    TOTEN  =       -11.02156345 eV

  energy without entropy =      -11.02156345  energy(sigma->0) =      -11.02156345


--------------------------------------------------------------------------------------------------------




--------------------------------------- Iteration      1(   6)  ---------------------------------------


    POTLOK:  cpu time      0.0161: real time      0.0162
    SETDIJ:  cpu time      0.0009: real time      0.0009
    EDDIAG:  cpu time      0.0167: real time      0.0167
  RMM-DIIS:  cpu time      0.0393: real time      0.0393
    ORTHCH:  cpu time      0.0003: real time      0.0003
       DOS:  cpu time      0.0002: real time      0.0002
    CHARGE:  cpu time      0.0056: real time      0.0056
    MIXING:  cpu time      0.0008: real time      0.0008
    --------------------------------------------
      LOOP:  cpu time      0.0799: real time      0.0801

 eigenvalue-minimisations  :   465
 total energy-change (2. order) : 0.1255580E+00  (-0.4965504E-02)
 number of electron       8.0000001 magnetization 
 augmentation part       -0.4649477 magnetization 

 Broyden mixing:
  rms(total) = 0.17907E+00    rms(broyden)= 0.17907E+00
  rms(prec ) = 0.51596E+00
  weight for this iteration     100.00

 eigenvalues of (default mixing * dielectric matrix)
  average eigenvalue GAMMA=   2.4456
  2.4456

 Free energy of the ion-electron system (eV)
  ---------------------------------------------------
  alpha Z        PSCENC =         3.36414203
  Ewald energy   TEWEN  =      -228.56352493
  -Hartree energ DENC   =       -12.50225117
  -exchange      EXHF   =         0.00000000
  -V(xc)+E(xc)   XCENC  =       -18.36450646
  PAW double counting   =        69.94660592      -34.87090244
  entropy T*S    EENTRO =        -0.00000000
  eigenvalues    EBANDS =         3.96293914
  atomic energy  EATOM  =       206.13149246
  Solvation  Ediel_sol  =         0.00000000
  ext. energy  EPLUGINS =         0.00000000
  ---------------------------------------------------
  free energy    TOTEN  =       -10.89600545 eV

  energy without entropy =      -10.89600545  energy(sigma->0) =      -10.89600545


--------------------------------------------------------------------------------------------------------




--------------------------------------- Iteration      1(   7)  ---------------------------------------


    POTLOK:  cpu time      0.0160: real time      0.0162
    SETDIJ:  cpu time      0.0006: real time      0.0006
    EDDIAG:  cpu time      0.0145: real time      0.0145
  RMM-DIIS:  cpu time      0.0421: real time      0.0421
    ORTHCH:  cpu time      0.0003: real time      0.0003
       DOS:  cpu time      0.0002: real time      0.0002
    CHARGE:  cpu time      0.0056: real time      0.0056
    MIXING:  cpu time      0.0008: real time      0.0008
    --------------------------------------------
      LOOP:  cpu time      0.0801: real time      0.0803

 eigenvalue-minimisations  :   501
 total energy-change (2. order) : 0.5757327E-01  (-0.1126833E-01)
 number of electron       8.0000001 magnetization 
 augmentation part       -0.4573486 magnetization 

 Broyden mixing:
  rms(total) = 0.15299E-01    rms(broyden)= 0.15299E-01
  rms(prec ) = 0.40162E-01
  weight for this iteration     100.00

 eigenvalues of (default mixing * dielectric matrix)
  average eigenvalue GAMMA=   2.6592
  2.6592  2.6592

 Free energy of the ion-electron system (eV)
  ---------------------------------------------------
  alpha Z        PSCENC =         3.36414203
  Ewald energy   TEWEN  =      -228.56352493
  -Hartree energ DENC   =       -14.93506381
  -exchange      EXHF   =         0.00000000
  -V(xc)+E(xc)   XCENC  =       -17.97274914
  PAW double counting   =        75.28196990      -40.35040052
  entropy T*S    EENTRO =        -0.00000000
  eigenvalues    EBANDS =         6.20570183
  atomic energy  EATOM  =       206.13149246
  Solvation  Ediel_sol  =         0.00000000
  ext. energy  EPLUGINS =         0.00000000
  ---------------------------------------------------
  free energy    TOTEN  =       -10.83843218 eV

  energy without entropy =      -10.83843218  energy(sigma->0) =      -10.83843218


--------------------------------------------------------------------------------------------------------




--------------------------------------- Iteration      1(   8)  ---------------------------------------


    POTLOK:  cpu time      0.0159: real time      0.0161
    SETDIJ:  cpu time      0.0006: real time      0.0006
    EDDIAG:  cpu time      0.0146: real time      0.0146
  RMM-DIIS:  cpu time      0.0411: real time      0.0411
    ORTHCH:  cpu time      0.0003: real time      0.0003
       DOS:  cpu time      0.0002: real time      0.0002
    CHARGE:  cpu time      0.0057: real time      0.0057
    MIXING:  cpu time      0.0009: real time      0.0009
    --------------------------------------------
      LOOP:  cpu time      0.0791: real time      0.0793

 eigenvalue-minimisations  :   484
 total energy-change (2. order) :-0.1859410E-02  (-0.8061437E-03)
 number of electron       8.0000001 magnetization 
 augmentation part       -0.4586189 magnetization 

 Broyden mixing:
  rms(total) = 0.30051E-02    rms(broyden)= 0.30051E-02
  rms(prec ) = 0.12331E-01
  weight for this iteration     100.00

 eigenvalues of (default mixing * dielectric matrix)
  average eigenvalue GAMMA=   2.1337
  2.7284  1.8364  1.8364

 Free energy of the ion-electron system (eV)
  ---------------------------------------------------
  alpha Z        PSCENC =         3.36414203
  Ewald energy   TEWEN  =      -228.56352493
  -Hartree energ DENC   =       -14.86885688
  -exchange      EXHF   =         0.00000000
  -V(xc)+E(xc)   XCENC  =       -17.96754448
  PAW double counting   =        74.20668035      -39.24102744
  entropy T*S    EENTRO =        -0.00000000
  eigenvalues    EBANDS =         6.09834730
  atomic energy  EATOM  =       206.13149246
  Solvation  Ediel_sol  =         0.00000000
  ext. energy  EPLUGINS =         0.00000000
  ---------------------------------------------------
  free energy    TOTEN  =       -10.84029159 eV

  energy without entropy =      -10.84029159  energy(sigma->0) =      -10.84029159


--------------------------------------------------------------------------------------------------------




--------------------------------------- Iteration      1(   9)  ---------------------------------------


    POTLOK:  cpu time      0.0159: real time      0.0161
    SETDIJ:  cpu time      0.0009: real time      0.0009
    EDDIAG:  cpu time      0.0145: real time      0.0145
  RMM-DIIS:  cpu time      0.0431: real time      0.0431
    ORTHCH:  cpu time      0.0003: real time      0.0003
       DOS:  cpu time      0.0001: real time      0.0001
    CHARGE:  cpu time      0.0056: real time      0.0056
    MIXING:  cpu time      0.0008: real time      0.0008
    --------------------------------------------
      LOOP:  cpu time      0.0812: real time      0.0814

 eigenvalue-minimisations  :   522
 total energy-change (2. order) :-0.1562468E-03  (-0.1567041E-03)
 number of electron       8.0000001 magnetization 
 augmentation part       -0.4583318 magnetization 

 Broyden mixing:
  rms(total) = 0.33487E-02    rms(broyden)= 0.33487E-02
  rms(prec ) = 0.80628E-02
  weight for this iteration     100.00

 eigenvalues of (default mixing * dielectric matrix)
  average eigenvalue GAMMA=   2.1982
  0.9765  3.2252  2.7997  1.7914

 Free energy of the ion-electron system (eV)
  ---------------------------------------------------
  alpha Z        PSCENC =         3.36414203
  Ewald energy   TEWEN  =      -228.56352493
  -Hartree energ DENC   =       -14.94297115
  -exchange      EXHF   =         0.00000000
  -V(xc)+E(xc)   XCENC  =       -17.95760153
  PAW double counting   =        74.40323264      -39.44341962
  entropy T*S    EENTRO =        -0.00000000
  eigenvalues    EBANDS =         6.16820227
  atomic energy  EATOM  =       206.13149246
  Solvation  Ediel_sol  =         0.00000000
  ext. energy  EPLUGINS =         0.00000000
  ---------------------------------------------------
  free energy    TOTEN  =       -10.84044784 eV

  energy without entropy =      -10.84044784  energy(sigma->0) =      -10.84044784


--------------------------------------------------------------------------------------------------------




--------------------------------------- Iteration      1(  10)  ---------------------------------------


    POTLOK:  cpu time      0.0156: real time      0.0158
    SETDIJ:  cpu time      0.0009: real time      0.0009
    EDDIAG:  cpu time      0.0144: real time      0.0144
  RMM-DIIS:  cpu time      0.0418: real time      0.0418
    ORTHCH:  cpu time      0.0003: real time      0.0003
       DOS:  cpu time      0.0001: real time      0.0001
    CHARGE:  cpu time      0.0056: real time      0.0056
    MIXING:  cpu time      0.0008: real time      0.0008
    --------------------------------------------
      LOOP:  cpu time      0.0795: real time      0.0796

 eigenvalue-minimisations  :   501
 total energy-change (2. order) :-0.6282817E-04  (-0.3757269E-04)
 number of electron       8.0000001 magnetization 
 augmentation part       -0.4586787 magnetization 

 Broyden mixing:
  rms(total) = 0.17562E-02    rms(broyden)= 0.17562E-02
  rms(prec ) = 0.56666E-02
  weight for this iteration     100.00

 eigenvalues of (default mixing * dielectric matrix)
  average eigenvalue GAMMA=   2.0312
  3.2452  2.6953  2.2394  1.0991  0.8769

 Free energy of the ion-electron system (eV)
  ---------------------------------------------------
  alpha Z        PSCENC =         3.36414203
  Ewald energy   TEWEN  =      -228.56352493
  -Hartree energ DENC   =       -14.90261130
  -exchange      EXHF   =         0.00000000
  -V(xc)+E(xc)   XCENC  =       -17.96290352
  PAW double counting   =        74.20683343      -39.24151547
  entropy T*S    EENTRO =        -0.00000000
  eigenvalues    EBANDS =         6.12757663
  atomic energy  EATOM  =       206.13149246
  Solvation  Ediel_sol  =         0.00000000
  ext. energy  EPLUGINS =         0.00000000
  ---------------------------------------------------
  free energy    TOTEN  =       -10.84051067 eV

  energy without entropy =      -10.84051067  energy(sigma->0) =      -10.84051067


--------------------------------------------------------------------------------------------------------




--------------------------------------- Iteration      1(  11)  ---------------------------------------


    POTLOK:  cpu time      0.0157: real time      0.0159
    SETDIJ:  cpu time      0.0010: real time      0.0010
    EDDIAG:  cpu time      0.0145: real time      0.0145
  RMM-DIIS:  cpu time      0.0452: real time      0.0452
    ORTHCH:  cpu time      0.0003: real time      0.0003
       DOS:  cpu time      0.0002: real time      0.0002
    CHARGE:  cpu time      0.0056: real time      0.0056
    MIXING:  cpu time      0.0008: real time      0.0008
    --------------------------------------------
      LOOP:  cpu time      0.0834: real time      0.0835

 eigenvalue-minimisations  :   544
 total energy-change (2. order) : 0.1510170E-05  (-0.8692535E-05)
 number of electron       8.0000001 magnetization 
 augmentation part       -0.4586014 magnetization 

 Broyden mixing:
  rms(total) = 0.15218E-03    rms(broyden)= 0.15217E-03
  rms(prec ) = 0.28684E-03
  weight for this iteration     100.00

 eigenvalues of (default mixing * dielectric matrix)
  average eigenvalue GAMMA=   2.1397
  3.9225  2.8485  2.4134  1.8631  0.8954  0.8954

 Free energy of the ion-electron system (eV)
  ---------------------------------------------------
  alpha Z        PSCENC =         3.36414203
  Ewald energy   TEWEN  =      -228.56352493
  -Hartree energ DENC   =       -14.92946012
  -exchange      EXHF   =         0.00000000
  -V(xc)+E(xc)   XCENC  =       -17.95966253
  PAW double counting   =        74.31088032      -39.34874301
  entropy T*S    EENTRO =        -0.00000000
  eigenvalues    EBANDS =         6.15436663
  atomic energy  EATOM  =       206.13149246
  Solvation  Ediel_sol  =         0.00000000
  ext. energy  EPLUGINS =         0.00000000
  ---------------------------------------------------
  free energy    TOTEN  =       -10.84050916 eV

  energy without entropy =      -10.84050916  energy(sigma->0) =      -10.84050916


--------------------------------------------------------------------------------------------------------




--------------------------------------- Iteration      1(  12)  ---------------------------------------


    POTLOK:  cpu time      0.0160: real time      0.0162
    SETDIJ:  cpu time      0.0006: real time      0.0006
    EDDIAG:  cpu time      0.0145: real time      0.0145
  RMM-DIIS:  cpu time      0.0434: real time      0.0434
    ORTHCH:  cpu time      0.0003: real time      0.0003
       DOS:  cpu time      0.0001: real time      0.0001
    CHARGE:  cpu time      0.0058: real time      0.0058
    MIXING:  cpu time      0.0010: real time      0.0009
    --------------------------------------------
      LOOP:  cpu time      0.0816: real time      0.0818

 eigenvalue-minimisations  :   518
 total energy-change (2. order) :-0.2714497E-05  (-0.2309852E-05)
 number of electron       8.0000001 magnetization 
 augmentation part       -0.4586451 magnetization 

 Broyden mixing:
  rms(total) = 0.17831E-03    rms(broyden)= 0.17831E-03
  rms(prec ) = 0.36531E-03
  weight for this iteration     100.00

 eigenvalues of (default mixing * dielectric matrix)
  average eigenvalue GAMMA=   2.1907
  4.5791  2.5886  2.1597  2.0555  2.0555  1.0180  0.8786

 Free energy of the ion-electron system (eV)
  ---------------------------------------------------
  alpha Z        PSCENC =         3.36414203
  Ewald energy   TEWEN  =      -228.56352493
  -Hartree energ DENC   =       -14.93142513
  -exchange      EXHF   =         0.00000000
  -V(xc)+E(xc)   XCENC  =       -17.95956116
  PAW double counting   =        74.31702489      -39.35517367
  entropy T*S    EENTRO =        -0.00000000
  eigenvalues    EBANDS =         6.15651364
  atomic energy  EATOM  =       206.13149246
  Solvation  Ediel_sol  =         0.00000000
  ext. energy  EPLUGINS =         0.00000000
  ---------------------------------------------------
  free energy    TOTEN  =       -10.84051187 eV

  energy without entropy =      -10.84051187  energy(sigma->0) =      -10.84051187


--------------------------------------------------------------------------------------------------------




--------------------------------------- Iteration      1(  13)  ---------------------------------------


    POTLOK:  cpu time      0.0161: real time      0.0162
    SETDIJ:  cpu time      0.0006: real time      0.0006
    EDDIAG:  cpu time      0.0144: real time      0.0144
  RMM-DIIS:  cpu time      0.0375: real time      0.0375
    ORTHCH:  cpu time      0.0003: real time      0.0003
       DOS:  cpu time      0.0002: real time      0.0001
    --------------------------------------------
      LOOP:  cpu time      0.0693: real time      0.0694

 eigenvalue-minimisations  :   444
 total energy-change (2. order) :-0.1096251E-06  (-0.4819246E-06)
 number of electron       8.0000001 magnetization 
 augmentation part       -0.4586451 magnetization 

 Free energy of the ion-electron system (eV)
  ---------------------------------------------------
  alpha Z        PSCENC =         3.36414203
  Ewald energy   TEWEN  =      -228.56352493
  -Hartree energ DENC   =       -14.93432476
  -exchange      EXHF   =         0.00000000
  -V(xc)+E(xc)   XCENC  =       -17.95943362
  PAW double counting   =        74.31216077      -39.35038942
  entropy T*S    EENTRO =        -0.00000000
  eigenvalues    EBANDS =         6.15936549
  atomic energy  EATOM  =       206.13149246
  Solvation  Ediel_sol  =         0.00000000
  ext. energy  EPLUGINS =         0.00000000
  ---------------------------------------------------
  free energy    TOTEN  =       -10.84051198 eV

  energy without entropy =      -10.84051198  energy(sigma->0) =      -10.84051198


--------------------------------------------------------------------------------------------------------




 average (electrostatic) potential at core
  the test charge radii are     0.9892
  (the norm of the test charge is              1.0000)
       1 -83.2400       2 -83.2400
 
 
 
 E-fermi :   6.0474     XC(G=0):  -9.4092     alpha+bet :-11.9845

 val. band max:        5.8320643330   @ k =   0.0000   0.0000   0.0000
 cond. band min:       6.4476394665   @ k =   0.3750   0.3750   0.0000
 fundamental gap:      0.6155751335
 Fermi energy:         6.0473894440

 k-point     1 :       0.0000    0.0000    0.0000
  band No.  band energies     occupation 
      1      -6.1285      2.00000
      2       5.8321      2.00000
      3       5.8321      2.00000
      4       5.8321      2.00000
      5       8.3972      0.00000
      6       8.3972      0.00000
      7       8.3972      0.00000
      8       9.2104      0.00000

 k-point     2 :       0.1250    0.0000    0.0000
  band No.  band energies     occupation 
      1      -5.9243      2.00000
      2       4.2350      2.00000
      3       5.5434      2.00000
      4       5.5434      2.00000
      5       8.3382      0.00000
      6       8.8216      0.00000
      7       8.8216      0.00000
      8      10.5528      0.00000

 k-point     3 :       0.2500    0.0000    0.0000
  band No.  band energies     occupation 
      1      -5.3285      2.00000
      2       1.9070      2.00000
      3       5.0731      2.00000
      4       5.0731      2.00000
      5       7.8653      0.00000
      6       9.3393      0.00000
      7       9.3393      0.00000
      8      12.7593      0.00000

 k-point     4 :       0.3750    0.0000    0.0000
  band No.  band energies     occupation 
      1      -4.4344      2.00000
      2      -0.1132      2.00000
      3       4.7464      2.00000
      4       4.7464      2.00000
      5       7.5019      0.00000
      6       9.2834      0.00000
      7       9.2834      0.00000
      8      13.7179      0.00000

 k-point     5 :       0.5000    0.0000    0.0000
  band No.  band energies     occupation 
      1      -3.7961      2.00000
      2      -1.1359      2.00000
      3       4.6347      2.00000
      4       4.6347      2.00000
      5       7.3740      0.00000
      6       9.1723      0.00000
      7       9.1723      0.00000
      8      13.5624      0.00000

 k-point     6 :       0.1250    0.1250    0.0000
  band No.  band energies     occupation 
      1      -5.8554      2.00000
      2       4.5006      2.00000
      3       5.0259      2.00000
      4       5.0259      2.00000
      5       7.8454      0.00000
      6       9.5376      0.00000
      7       9.5376      0.00000
      8      10.2394      0.00000

 k-point     7 :       0.2500    0.1250    0.0000
  band No.  band energies     occupation 
      1      -5.3866      2.00000
      2       2.6103      2.00000
      3       4.5145      2.00000
      4       4.5909      2.00000
      5       7.9815      0.00000
      6       9.5452      0.00000
      7      10.3019      0.00000
      8      10.5834      0.00000

 k-point     8 :       0.3750    0.1250    0.0000
  band No.  band energies     occupation 
      1      -4.5713      2.00000
      2       0.5494      2.00000
      3       3.9996      2.00000
      4       4.2466      2.00000
      5       8.0812      0.00000
      6       9.4767      0.00000
      7      10.2973      0.00000
      8      11.3006      0.00000

 k-point     9 :       0.5000    0.1250    0.0000
  band No.  band energies     occupation 
      1      -3.7095      2.00000
      2      -0.9144      2.00000
      3       3.5540      2.00000
      4       4.2712      2.00000
      5       8.0285      0.00000
      6       9.3486      0.00000
      7       9.9329      0.00000
      8      13.2049      0.00000

 k-point    10 :      -0.3750    0.1250    0.0000
  band No.  band energies     occupation 
      1      -3.9541      2.00000
      2      -0.5436      2.00000
      3       3.3722      2.00000
      4       4.5677      2.00000
      5       8.1957      0.00000
      6       9.4564      0.00000
      7       9.7011      0.00000
      8      13.7535      0.00000

 k-point    11 :      -0.2500    0.1250    0.0000
  band No.  band energies     occupation 
      1      -4.8778      2.00000
      2       1.2088      2.00000
      3       3.5228      2.00000
      4       5.0591      2.00000
      5       8.5551      0.00000
      6       9.5109      0.00000
      7       9.6894      0.00000
      8      12.1352      0.00000

 k-point    12 :      -0.1250    0.1250    0.0000
  band No.  band energies     occupation 
      1      -5.5879      2.00000
      2       3.1505      2.00000
      3       4.2045      2.00000
      4       5.5398      2.00000
      5       8.8794      0.00000
      6       8.9582      0.00000
      7       9.1928      0.00000
      8      11.3880      0.00000

 k-point    13 :       0.2500    0.2500    0.0000
  band No.  band energies     occupation 
      1      -5.0461      2.00000
      2       2.3181      2.00000
      3       3.9434      2.00000
      4       3.9434      2.00000
      5       6.9632      0.00000
      6       8.9659      0.00000
      7      11.5913      0.00000
      8      11.5913      0.00000

 k-point    14 :       0.3750    0.2500    0.0000
  band No.  band energies     occupation 
      1      -4.3358      2.00000
      2       0.8941      2.00000
      3       3.1629      2.00000
      4       3.6254      2.00000
      5       7.1836      0.00000
      6       8.7272      0.00000
      7      11.8333      0.00000
      8      12.1028      0.00000

 k-point    15 :       0.5000    0.2500    0.0000
  band No.  band energies     occupation 
      1      -3.4094      2.00000
      2      -0.5483      2.00000
      3       2.2994      2.00000
      4       3.6286      2.00000
      5       7.3525      0.00000
      6      10.2806      0.00000
      7      11.5819      0.00000
      8      11.7524      0.00000

 k-point    16 :      -0.3750    0.2500    0.0000
  band No.  band energies     occupation 
      1      -3.2050      2.00000
      2      -0.8068      2.00000
      3       1.8407      2.00000
      4       3.9471      2.00000
      5       7.6773      0.00000
      6      11.2987      0.00000
      7      11.3138      0.00000
      8      12.7951      0.00000

 k-point    17 :      -0.2500    0.2500    0.0000
  band No.  band energies     occupation 
      1      -4.0839      2.00000
      2       0.3544      2.00000
      3       2.0807      2.00000
      4       4.5055      2.00000
      5       8.2838      0.00000
      6      10.6243      0.00000
      7      10.9657      0.00000
      8      11.9853      0.00000

 k-point    18 :       0.3750    0.3750    0.0000
  band No.  band energies     occupation 
      1      -3.7331      2.00000
      2       0.0896      2.00000
      3       3.2271      2.00000
      4       3.2271      2.00000
      5       6.4476      0.00000
      6       7.3717      0.00000
      7      13.8761      0.00000
      8      13.8761      0.00000

 k-point    19 :       0.5000    0.3750    0.0000
  band No.  band energies     occupation 
      1      -2.8354      2.00000
      2      -0.9957      2.00000
      3       2.3977      2.00000
      4       3.1510      2.00000
      5       6.7267      0.00000
      6       7.7996      0.00000
      7      14.1010      0.00000
      8      14.1911      0.00000

 k-point    20 :      -0.3750    0.3750    0.0000
  band No.  band energies     occupation 
      1      -2.3964      2.00000
      2      -1.3924      2.00000
      3       1.5314      2.00000
      4       3.4085      2.00000
      5       7.0363      0.00000
      6       9.9612      0.00000
      7      13.3053      0.00000
      8      13.8479      0.00000

 k-point    21 :       0.5000    0.5000    0.0000
  band No.  band energies     occupation 
      1      -1.9826      2.00000
      2      -1.9826      2.00000
      3       2.9815      2.00000
      4       2.9815      2.00000
      5       6.5417      0.00000
      6       6.5417      0.00000
      7      15.9512      0.00000
      8      15.9513      0.00000

 k-point    22 :       0.3750    0.2500    0.1250
  band No.  band energies     occupation 
      1      -4.7985      2.00000
      2       1.5453      2.00000
      3       3.1203      2.00000
      4       4.4057      2.00000
      5       8.2809      0.00000
      6       9.7388      0.00000
      7      10.0255      0.00000
      8      11.3358      0.00000

 k-point    23 :       0.5000    0.2500    0.1250
  band No.  band energies     occupation 
      1      -3.9099      2.00000
      2      -0.0070      2.00000
      3       2.5126      2.00000
      4       3.9041      2.00000
      5       8.7108      0.00000
      6       9.3878      0.00000
      7      10.8532      0.00000
      8      11.7700      0.00000

 k-point    24 :      -0.3750    0.2500    0.1250
  band No.  band energies     occupation 
      1      -3.2572      2.00000
      2      -0.9524      2.00000
      3       2.3839      2.00000
      4       3.6744      2.00000
      5       8.9020      0.00000
      6       8.9641      0.00000
      7      11.7456      0.00000
      8      12.9517      0.00000

 k-point    25 :       0.5000    0.3750    0.1250
  band No.  band energies     occupation 
      1      -3.5344      2.00000
      2      -0.1294      2.00000
      3       2.4713      2.00000
      4       3.0742      2.00000
      5       7.7799      0.00000
      6       8.4788      0.00000
      7      11.5889      0.00000
      8      13.8252      0.00000

 k-point    26 :      -0.3750    0.3750    0.1250
  band No.  band energies     occupation 
      1      -2.6592      2.00000
      2      -1.0976      2.00000
      3       1.7729      2.00000
      4       2.8735      2.00000
      5       8.2211      0.00000
      6      10.1132      0.00000
      7      11.1122      0.00000
      8      13.2749      0.00000

 k-point    27 :      -0.2500    0.3750    0.1250
  band No.  band energies     occupation 
      1      -3.0100      2.00000
      2      -0.7343      2.00000
      3       1.6060      2.00000
      4       3.2495      2.00000
      5       8.7011      0.00000
      6      10.3776      0.00000
      7      11.0491      0.00000
      8      12.8636      0.00000

 k-point    28 :      -0.3750    0.5000    0.1250
  band No.  band energies     occupation 
      1      -1.9045      2.00000
      2      -1.9045      2.00000
      3       2.4168      2.00000
      4       2.4168      2.00000
      5       7.8030      0.00000
      6       7.8030      0.00000
      7      13.6820      0.00000
      8      13.6820      0.00000

 k-point    29 :      -0.2500    0.5000    0.2500
  band No.  band energies     occupation 
      1      -1.8185      2.00000
      2      -1.8185      2.00000
      3       1.9806      2.00000
      4       1.9806      2.00000
      5      10.1005      0.00000
      6      10.1005      0.00000
      7      10.8391      0.00000
      8      10.8391      0.00000


--------------------------------------------------------------------------------------------------------


 soft charge-density along one line, spin component           1
         0         1         2         3         4         5         6         7         8         9
 total charge-density along one line
 
 pseudopotential strength for first ion, spin component:           1
 18.413  -0.001   0.000   0.000   0.000  -0.000  -0.000  -0.000
 -0.001   0.006  -0.000  -0.000  -0.000   0.000   0.000   0.000
  0.000  -0.000   4.178  -0.000  -0.000  -0.005   0.000   0.000
  0.000  -0.000  -0.000   4.178  -0.000   0.000  -0.005   0.000
  0.000  -0.000  -0.000  -0.000   4.178   0.000   0.000  -0.005
 -0.000   0.000  -0.005   0.000   0.000   0.005  -0.000  -0.000
 -0.000   0.000   0.000  -0.005   0.000  -0.000   0.005  -0.000
 -0.000   0.000   0.000   0.000  -0.005  -0.000  -0.000   0.005
 total augmentation occupancy for first ion, spin component:           1
  1.491  -0.791  -0.000  -0.000  -0.000   0.000   0.000   0.000
 -0.791   0.788   0.000   0.000   0.000   0.000   0.000   0.000
 -0.000   0.000   1.032  -0.000   0.000  -0.563   0.000  -0.000
 -0.000   0.000  -0.000   1.032   0.000   0.000  -0.563   0.000
 -0.000   0.000   0.000   0.000   1.032  -0.000   0.000  -0.563
  0.000   0.000  -0.563   0.000  -0.000   0.364  -0.000   0.000
  0.000   0.000   0.000  -0.563   0.000  -0.000   0.364  -0.000
  0.000   0.000  -0.000   0.000  -0.563   0.000  -0.000   0.364


------------------------ aborting loop because EDIFF is reached ----------------------------------------


    CHARGE:  cpu time      0.0057: real time      0.0057
    FORLOC:  cpu time      0.0005: real time      0.0005
    FORNL :  cpu time      0.0036: real time      0.0036
    STRESS:  cpu time      0.0157: real time      0.0157
    FORCOR:  cpu time      0.0157: real time      0.0157
    FORHAR:  cpu time      0.0026: real time      0.0026
    MIXING:  cpu time      0.0008: real time      0.0008
    OFIELD:  cpu time      0.0000: real time      0.0000

  FORCE on cell =-STRESS in cart. coord.  units (eV):
  Direction    XX          YY          ZZ          XY          YZ          ZX
  --------------------------------------------------------------------------------------
  Alpha Z     3.36414     3.36414     3.36414
  Ewald     -76.18788   -76.18788   -76.18788     0.00000    -0.00000     0.00000
  Hartree     4.97634     4.97634     4.97634     0.00000     0.00000     0.00000
  E(xc)     -25.37173   -25.37173   -25.37173     0.00000     0.00000     0.00000
  Local     -29.22832   -29.22832   -29.22832     0.00001     0.00001     0.00001
  n-local    78.97405    80.12553    74.41152     2.26880    -1.21837     0.61534
  augment   -11.64835   -11.64835   -11.64835    -0.00001    -0.00001    -0.00001
  Kinetic    58.78744    56.32130    55.14252     3.52708    -0.73799     0.99341
  Fock        0.00000     0.00000     0.00000     0.00000     0.00000     0.00000
  -------------------------------------------------------------------------------------
  Total       0.49165     0.49165     0.49165    -0.00000     0.00000     0.00000
  in kB      19.68007    19.68007    19.68007    -0.00000     0.00000     0.00000
  external pressure =       19.68 kB  Pullay stress =        0.00 kB


 VOLUME and BASIS-vectors are now :
 -----------------------------------------------------------------------------
  energy-cutoff  :      400.00
  volume of cell :       40.03
      direct lattice vectors                 reciprocal lattice vectors
     0.000000000  2.715000000  2.715000000    -0.184162063  0.184162063  0.184162063
     2.715000000  0.000000000  2.715000000     0.184162063 -0.184162063  0.184162063
     2.715000000  2.715000000  0.000000000     0.184162063  0.184162063 -0.184162063

  length of vectors
     3.839589822  3.839589822  3.839589822     0.318978049  0.318978049  0.318978049


 FORCES acting on ions
    electron-ion (+dipol)            ewald-force                    non-local-force                 convergence-correction
 -----------------------------------------------------------------------------------------------
   0.742E-08 0.742E-08 0.398E-08   -.127E-14 0.350E-15 -.192E-14   -.761E-17 0.201E-16 -.108E-17   -.288E-08 -.288E-08 -.288E-08
   -.742E-08 -.742E-08 -.398E-08   0.113E-14 -.165E-15 0.160E-14   -.131E-16 -.131E-16 0.845E-17   0.288E-08 0.288E-08 0.288E-08
 -----------------------------------------------------------------------------------------------
   0.897E-13 0.273E-13 -.826E-14   -.140E-15 0.185E-15 -.327E-15   -.207E-16 0.710E-17 0.737E-17   -.526E-14 0.276E-14 -.101E-14
 
 
 POSITION                                       TOTAL-FORCE (eV/Angst)
 -----------------------------------------------------------------------------------
      0.00000      0.00000      0.00000        -0.000000     -0.000000     -0.000000
      1.35750      1.35750      1.35750         0.000000      0.000000      0.000000
 -----------------------------------------------------------------------------------
    total drift:                                0.000000      0.000000     -0.000000


--------------------------------------------------------------------------------------------------------



  FREE ENERGIE OF THE ION-ELECTRON SYSTEM (eV)
  ---------------------------------------------------
  free  energy   TOTEN  =       -10.84051198 eV

  energy  without entropy=      -10.84051198  energy(sigma->0) =      -10.84051198
 


--------------------------------------------------------------------------------------------------------


    POTLOK:  cpu time      0.0168: real time      0.0168


--------------------------------------------------------------------------------------------------------


     LOOP+:  cpu time      1.1440: real time      1.1464
    4ORBIT:  cpu time      0.0000: real time      0.0000

 total amount of memory used by VASP MPI-rank0    35139. kBytes
=======================================================================

   base                                    :      30000. kBytes
   nonl-proj                               :        354. kBytes
   fftplans                                :       1675. kBytes
   grid                                    :       2380. kBytes
   one-center                              :          3. kBytes
   wavefun                                 :        727. kBytes
 
  
  
 General timing and accounting informations for this job:
 ========================================================
  
                  Total CPU time used (sec):        1.659
                            User time (sec):        1.345
                          System time (sec):        0.314
                         Elapsed time (sec):        2.138
  
                   Maximum memory used (kb):      151032.
                   Average memory used (kb):          N/A
  
                          Minor page faults:        21579
                          Major page faults:            0
                 Voluntary context switches:         1140
