PROCAR lm decomposed
# of k-points:  180         # of bands:   12         # of ions:    2

 k-point     1 :    0.50000000 0.50000000 0.50000000     weight = 0.00555556

band     1 # energy   -3.79657110 # occ.  2.00000000
 
ion      s     py     pz     px    dxy    dyz    dz2    dxz  x2-y2    tot
    1  0.225  0.005  0.005  0.005  0.000  0.000  0.000  0.000  0.000  0.239
    2  0.225  0.005  0.005  0.005  0.000  0.000  0.000  0.000  0.000  0.239
tot    0.450  0.009  0.009  0.009  0.000  0.000  0.000  0.000  0.000  0.478
 
band     2 # energy   -1.13637424 # occ.  2.00000000
 
ion      s     py     pz     px    dxy    dyz    dz2    dxz  x2-y2    tot
    1  0.098  0.031  0.031  0.031  0.000  0.000  0.000  0.000  0.000  0.192
    2  0.098  0.031  0.031  0.031  0.000  0.000  0.000  0.000  0.000  0.192
tot    0.196  0.063  0.063  0.063  0.000  0.000  0.000  0.000  0.000  0.385
 
band     3 # energy    4.63419736 # occ.  2.00000000
 
ion      s     py     pz     px    dxy    dyz    dz2    dxz  x2-y2    tot
    1  0.000  0.099  0.018  0.101  0.000  0.000  0.000  0.000  0.000  0.218
    2  0.000  0.099  0.018  0.101  0.000  0.000  0.000  0.000  0.000  0.218
tot    0.000  0.198  0.036  0.202  0.000  0.000  0.000  0.000  0.000  0.437
 
band     4 # energy    4.63419736 # occ.  2.00000000
 
ion      s     py     pz     px    dxy    dyz    dz2    dxz  x2-y2    tot
    1  0.000  0.046  0.127  0.045  0.000  0.000  0.000  0.000  0.000  0.218
    2  0.000  0.046  0.127  0.045  0.000  0.000  0.000  0.000  0.000  0.218
tot    0.000  0.093  0.255  0.089  0.000  0.000  0.000  0.000  0.000  0.437
 
band     5 # energy    7.37350837 # occ.  0.00000000
 
ion      s     py     pz     px    dxy    dyz    dz2    dxz  x2-y2    tot
    1  0.186  0.006  0.006  0.006  0.000  0.000  0.000  0.000  0.000  0.205
    2  0.186  0.006  0.006  0.006  0.000  0.000  0.000  0.000  0.000  0.205
tot    0.372  0.013  0.013  0.013  0.000  0.000  0.000  0.000  0.000  0.410
 
band     6 # energy    9.17201092 # occ.  0.00000000
 
ion      s     py     pz     px    dxy    dyz    dz2    dxz  x2-y2    tot
    1  0.000  0.001  0.042  0.052  0.000  0.000  0.000  0.000  0.000  0.094
    2  0.000  0.001  0.042  0.052  0.000  0.000  0.000  0.000  0.000  0.094
tot    0.000  0.002  0.084  0.103  0.000  0.000  0.000  0.000  0.000  0.188
 
band     7 # energy    9.17201092 # occ.  0.00000000
 
ion      s     py     pz     px    dxy    dyz    dz2    dxz  x2-y2    tot
    1  0.000  0.062  0.021  0.011  0.000  0.000  0.000  0.000  0.000  0.094
    2  0.000  0.062  0.021  0.011  0.000  0.000  0.000  0.000  0.000  0.094
tot    0.000  0.124  0.042  0.022  0.000  0.000  0.000  0.000  0.000  0.188
 
band     8 # energy   13.56162694 # occ.  0.00000000
 
ion      s     py     pz     px    dxy    dyz    dz2    dxz  x2-y2    tot
    1  0.006  0.018  0.018  0.018  0.000  0.000  0.000  0.000  0.000  0.059
    2  0.006  0.018  0.018  0.018  0.000  0.000  0.000  0.000  0.000  0.059
tot    0.012  0.035  0.035  0.035  0.000  0.000  0.000  0.000  0.000  0.117
 
band     9 # energy   16.38396674 # occ.  0.00000000
 
ion      s     py     pz     px    dxy    dyz    dz2    dxz  x2-y2    tot
    1  0.000  0.000  0.000  0.000  0.000  0.000  0.000  0.000  0.000  0.000
    2  0.000  0.000  0.000  0.000  0.000  0.000  0.000  0.000  0.000  0.000
tot    0.000  0.000  0.000  0.000  0.000  0.000  0.000  0.000  0.000  0.001
 
band    10 # energy   16.38428403 # occ.  0.00000000
 
ion      s     py     pz     px    dxy    dyz    dz2    dxz  x2-y2    tot
    1  0.000  0.000  0.000  0.000  0.000  0.000  0.000  0.000  0.000  0.000
    2  0.000  0.000  0.000  0.000  0.000  0.000  0.000  0.000  0.000  0.000
tot    0.000  0.000  0.000  0.000  0.000  0.000  0.000  0.000  0.000  0.001
 
band    11 # energy   17.17905827 # occ.  0.00000000
 
ion      s     py     pz     px    dxy    dyz    dz2    dxz  x2-y2    tot
    1  0.000  0.029  0.076  0.011  0.000  0.000  0.000  0.000  0.000  0.116
    2  0.000  0.030  0.076  0.011  0.000  0.000  0.000  0.000  0.000  0.116
tot    0.000  0.059  0.152  0.021  0.000  0.000  0.000  0.000  0.000  0.233
 
band    12 # energy   17.19176866 # occ.  0.00000000
 
ion      s     py     pz     px    dxy    dyz    dz2    dxz  x2-y2    tot
    1  0.037  0.061  0.048  0.040  0.000  0.000  0.000  0.000  0.000  0.186
    2  0.036  0.061  0.048  0.040  0.000  0.000  0.000  0.000  0.000  0.186
tot    0.073  0.123  0.096  0.080  0.000  0.000  0.000  0.000  0.000  0.372
 

 k-point     2 :    0.48571429 0.48571429 0.48571429     weight = 0.00555556

band     1 # energy   -3.80830919 # occ.  2.00000000
 
ion      s     py     pz     px    dxy    dyz    dz2    dxz  x2-y2    tot
    1  0.225  0.005  0.005  0.005  0.000  0.000  0.000  0.000  0.000  0.238
    2  0.225  0.005  0.005  0.005  0.000  0.000  0.000  0.000  0.000  0.238
tot    0.449  0.009  0.009  0.009  0.000  0.000  0.000  0.000  0.000  0.477
 
band     2 # energy   -1.11959809 # occ.  2.00000000
 
ion      s     py     pz     px    dxy    dyz    dz2    dxz  x2-y2    tot
    1  0.098  0.031  0.031  0.031  0.000  0.000  0.000  0.000  0.000  0.193
    2  0.098  0.031  0.031  0.031  0.000  0.000  0.000  0.000  0.000  0.193
tot    0.197  0.063  0.063  0.063  0.000  0.000  0.000  0.000  0.000  0.385
 
band     3 # energy    4.63566134 # occ.  2.00000000
 
ion      s     py     pz     px    dxy    dyz    dz2    dxz  x2-y2    tot
    1  0.000  0.016  0.062  0.140  0.000  0.000  0.000  0.000  0.000  0.218
    2  0.000  0.016  0.062  0.140  0.000  0.000  0.000  0.000  0.000  0.218
tot    0.000  0.032  0.124  0.280  0.000  0.000  0.000  0.000  0.000  0.437
 
band     4 # energy    4.63566134 # occ.  2.00000000
 
ion      s     py     pz     px    dxy    dyz    dz2    dxz  x2-y2    tot
    1  0.000  0.130  0.083  0.005  0.000  0.000  0.000  0.000  0.000  0.218
    2  0.000  0.130  0.083  0.005  0.000  0.000  0.000  0.000  0.000  0.218
tot    0.000  0.259  0.167  0.011  0.000  0.000  0.000  0.000  0.000  0.437
 
band     5 # energy    7.37519622 # occ.  0.00000000
 
ion      s     py     pz     px    dxy    dyz    dz2    dxz  x2-y2    tot
    1  0.186  0.006  0.006  0.006  0.000  0.000  0.000  0.000  0.000  0.205
    2  0.186  0.006  0.006  0.006  0.000  0.000  0.000  0.000  0.000  0.205
tot    0.372  0.013  0.013  0.013  0.000  0.000  0.000  0.000  0.000  0.410
 
band     6 # energy    9.17372612 # occ.  0.00000000
 
ion      s     py     pz     px    dxy    dyz    dz2    dxz  x2-y2    tot
    1  0.000  0.000  0.050  0.044  0.000  0.000  0.000  0.000  0.000  0.094
    2  0.000  0.000  0.050  0.044  0.000  0.000  0.000  0.000  0.000  0.094
tot    0.000  0.001  0.100  0.088  0.000  0.000  0.000  0.000  0.000  0.189
 
band     7 # energy    9.17372612 # occ.  0.00000000
 
ion      s     py     pz     px    dxy    dyz    dz2    dxz  x2-y2    tot
    1  0.000  0.062  0.013  0.019  0.000  0.000  0.000  0.000  0.000  0.094
    2  0.000  0.062  0.013  0.019  0.000  0.000  0.000  0.000  0.000  0.094
tot    0.000  0.125  0.026  0.038  0.000  0.000  0.000  0.000  0.000  0.189
 
band     8 # energy   13.56426920 # occ.  0.00000000
 
ion      s     py     pz     px    dxy    dyz    dz2    dxz  x2-y2    tot
    1  0.006  0.018  0.018  0.018  0.000  0.000  0.000  0.000  0.000  0.059
    2  0.006  0.018  0.018  0.018  0.000  0.000  0.000  0.000  0.000  0.059
tot    0.012  0.035  0.035  0.035  0.000  0.000  0.000  0.000  0.000  0.118
 
band     9 # energy   16.28636231 # occ.  0.00000000
 
ion      s     py     pz     px    dxy    dyz    dz2    dxz  x2-y2    tot
    1  0.000  0.006  0.000  0.006  0.000  0.000  0.000  0.000  0.000  0.012
    2  0.000  0.006  0.000  0.006  0.000  0.000  0.000  0.000  0.000  0.012
tot    0.000  0.012  0.000  0.012  0.000  0.000  0.000  0.000  0.000  0.024
 
band    10 # energy   16.28668728 # occ.  0.00000000
 
ion      s     py     pz     px    dxy    dyz    dz2    dxz  x2-y2    tot
    1  0.000  0.002  0.008  0.002  0.000  0.000  0.000  0.000  0.000  0.012
    2  0.000  0.002  0.008  0.002  0.000  0.000  0.000  0.000  0.000  0.012
tot    0.000  0.004  0.016  0.004  0.000  0.000  0.000  0.000  0.000  0.024
 
band    11 # energy   17.14964463 # occ.  0.00000000
 
ion      s     py     pz     px    dxy    dyz    dz2    dxz  x2-y2    tot
    1  0.042  0.050  0.051  0.049  0.000  0.000  0.000  0.000  0.000  0.192
    2  0.042  0.053  0.054  0.045  0.000  0.000  0.000  0.000  0.000  0.194
tot    0.083  0.103  0.105  0.094  0.000  0.000  0.000  0.000  0.000  0.385
 
band    12 # energy   17.28283281 # occ.  0.00000000
 
ion      s     py     pz     px    dxy    dyz    dz2    dxz  x2-y2    tot
    1  0.000  0.059  0.044  0.001  0.000  0.000  0.000  0.000  0.000  0.105
    2  0.000  0.060  0.044  0.001  0.000  0.000  0.000  0.000  0.000  0.105
tot    0.000  0.119  0.088  0.002  0.000  0.000  0.000  0.000  0.000  0.209
 

 k-point     3 :    0.47142857 0.47142857 0.47142857     weight = 0.00555556

band     1 # energy   -3.84262183 # occ.  2.00000000
 
ion      s     py     pz     px    dxy    dyz    dz2    dxz  x2-y2    tot
    1  0.224  0.005  0.005  0.005  0.000  0.000  0.000  0.000  0.000  0.238
    2  0.224  0.005  0.005  0.005  0.000  0.000  0.000  0.000  0.000  0.238
tot    0.447  0.009  0.009  0.009  0.000  0.000  0.000  0.000  0.000  0.475
 
band     2 # energy   -1.07016411 # occ.  2.00000000
 
ion      s     py     pz     px    dxy    dyz    dz2    dxz  x2-y2    tot
    1  0.099  0.031  0.031  0.031  0.000  0.000  0.000  0.000  0.000  0.194
    2  0.099  0.031  0.031  0.031  0.000  0.000  0.000  0.000  0.000  0.194
tot    0.199  0.063  0.063  0.063  0.000  0.000  0.000  0.000  0.000  0.387
 
band     3 # energy    4.64005182 # occ.  2.00000000
 
ion      s     py     pz     px    dxy    dyz    dz2    dxz  x2-y2    tot
    1  0.000  0.036  0.133  0.050  0.000  0.000  0.000  0.000  0.000  0.218
    2  0.000  0.036  0.133  0.050  0.000  0.000  0.000  0.000  0.000  0.218
tot    0.000  0.072  0.265  0.099  0.000  0.000  0.000  0.000  0.000  0.437
 
band     4 # energy    4.64005183 # occ.  2.00000000
 
ion      s     py     pz     px    dxy    dyz    dz2    dxz  x2-y2    tot
    1  0.000  0.110  0.013  0.096  0.000  0.000  0.000  0.000  0.000  0.218
    2  0.000  0.110  0.013  0.096  0.000  0.000  0.000  0.000  0.000  0.218
tot    0.000  0.219  0.026  0.192  0.000  0.000  0.000  0.000  0.000  0.437
 
band     5 # energy    7.38022457 # occ.  0.00000000
 
ion      s     py     pz     px    dxy    dyz    dz2    dxz  x2-y2    tot
    1  0.186  0.006  0.006  0.006  0.000  0.000  0.000  0.000  0.000  0.205
    2  0.186  0.006  0.006  0.006  0.000  0.000  0.000  0.000  0.000  0.205
tot    0.371  0.013  0.013  0.013  0.000  0.000  0.000  0.000  0.000  0.410
 
band     6 # energy    9.17876745 # occ.  0.00000000
 
ion      s     py     pz     px    dxy    dyz    dz2    dxz  x2-y2    tot
    1  0.000  0.014  0.024  0.057  0.000  0.000  0.000  0.000  0.000  0.095
    2  0.000  0.014  0.024  0.057  0.000  0.000  0.000  0.000  0.000  0.095
tot    0.000  0.028  0.048  0.113  0.000  0.000  0.000  0.000  0.000  0.190
 
band     7 # energy    9.17876754 # occ.  0.00000000
 
ion      s     py     pz     px    dxy    dyz    dz2    dxz  x2-y2    tot
    1  0.000  0.049  0.039  0.007  0.000  0.000  0.000  0.000  0.000  0.095
    2  0.000  0.049  0.039  0.007  0.000  0.000  0.000  0.000  0.000  0.095
tot    0.000  0.098  0.078  0.013  0.000  0.000  0.000  0.000  0.000  0.190
 
band     8 # energy   13.57212223 # occ.  0.00000000
 
ion      s     py     pz     px    dxy    dyz    dz2    dxz  x2-y2    tot
    1  0.006  0.018  0.018  0.018  0.000  0.000  0.000  0.000  0.000  0.059
    2  0.006  0.018  0.018  0.018  0.000  0.000  0.000  0.000  0.000  0.059
tot    0.011  0.036  0.036  0.036  0.000  0.000  0.000  0.000  0.000  0.119
 
band     9 # energy   16.07364652 # occ.  0.00000000
 
ion      s     py     pz     px    dxy    dyz    dz2    dxz  x2-y2    tot
    1  0.000  0.008  0.002  0.016  0.000  0.000  0.000  0.000  0.000  0.026
    2  0.000  0.008  0.002  0.016  0.000  0.000  0.000  0.000  0.000  0.026
tot    0.000  0.016  0.004  0.031  0.000  0.000  0.000  0.000  0.000  0.051
 
band    10 # energy   16.07365535 # occ.  0.00000000
 
ion      s     py     pz     px    dxy    dyz    dz2    dxz  x2-y2    tot
    1  0.000  0.009  0.015  0.002  0.000  0.000  0.000  0.000  0.000  0.026
    2  0.000  0.009  0.015  0.002  0.000  0.000  0.000  0.000  0.000  0.026
tot    0.000  0.018  0.030  0.003  0.000  0.000  0.000  0.000  0.000  0.051
 
band    11 # energy   17.02333270 # occ.  0.00000000
 
ion      s     py     pz     px    dxy    dyz    dz2    dxz  x2-y2    tot
    1  0.050  0.050  0.050  0.050  0.000  0.000  0.000  0.000  0.000  0.200
    2  0.049  0.050  0.051  0.050  0.000  0.000  0.000  0.000  0.000  0.200
tot    0.099  0.099  0.101  0.100  0.000  0.000  0.000  0.000  0.000  0.399
 
band    12 # energy   17.51354391 # occ.  0.00000000
 
ion      s     py     pz     px    dxy    dyz    dz2    dxz  x2-y2    tot
    1  0.000  0.019  0.026  0.045  0.000  0.000  0.000  0.000  0.000  0.090
    2  0.000  0.020  0.026  0.045  0.000  0.000  0.000  0.000  0.000  0.090
tot    0.000  0.039  0.051  0.090  0.000  0.000  0.000  0.000  0.000  0.181
 

 k-point     4 :    0.45714286 0.45714286 0.45714286     weight = 0.00555556

band     1 # energy   -3.89708410 # occ.  2.00000000
 
ion      s     py     pz     px    dxy    dyz    dz2    dxz  x2-y2    tot
    1  0.222  0.005  0.005  0.005  0.000  0.000  0.000  0.000  0.000  0.236
    2  0.222  0.005  0.005  0.005  0.000  0.000  0.000  0.000  0.000  0.236
tot    0.444  0.010  0.010  0.010  0.000  0.000  0.000  0.000  0.000  0.473
 
band     2 # energy   -0.99049314 # occ.  2.00000000
 
ion      s     py     pz     px    dxy    dyz    dz2    dxz  x2-y2    tot
    1  0.101  0.031  0.031  0.031  0.000  0.000  0.000  0.000  0.000  0.195
    2  0.101  0.031  0.031  0.031  0.000  0.000  0.000  0.000  0.000  0.195
tot    0.201  0.063  0.063  0.063  0.000  0.000  0.000  0.000  0.000  0.390
 
band     3 # energy    4.64735766 # occ.  2.00000000
 
ion      s     py     pz     px    dxy    dyz    dz2    dxz  x2-y2    tot
    1  0.000  0.143  0.035  0.040  0.000  0.000  0.000  0.000  0.000  0.218
    2  0.000  0.143  0.035  0.040  0.000  0.000  0.000  0.000  0.000  0.218
tot    0.000  0.287  0.070  0.079  0.000  0.000  0.000  0.000  0.000  0.436
 
band     4 # energy    4.64735766 # occ.  2.00000000
 
ion      s     py     pz     px    dxy    dyz    dz2    dxz  x2-y2    tot
    1  0.000  0.002  0.110  0.106  0.000  0.000  0.000  0.000  0.000  0.218
    2  0.000  0.002  0.110  0.106  0.000  0.000  0.000  0.000  0.000  0.218
tot    0.000  0.004  0.221  0.212  0.000  0.000  0.000  0.000  0.000  0.436
 
band     5 # energy    7.38862551 # occ.  0.00000000
 
ion      s     py     pz     px    dxy    dyz    dz2    dxz  x2-y2    tot
    1  0.185  0.007  0.007  0.007  0.000  0.000  0.000  0.000  0.000  0.205
    2  0.185  0.007  0.007  0.007  0.000  0.000  0.000  0.000  0.000  0.205
tot    0.370  0.013  0.013  0.013  0.000  0.000  0.000  0.000  0.000  0.410
 
band     6 # energy    9.18703836 # occ.  0.00000000
 
ion      s     py     pz     px    dxy    dyz    dz2    dxz  x2-y2    tot
    1  0.000  0.018  0.063  0.014  0.000  0.000  0.000  0.000  0.000  0.095
    2  0.000  0.018  0.063  0.014  0.000  0.000  0.000  0.000  0.000  0.095
tot    0.000  0.036  0.127  0.028  0.000  0.000  0.000  0.000  0.000  0.191
 
band     7 # energy    9.18703836 # occ.  0.00000000
 
ion      s     py     pz     px    dxy    dyz    dz2    dxz  x2-y2    tot
    1  0.000  0.045  0.000  0.050  0.000  0.000  0.000  0.000  0.000  0.095
    2  0.000  0.045  0.000  0.050  0.000  0.000  0.000  0.000  0.000  0.095
tot    0.000  0.091  0.000  0.100  0.000  0.000  0.000  0.000  0.000  0.191
 
band     8 # energy   13.58496447 # occ.  0.00000000
 
ion      s     py     pz     px    dxy    dyz    dz2    dxz  x2-y2    tot
    1  0.005  0.018  0.018  0.018  0.000  0.000  0.000  0.000  0.000  0.060
    2  0.005  0.018  0.018  0.018  0.000  0.000  0.000  0.000  0.000  0.060
tot    0.011  0.037  0.037  0.037  0.000  0.000  0.000  0.000  0.000  0.121
 
band     9 # energy   15.82586010 # occ.  0.00000000
 
ion      s     py     pz     px    dxy    dyz    dz2    dxz  x2-y2    tot
    1  0.000  0.020  0.012  0.003  0.000  0.000  0.000  0.000  0.000  0.034
    2  0.000  0.020  0.012  0.003  0.000  0.000  0.000  0.000  0.000  0.034
tot    0.000  0.039  0.023  0.005  0.000  0.000  0.000  0.000  0.000  0.067
 
band    10 # energy   15.82586032 # occ.  0.00000000
 
ion      s     py     pz     px    dxy    dyz    dz2    dxz  x2-y2    tot
    1  0.000  0.003  0.011  0.020  0.000  0.000  0.000  0.000  0.000  0.034
    2  0.000  0.003  0.011  0.020  0.000  0.000  0.000  0.000  0.000  0.034
tot    0.000  0.006  0.022  0.040  0.000  0.000  0.000  0.000  0.000  0.067
 
band    11 # energy   16.84610001 # occ.  0.00000000
 
ion      s     py     pz     px    dxy    dyz    dz2    dxz  x2-y2    tot
    1  0.059  0.049  0.049  0.049  0.000  0.000  0.000  0.000  0.000  0.206
    2  0.058  0.049  0.049  0.049  0.000  0.000  0.000  0.000  0.000  0.206
tot    0.117  0.099  0.098  0.098  0.000  0.000  0.000  0.000  0.000  0.412
 
band    12 # energy   17.79178141 # occ.  0.00000000
 
ion      s     py     pz     px    dxy    dyz    dz2    dxz  x2-y2    tot
    1  0.000  0.004  0.045  0.032  0.000  0.000  0.000  0.000  0.000  0.082
    2  0.000  0.004  0.045  0.032  0.000  0.000  0.000  0.000  0.000  0.082
tot    0.000  0.008  0.091  0.064  0.000  0.000  0.000  0.000  0.000  0.163
 

 k-point     5 :    0.44285714 0.44285714 0.44285714     weight = 0.00555556

band     1 # energy   -3.96835242 # occ.  2.00000000
 
ion      s     py     pz     px    dxy    dyz    dz2    dxz  x2-y2    tot
    1  0.220  0.005  0.005  0.005  0.000  0.000  0.000  0.000  0.000  0.235
    2  0.220  0.005  0.005  0.005  0.000  0.000  0.000  0.000  0.000  0.235
tot    0.440  0.010  0.010  0.010  0.000  0.000  0.000  0.000  0.000  0.470
 
band     2 # energy   -0.88395121 # occ.  2.00000000
 
ion      s     py     pz     px    dxy    dyz    dz2    dxz  x2-y2    tot
    1  0.102  0.031  0.031  0.031  0.000  0.000  0.000  0.000  0.000  0.197
    2  0.102  0.031  0.031  0.031  0.000  0.000  0.000  0.000  0.000  0.197
tot    0.204  0.063  0.063  0.063  0.000  0.000  0.000  0.000  0.000  0.393
 
band     3 # energy    4.65759311 # occ.  2.00000000
 
ion      s     py     pz     px    dxy    dyz    dz2    dxz  x2-y2    tot
    1  0.000  0.139  0.037  0.042  0.000  0.000  0.000  0.000  0.000  0.218
    2  0.000  0.139  0.037  0.042  0.000  0.000  0.000  0.000  0.000  0.218
tot    0.000  0.278  0.073  0.085  0.000  0.000  0.000  0.000  0.000  0.436
 
band     4 # energy    4.65759311 # occ.  2.00000000
 
ion      s     py     pz     px    dxy    dyz    dz2    dxz  x2-y2    tot
    1  0.000  0.006  0.109  0.103  0.000  0.000  0.000  0.000  0.000  0.218
    2  0.000  0.006  0.109  0.103  0.000  0.000  0.000  0.000  0.000  0.218
tot    0.000  0.013  0.217  0.206  0.000  0.000  0.000  0.000  0.000  0.436
 
band     5 # energy    7.40036717 # occ.  0.00000000
 
ion      s     py     pz     px    dxy    dyz    dz2    dxz  x2-y2    tot
    1  0.184  0.007  0.007  0.007  0.000  0.000  0.000  0.000  0.000  0.205
    2  0.184  0.007  0.007  0.007  0.000  0.000  0.000  0.000  0.000  0.205
tot    0.369  0.014  0.014  0.014  0.000  0.000  0.000  0.000  0.000  0.410
 
band     6 # energy    9.19837128 # occ.  0.00000000
 
ion      s     py     pz     px    dxy    dyz    dz2    dxz  x2-y2    tot
    1  0.000  0.039  0.007  0.051  0.000  0.000  0.000  0.000  0.000  0.096
    2  0.000  0.039  0.007  0.051  0.000  0.000  0.000  0.000  0.000  0.096
tot    0.000  0.077  0.013  0.102  0.000  0.000  0.000  0.000  0.000  0.193
 
band     7 # energy    9.19837128 # occ.  0.00000000
 
ion      s     py     pz     px    dxy    dyz    dz2    dxz  x2-y2    tot
    1  0.000  0.026  0.058  0.013  0.000  0.000  0.000  0.000  0.000  0.096
    2  0.000  0.026  0.058  0.013  0.000  0.000  0.000  0.000  0.000  0.096
tot    0.000  0.051  0.115  0.027  0.000  0.000  0.000  0.000  0.000  0.193
 
band     8 # energy   13.60243311 # occ.  0.00000000
 
ion      s     py     pz     px    dxy    dyz    dz2    dxz  x2-y2    tot
    1  0.005  0.019  0.019  0.019  0.000  0.000  0.000  0.000  0.000  0.062
    2  0.005  0.019  0.019  0.019  0.000  0.000  0.000  0.000  0.000  0.062
tot    0.010  0.038  0.038  0.038  0.000  0.000  0.000  0.000  0.000  0.124
 
band     9 # energy   15.56963673 # occ.  0.00000000
 
ion      s     py     pz     px    dxy    dyz    dz2    dxz  x2-y2    tot
    1  0.000  0.020  0.018  0.000  0.000  0.000  0.000  0.000  0.000  0.038
    2  0.000  0.020  0.018  0.000  0.000  0.000  0.000  0.000  0.000  0.038
tot    0.000  0.040  0.036  0.000  0.000  0.000  0.000  0.000  0.000  0.076
 
band    10 # energy   15.56963827 # occ.  0.00000000
 
ion      s     py     pz     px    dxy    dyz    dz2    dxz  x2-y2    tot
    1  0.000  0.006  0.007  0.025  0.000  0.000  0.000  0.000  0.000  0.038
    2  0.000  0.006  0.007  0.025  0.000  0.000  0.000  0.000  0.000  0.038
tot    0.000  0.011  0.014  0.051  0.000  0.000  0.000  0.000  0.000  0.076
 
band    11 # energy   16.63716623 # occ.  0.00000000
 
ion      s     py     pz     px    dxy    dyz    dz2    dxz  x2-y2    tot
    1  0.067  0.048  0.048  0.048  0.000  0.000  0.000  0.000  0.000  0.210
    2  0.067  0.048  0.048  0.048  0.000  0.000  0.000  0.000  0.000  0.211
tot    0.135  0.096  0.096  0.096  0.000  0.000  0.000  0.000  0.000  0.422
 
band    12 # energy   18.09061475 # occ.  0.00000000
 
ion      s     py     pz     px    dxy    dyz    dz2    dxz  x2-y2    tot
    1  0.000  0.005  0.031  0.040  0.000  0.000  0.000  0.000  0.000  0.076
    2  0.000  0.005  0.032  0.040  0.000  0.000  0.000  0.000  0.000  0.076
tot    0.000  0.010  0.063  0.079  0.000  0.000  0.000  0.000  0.000  0.152
 

 k-point     6 :    0.42857143 0.42857143 0.42857143     weight = 0.00555556

band     1 # energy   -4.05282514 # occ.  2.00000000
 
ion      s     py     pz     px    dxy    dyz    dz2    dxz  x2-y2    tot
    1  0.218  0.005  0.005  0.005  0.000  0.000  0.000  0.000  0.000  0.233
    2  0.218  0.005  0.005  0.005  0.000  0.000  0.000  0.000  0.000  0.233
tot    0.437  0.010  0.010  0.010  0.000  0.000  0.000  0.000  0.000  0.466
 
band     2 # energy   -0.75416577 # occ.  2.00000000
 
ion      s     py     pz     px    dxy    dyz    dz2    dxz  x2-y2    tot
    1  0.104  0.032  0.032  0.032  0.000  0.000  0.000  0.000  0.000  0.198
    2  0.104  0.032  0.032  0.032  0.000  0.000  0.000  0.000  0.000  0.198
tot    0.207  0.063  0.063  0.063  0.000  0.000  0.000  0.000  0.000  0.397
 
band     3 # energy    4.67075111 # occ.  2.00000000
 
ion      s     py     pz     px    dxy    dyz    dz2    dxz  x2-y2    tot
    1  0.000  0.078  0.083  0.057  0.000  0.000  0.000  0.000  0.000  0.218
    2  0.000  0.078  0.083  0.057  0.000  0.000  0.000  0.000  0.000  0.218
tot    0.000  0.157  0.165  0.114  0.000  0.000  0.000  0.000  0.000  0.436
 
band     4 # energy    4.67075112 # occ.  2.00000000
 
ion      s     py     pz     px    dxy    dyz    dz2    dxz  x2-y2    tot
    1  0.000  0.067  0.063  0.088  0.000  0.000  0.000  0.000  0.000  0.218
    2  0.000  0.067  0.063  0.088  0.000  0.000  0.000  0.000  0.000  0.218
tot    0.000  0.134  0.125  0.177  0.000  0.000  0.000  0.000  0.000  0.436
 
band     5 # energy    7.41548121 # occ.  0.00000000
 
ion      s     py     pz     px    dxy    dyz    dz2    dxz  x2-y2    tot
    1  0.184  0.007  0.007  0.007  0.000  0.000  0.000  0.000  0.000  0.205
    2  0.184  0.007  0.007  0.007  0.000  0.000  0.000  0.000  0.000  0.205
tot    0.367  0.014  0.014  0.014  0.000  0.000  0.000  0.000  0.000  0.410
 
band     6 # energy    9.21261220 # occ.  0.00000000
 
ion      s     py     pz     px    dxy    dyz    dz2    dxz  x2-y2    tot
    1  0.000  0.026  0.010  0.061  0.000  0.000  0.000  0.000  0.000  0.098
    2  0.000  0.026  0.010  0.061  0.000  0.000  0.000  0.000  0.000  0.098
tot    0.000  0.053  0.020  0.123  0.000  0.000  0.000  0.000  0.000  0.195
 
band     7 # energy    9.21261223 # occ.  0.00000000
 
ion      s     py     pz     px    dxy    dyz    dz2    dxz  x2-y2    tot
    1  0.000  0.039  0.055  0.004  0.000  0.000  0.000  0.000  0.000  0.098
    2  0.000  0.039  0.055  0.004  0.000  0.000  0.000  0.000  0.000  0.098
tot    0.000  0.077  0.111  0.007  0.000  0.000  0.000  0.000  0.000  0.195
 
band     8 # energy   13.62394450 # occ.  0.00000000
 
ion      s     py     pz     px    dxy    dyz    dz2    dxz  x2-y2    tot
    1  0.005  0.020  0.020  0.020  0.000  0.000  0.000  0.000  0.000  0.065
    2  0.005  0.020  0.020  0.020  0.000  0.000  0.000  0.000  0.000  0.064
tot    0.009  0.040  0.040  0.040  0.000  0.000  0.000  0.000  0.000  0.129
 
band     9 # energy   15.31422455 # occ.  0.00000000
 
ion      s     py     pz     px    dxy    dyz    dz2    dxz  x2-y2    tot
    1  0.000  0.026  0.004  0.010  0.000  0.000  0.000  0.000  0.000  0.040
    2  0.000  0.026  0.004  0.010  0.000  0.000  0.000  0.000  0.000  0.040
tot    0.000  0.053  0.008  0.021  0.000  0.000  0.000  0.000  0.000  0.081
 
band    10 # energy   15.31422543 # occ.  0.00000000
 
ion      s     py     pz     px    dxy    dyz    dz2    dxz  x2-y2    tot
    1  0.000  0.001  0.023  0.017  0.000  0.000  0.000  0.000  0.000  0.040
    2  0.000  0.001  0.023  0.017  0.000  0.000  0.000  0.000  0.000  0.040
tot    0.000  0.001  0.046  0.033  0.000  0.000  0.000  0.000  0.000  0.081
 
band    11 # energy   16.41047806 # occ.  0.00000000
 
ion      s     py     pz     px    dxy    dyz    dz2    dxz  x2-y2    tot
    1  0.076  0.046  0.046  0.046  0.000  0.000  0.000  0.000  0.000  0.214
    2  0.076  0.046  0.046  0.046  0.000  0.000  0.000  0.000  0.000  0.214
tot    0.151  0.092  0.092  0.092  0.000  0.000  0.000  0.000  0.000  0.428
 
band    12 # energy   18.40062710 # occ.  0.00000000
 
ion      s     py     pz     px    dxy    dyz    dz2    dxz  x2-y2    tot
    1  0.000  0.006  0.044  0.023  0.000  0.000  0.000  0.000  0.000  0.072
    2  0.000  0.006  0.043  0.023  0.000  0.000  0.000  0.000  0.000  0.072
tot    0.000  0.012  0.086  0.046  0.000  0.000  0.000  0.000  0.000  0.144
 

 k-point     7 :    0.41428571 0.41428571 0.41428571     weight = 0.00555556

band     1 # energy   -4.14711049 # occ.  2.00000000
 
ion      s     py     pz     px    dxy    dyz    dz2    dxz  x2-y2    tot
    1  0.217  0.005  0.005  0.005  0.000  0.000  0.000  0.000  0.000  0.231
    2  0.217  0.005  0.005  0.005  0.000  0.000  0.000  0.000  0.000  0.231
tot    0.433  0.010  0.010  0.010  0.000  0.000  0.000  0.000  0.000  0.463
 
band     2 # energy   -0.60456717 # occ.  2.00000000
 
ion      s     py     pz     px    dxy    dyz    dz2    dxz  x2-y2    tot
    1  0.105  0.032  0.032  0.032  0.000  0.000  0.000  0.000  0.000  0.200
    2  0.105  0.032  0.032  0.032  0.000  0.000  0.000  0.000  0.000  0.200
tot    0.209  0.064  0.064  0.064  0.000  0.000  0.000  0.000  0.000  0.400
 
band     3 # energy    4.68682161 # occ.  2.00000000
 
ion      s     py     pz     px    dxy    dyz    dz2    dxz  x2-y2    tot
    1  0.000  0.077  0.008  0.133  0.000  0.000  0.000  0.000  0.000  0.218
    2  0.000  0.077  0.008  0.133  0.000  0.000  0.000  0.000  0.000  0.218
tot    0.000  0.154  0.015  0.266  0.000  0.000  0.000  0.000  0.000  0.435
 
band     4 # energy    4.68682161 # occ.  2.00000000
 
ion      s     py     pz     px    dxy    dyz    dz2    dxz  x2-y2    tot
    1  0.000  0.068  0.137  0.012  0.000  0.000  0.000  0.000  0.000  0.218
    2  0.000  0.068  0.137  0.012  0.000  0.000  0.000  0.000  0.000  0.218
tot    0.000  0.136  0.275  0.024  0.000  0.000  0.000  0.000  0.000  0.435
 
band     5 # energy    7.43390087 # occ.  0.00000000
 
ion      s     py     pz     px    dxy    dyz    dz2    dxz  x2-y2    tot
    1  0.182  0.007  0.007  0.007  0.000  0.000  0.000  0.000  0.000  0.205
    2  0.182  0.007  0.007  0.007  0.000  0.000  0.000  0.000  0.000  0.205
tot    0.365  0.015  0.015  0.015  0.000  0.000  0.000  0.000  0.000  0.410
 
band     6 # energy    9.22926267 # occ.  0.00000000
 
ion      s     py     pz     px    dxy    dyz    dz2    dxz  x2-y2    tot
    1  0.000  0.011  0.066  0.022  0.000  0.000  0.000  0.000  0.000  0.099
    2  0.000  0.011  0.066  0.022  0.000  0.000  0.000  0.000  0.000  0.099
tot    0.000  0.023  0.131  0.045  0.000  0.000  0.000  0.000  0.000  0.199
 
band     7 # energy    9.22926267 # occ.  0.00000000
 
ion      s     py     pz     px    dxy    dyz    dz2    dxz  x2-y2    tot
    1  0.000  0.055  0.001  0.044  0.000  0.000  0.000  0.000  0.000  0.099
    2  0.000  0.055  0.001  0.044  0.000  0.000  0.000  0.000  0.000  0.099
tot    0.000  0.110  0.001  0.088  0.000  0.000  0.000  0.000  0.000  0.199
 
band     8 # energy   13.64848888 # occ.  0.00000000
 
ion      s     py     pz     px    dxy    dyz    dz2    dxz  x2-y2    tot
    1  0.004  0.021  0.021  0.021  0.000  0.000  0.000  0.000  0.000  0.068
    2  0.004  0.021  0.021  0.021  0.000  0.000  0.000  0.000  0.000  0.068
tot    0.009  0.042  0.042  0.042  0.000  0.000  0.000  0.000  0.000  0.136
 
band     9 # energy   15.06351677 # occ.  0.00000000
 
ion      s     py     pz     px    dxy    dyz    dz2    dxz  x2-y2    tot
    1  0.000  0.006  0.009  0.027  0.000  0.000  0.000  0.000  0.000  0.042
    2  0.000  0.006  0.009  0.027  0.000  0.000  0.000  0.000  0.000  0.042
tot    0.000  0.011  0.018  0.055  0.000  0.000  0.000  0.000  0.000  0.083
 
band    10 # energy   15.06351680 # occ.  0.00000000
 
ion      s     py     pz     px    dxy    dyz    dz2    dxz  x2-y2    tot
    1  0.000  0.022  0.019  0.000  0.000  0.000  0.000  0.000  0.000  0.042
    2  0.000  0.022  0.019  0.000  0.000  0.000  0.000  0.000  0.000  0.042
tot    0.000  0.044  0.038  0.001  0.000  0.000  0.000  0.000  0.000  0.083
 
band    11 # energy   16.17498860 # occ.  0.00000000
 
ion      s     py     pz     px    dxy    dyz    dz2    dxz  x2-y2    tot
    1  0.084  0.044  0.044  0.044  0.000  0.000  0.000  0.000  0.000  0.216
    2  0.084  0.044  0.044  0.044  0.000  0.000  0.000  0.000  0.000  0.216
tot    0.167  0.088  0.088  0.088  0.000  0.000  0.000  0.000  0.000  0.432
 
band    12 # energy   18.71669860 # occ.  0.00000000
 
ion      s     py     pz     px    dxy    dyz    dz2    dxz  x2-y2    tot
    1  0.000  0.020  0.045  0.005  0.000  0.000  0.000  0.000  0.000  0.070
    2  0.000  0.020  0.044  0.005  0.000  0.000  0.000  0.000  0.000  0.070
tot    0.000  0.040  0.089  0.011  0.000  0.000  0.000  0.000  0.000  0.139
 

 k-point     8 :    0.40000000 0.40000000 0.40000000     weight = 0.00555556

band     1 # energy   -4.24826652 # occ.  2.00000000
 
ion      s     py     pz     px    dxy    dyz    dz2    dxz  x2-y2    tot
    1  0.215  0.005  0.005  0.005  0.000  0.000  0.000  0.000  0.000  0.230
    2  0.215  0.005  0.005  0.005  0.000  0.000  0.000  0.000  0.000  0.230
tot    0.430  0.010  0.010  0.010  0.000  0.000  0.000  0.000  0.000  0.460
 
band     2 # energy   -0.43815065 # occ.  2.00000000
 
ion      s     py     pz     px    dxy    dyz    dz2    dxz  x2-y2    tot
    1  0.106  0.032  0.032  0.032  0.000  0.000  0.000  0.000  0.000  0.202
    2  0.106  0.032  0.032  0.032  0.000  0.000  0.000  0.000  0.000  0.202
tot    0.211  0.064  0.064  0.064  0.000  0.000  0.000  0.000  0.000  0.404
 
band     3 # energy    4.70579589 # occ.  2.00000000
 
ion      s     py     pz     px    dxy    dyz    dz2    dxz  x2-y2    tot
    1  0.000  0.017  0.060  0.140  0.000  0.000  0.000  0.000  0.000  0.217
    2  0.000  0.017  0.060  0.140  0.000  0.000  0.000  0.000  0.000  0.217
tot    0.000  0.034  0.120  0.281  0.000  0.000  0.000  0.000  0.000  0.435
 
band     4 # energy    4.70579590 # occ.  2.00000000
 
ion      s     py     pz     px    dxy    dyz    dz2    dxz  x2-y2    tot
    1  0.000  0.128  0.085  0.005  0.000  0.000  0.000  0.000  0.000  0.217
    2  0.000  0.128  0.085  0.005  0.000  0.000  0.000  0.000  0.000  0.217
tot    0.000  0.256  0.170  0.009  0.000  0.000  0.000  0.000  0.000  0.435
 
band     5 # energy    7.45561366 # occ.  0.00000000
 
ion      s     py     pz     px    dxy    dyz    dz2    dxz  x2-y2    tot
    1  0.181  0.008  0.008  0.008  0.000  0.000  0.000  0.000  0.000  0.205
    2  0.181  0.008  0.008  0.008  0.000  0.000  0.000  0.000  0.000  0.205
tot    0.362  0.016  0.016  0.016  0.000  0.000  0.000  0.000  0.000  0.410
 
band     6 # energy    9.24784454 # occ.  0.00000000
 
ion      s     py     pz     px    dxy    dyz    dz2    dxz  x2-y2    tot
    1  0.000  0.061  0.003  0.036  0.000  0.000  0.000  0.000  0.000  0.101
    2  0.000  0.061  0.003  0.036  0.000  0.000  0.000  0.000  0.000  0.101
tot    0.000  0.123  0.007  0.073  0.000  0.000  0.000  0.000  0.000  0.202
 
band     7 # energy    9.24784459 # occ.  0.00000000
 
ion      s     py     pz     px    dxy    dyz    dz2    dxz  x2-y2    tot
    1  0.000  0.006  0.064  0.031  0.000  0.000  0.000  0.000  0.000  0.101
    2  0.000  0.006  0.064  0.031  0.000  0.000  0.000  0.000  0.000  0.101
tot    0.000  0.012  0.128  0.062  0.000  0.000  0.000  0.000  0.000  0.202
 
band     8 # energy   13.67471791 # occ.  0.00000000
 
ion      s     py     pz     px    dxy    dyz    dz2    dxz  x2-y2    tot
    1  0.004  0.023  0.023  0.023  0.000  0.000  0.000  0.000  0.000  0.072
    2  0.004  0.023  0.023  0.023  0.000  0.000  0.000  0.000  0.000  0.072
tot    0.008  0.046  0.046  0.046  0.000  0.000  0.000  0.000  0.000  0.145
 
band     9 # energy   14.81998923 # occ.  0.00000000
 
ion      s     py     pz     px    dxy    dyz    dz2    dxz  x2-y2    tot
    1  0.000  0.026  0.013  0.003  0.000  0.000  0.000  0.000  0.000  0.042
    2  0.000  0.026  0.013  0.003  0.000  0.000  0.000  0.000  0.000  0.042
tot    0.000  0.052  0.025  0.006  0.000  0.000  0.000  0.000  0.000  0.084
 
band    10 # energy   14.81998926 # occ.  0.00000000
 
ion      s     py     pz     px    dxy    dyz    dz2    dxz  x2-y2    tot
    1  0.000  0.002  0.015  0.025  0.000  0.000  0.000  0.000  0.000  0.042
    2  0.000  0.002  0.015  0.025  0.000  0.000  0.000  0.000  0.000  0.042
tot    0.000  0.003  0.031  0.050  0.000  0.000  0.000  0.000  0.000  0.084
 
band    11 # energy   15.93672723 # occ.  0.00000000
 
ion      s     py     pz     px    dxy    dyz    dz2    dxz  x2-y2    tot
    1  0.091  0.042  0.041  0.041  0.000  0.000  0.000  0.000  0.000  0.216
    2  0.091  0.042  0.042  0.042  0.000  0.000  0.000  0.000  0.000  0.216
tot    0.182  0.083  0.083  0.083  0.000  0.000  0.000  0.000  0.000  0.431
 
band    12 # energy   19.03730513 # occ.  0.00000000
 
ion      s     py     pz     px    dxy    dyz    dz2    dxz  x2-y2    tot
    1  0.000  0.040  0.018  0.010  0.000  0.000  0.000  0.000  0.000  0.068
    2  0.000  0.037  0.018  0.012  0.000  0.000  0.000  0.000  0.000  0.067
tot    0.000  0.077  0.036  0.022  0.000  0.000  0.000  0.000  0.000  0.135
 

 k-point     9 :    0.38571429 0.38571429 0.38571429     weight = 0.00555556

band     1 # energy   -4.35387381 # occ.  2.00000000
 
ion      s     py     pz     px    dxy    dyz    dz2    dxz  x2-y2    tot
    1  0.214  0.005  0.005  0.005  0.000  0.000  0.000  0.000  0.000  0.228
    2  0.214  0.005  0.005  0.005  0.000  0.000  0.000  0.000  0.000  0.228
tot    0.427  0.010  0.010  0.010  0.000  0.000  0.000  0.000  0.000  0.457
 
band     2 # energy   -0.25740672 # occ.  2.00000000
 
ion      s     py     pz     px    dxy    dyz    dz2    dxz  x2-y2    tot
    1  0.106  0.032  0.032  0.032  0.000  0.000  0.000  0.000  0.000  0.203
    2  0.106  0.032  0.032  0.032  0.000  0.000  0.000  0.000  0.000  0.203
tot    0.212  0.065  0.065  0.065  0.000  0.000  0.000  0.000  0.000  0.407
 
band     3 # energy    4.72766045 # occ.  2.00000000
 
ion      s     py     pz     px    dxy    dyz    dz2    dxz  x2-y2    tot
    1  0.000  0.135  0.010  0.072  0.000  0.000  0.000  0.000  0.000  0.217
    2  0.000  0.135  0.010  0.072  0.000  0.000  0.000  0.000  0.000  0.217
tot    0.000  0.271  0.020  0.143  0.000  0.000  0.000  0.000  0.000  0.434
 
band     4 # energy    4.72766046 # occ.  2.00000000
 
ion      s     py     pz     px    dxy    dyz    dz2    dxz  x2-y2    tot
    1  0.000  0.009  0.135  0.073  0.000  0.000  0.000  0.000  0.000  0.217
    2  0.000  0.009  0.135  0.073  0.000  0.000  0.000  0.000  0.000  0.217
tot    0.000  0.019  0.269  0.146  0.000  0.000  0.000  0.000  0.000  0.434
 
band     5 # energy    7.48057481 # occ.  0.00000000
 
ion      s     py     pz     px    dxy    dyz    dz2    dxz  x2-y2    tot
    1  0.180  0.008  0.008  0.008  0.000  0.000  0.000  0.000  0.000  0.205
    2  0.180  0.008  0.008  0.008  0.000  0.000  0.000  0.000  0.000  0.205
tot    0.359  0.017  0.017  0.017  0.000  0.000  0.000  0.000  0.000  0.409
 
band     6 # energy    9.26776448 # occ.  0.00000000
 
ion      s     py     pz     px    dxy    dyz    dz2    dxz  x2-y2    tot
    1  0.000  0.033  0.013  0.057  0.000  0.000  0.000  0.000  0.000  0.103
    2  0.000  0.033  0.013  0.057  0.000  0.000  0.000  0.000  0.000  0.103
tot    0.000  0.067  0.026  0.114  0.000  0.000  0.000  0.000  0.000  0.207
 
band     7 # energy    9.26776452 # occ.  0.00000000
 
ion      s     py     pz     px    dxy    dyz    dz2    dxz  x2-y2    tot
    1  0.000  0.036  0.056  0.012  0.000  0.000  0.000  0.000  0.000  0.103
    2  0.000  0.036  0.056  0.012  0.000  0.000  0.000  0.000  0.000  0.103
tot    0.000  0.071  0.112  0.024  0.000  0.000  0.000  0.000  0.000  0.207
 
band     8 # energy   13.70033104 # occ.  0.00000000
 
ion      s     py     pz     px    dxy    dyz    dz2    dxz  x2-y2    tot
    1  0.004  0.025  0.025  0.025  0.000  0.000  0.000  0.000  0.000  0.079
    2  0.004  0.025  0.025  0.025  0.000  0.000  0.000  0.000  0.000  0.079
tot    0.007  0.050  0.050  0.050  0.000  0.000  0.000  0.000  0.000  0.158
 
band     9 # energy   14.58509555 # occ.  0.00000000
 
ion      s     py     pz     px    dxy    dyz    dz2    dxz  x2-y2    tot
    1  0.000  0.010  0.012  0.020  0.000  0.000  0.000  0.000  0.000  0.041
    2  0.000  0.010  0.012  0.020  0.000  0.000  0.000  0.000  0.000  0.041
tot    0.000  0.019  0.023  0.040  0.000  0.000  0.000  0.000  0.000  0.083
 
band    10 # energy   14.58509561 # occ.  0.00000000
 
ion      s     py     pz     px    dxy    dyz    dz2    dxz  x2-y2    tot
    1  0.000  0.018  0.016  0.008  0.000  0.000  0.000  0.000  0.000  0.041
    2  0.000  0.018  0.016  0.008  0.000  0.000  0.000  0.000  0.000  0.041
tot    0.000  0.036  0.032  0.015  0.000  0.000  0.000  0.000  0.000  0.083
 
band    11 # energy   15.70068055 # occ.  0.00000000
 
ion      s     py     pz     px    dxy    dyz    dz2    dxz  x2-y2    tot
    1  0.098  0.038  0.038  0.038  0.000  0.000  0.000  0.000  0.000  0.213
    2  0.098  0.038  0.038  0.038  0.000  0.000  0.000  0.000  0.000  0.213
tot    0.196  0.077  0.077  0.077  0.000  0.000  0.000  0.000  0.000  0.426
 
band    12 # energy   19.35697801 # occ.  0.00000000
 
ion      s     py     pz     px    dxy    dyz    dz2    dxz  x2-y2    tot
    1  0.000  0.042  0.018  0.006  0.000  0.000  0.000  0.000  0.000  0.065
    2  0.000  0.044  0.016  0.005  0.000  0.000  0.000  0.000  0.000  0.065
tot    0.000  0.086  0.034  0.011  0.000  0.000  0.000  0.000  0.000  0.131
 

 k-point    10 :    0.37142857 0.37142857 0.37142857     weight = 0.00555556

band     1 # energy   -4.46197355 # occ.  2.00000000
 
ion      s     py     pz     px    dxy    dyz    dz2    dxz  x2-y2    tot
    1  0.213  0.005  0.005  0.005  0.000  0.000  0.000  0.000  0.000  0.227
    2  0.213  0.005  0.005  0.005  0.000  0.000  0.000  0.000  0.000  0.227
tot    0.425  0.009  0.009  0.009  0.000  0.000  0.000  0.000  0.000  0.454
 
band     2 # energy   -0.06434666 # occ.  2.00000000
 
ion      s     py     pz     px    dxy    dyz    dz2    dxz  x2-y2    tot
    1  0.106  0.033  0.033  0.033  0.000  0.000  0.000  0.000  0.000  0.205
    2  0.106  0.033  0.033  0.033  0.000  0.000  0.000  0.000  0.000  0.205
tot    0.212  0.066  0.066  0.066  0.000  0.000  0.000  0.000  0.000  0.410
 
band     3 # energy    4.75238469 # occ.  2.00000000
 
ion      s     py     pz     px    dxy    dyz    dz2    dxz  x2-y2    tot
    1  0.000  0.042  0.030  0.144  0.000  0.000  0.000  0.000  0.000  0.217
    2  0.000  0.042  0.030  0.144  0.000  0.000  0.000  0.000  0.000  0.217
tot    0.000  0.084  0.061  0.288  0.000  0.000  0.000  0.000  0.000  0.434
 
band     4 # energy    4.75238470 # occ.  2.00000000
 
ion      s     py     pz     px    dxy    dyz    dz2    dxz  x2-y2    tot
    1  0.000  0.102  0.114  0.000  0.000  0.000  0.000  0.000  0.000  0.217
    2  0.000  0.102  0.114  0.000  0.000  0.000  0.000  0.000  0.000  0.217
tot    0.000  0.205  0.228  0.001  0.000  0.000  0.000  0.000  0.000  0.434
 
band     5 # energy    7.50873659 # occ.  0.00000000
 
ion      s     py     pz     px    dxy    dyz    dz2    dxz  x2-y2    tot
    1  0.178  0.009  0.009  0.009  0.000  0.000  0.000  0.000  0.000  0.205
    2  0.178  0.009  0.009  0.009  0.000  0.000  0.000  0.000  0.000  0.205
tot    0.356  0.018  0.018  0.018  0.000  0.000  0.000  0.000  0.000  0.409
 
band     6 # energy    9.28830008 # occ.  0.00000000
 
ion      s     py     pz     px    dxy    dyz    dz2    dxz  x2-y2    tot
    1  0.000  0.025  0.018  0.063  0.000  0.000  0.000  0.000  0.000  0.106
    2  0.000  0.025  0.018  0.063  0.000  0.000  0.000  0.000  0.000  0.106
tot    0.000  0.050  0.035  0.127  0.000  0.000  0.000  0.000  0.000  0.212
 
band     7 # energy    9.28830010 # occ.  0.00000000
 
ion      s     py     pz     px    dxy    dyz    dz2    dxz  x2-y2    tot
    1  0.000  0.046  0.053  0.007  0.000  0.000  0.000  0.000  0.000  0.106
    2  0.000  0.046  0.053  0.007  0.000  0.000  0.000  0.000  0.000  0.106
tot    0.000  0.091  0.106  0.015  0.000  0.000  0.000  0.000  0.000  0.212
 
band     8 # energy   13.72175687 # occ.  0.00000000
 
ion      s     py     pz     px    dxy    dyz    dz2    dxz  x2-y2    tot
    1  0.004  0.028  0.028  0.028  0.000  0.000  0.000  0.000  0.000  0.089
    2  0.004  0.028  0.028  0.028  0.000  0.000  0.000  0.000  0.000  0.089
tot    0.008  0.056  0.056  0.056  0.000  0.000  0.000  0.000  0.000  0.177
 
band     9 # energy   14.36000749 # occ.  0.00000000
 
ion      s     py     pz     px    dxy    dyz    dz2    dxz  x2-y2    tot
    1  0.000  0.001  0.020  0.020  0.000  0.000  0.000  0.000  0.000  0.040
    2  0.000  0.001  0.020  0.020  0.000  0.000  0.000  0.000  0.000  0.040
tot    0.000  0.002  0.039  0.040  0.000  0.000  0.000  0.000  0.000  0.081
 
band    10 # energy   14.36000768 # occ.  0.00000000
 
ion      s     py     pz     px    dxy    dyz    dz2    dxz  x2-y2    tot
    1  0.000  0.026  0.007  0.007  0.000  0.000  0.000  0.000  0.000  0.040
    2  0.000  0.026  0.007  0.007  0.000  0.000  0.000  0.000  0.000  0.040
tot    0.000  0.052  0.014  0.014  0.000  0.000  0.000  0.000  0.000  0.081
 
band    11 # energy   15.47203539 # occ.  0.00000000
 
ion      s     py     pz     px    dxy    dyz    dz2    dxz  x2-y2    tot
    1  0.104  0.034  0.034  0.034  0.000  0.000  0.000  0.000  0.000  0.207
    2  0.104  0.034  0.034  0.034  0.000  0.000  0.000  0.000  0.000  0.207
tot    0.208  0.069  0.069  0.069  0.000  0.000  0.000  0.000  0.000  0.415
 
band    12 # energy   19.68149593 # occ.  0.00000000
 
ion      s     py     pz     px    dxy    dyz    dz2    dxz  x2-y2    tot
    1  0.000  0.001  0.029  0.036  0.000  0.000  0.000  0.000  0.000  0.066
    2  0.000  0.004  0.044  0.019  0.000  0.000  0.000  0.000  0.000  0.068
tot    0.001  0.005  0.074  0.055  0.000  0.000  0.000  0.000  0.000  0.134
 

 k-point    11 :    0.35714286 0.35714286 0.35714286     weight = 0.00555556

band     1 # energy   -4.57100465 # occ.  2.00000000
 
ion      s     py     pz     px    dxy    dyz    dz2    dxz  x2-y2    tot
    1  0.212  0.005  0.005  0.005  0.000  0.000  0.000  0.000  0.000  0.226
    2  0.212  0.005  0.005  0.005  0.000  0.000  0.000  0.000  0.000  0.226
tot    0.424  0.009  0.009  0.009  0.000  0.000  0.000  0.000  0.000  0.451
 
band     2 # energy    0.13940477 # occ.  2.00000000
 
ion      s     py     pz     px    dxy    dyz    dz2    dxz  x2-y2    tot
    1  0.106  0.034  0.034  0.034  0.000  0.000  0.000  0.000  0.000  0.206
    2  0.106  0.034  0.034  0.034  0.000  0.000  0.000  0.000  0.000  0.206
tot    0.212  0.067  0.067  0.067  0.000  0.000  0.000  0.000  0.000  0.413
 
band     3 # energy    4.77996968 # occ.  2.00000000
 
ion      s     py     pz     px    dxy    dyz    dz2    dxz  x2-y2    tot
    1  0.000  0.098  0.116  0.003  0.000  0.000  0.000  0.000  0.000  0.216
    2  0.000  0.098  0.116  0.003  0.000  0.000  0.000  0.000  0.000  0.216
tot    0.000  0.197  0.231  0.005  0.000  0.000  0.000  0.000  0.000  0.433
 
band     4 # energy    4.77996970 # occ.  2.00000000
 
ion      s     py     pz     px    dxy    dyz    dz2    dxz  x2-y2    tot
    1  0.000  0.046  0.029  0.142  0.000  0.000  0.000  0.000  0.000  0.216
    2  0.000  0.046  0.029  0.142  0.000  0.000  0.000  0.000  0.000  0.216
tot    0.000  0.092  0.058  0.283  0.000  0.000  0.000  0.000  0.000  0.433
 
band     5 # energy    7.53994879 # occ.  0.00000000
 
ion      s     py     pz     px    dxy    dyz    dz2    dxz  x2-y2    tot
    1  0.176  0.009  0.009  0.009  0.000  0.000  0.000  0.000  0.000  0.204
    2  0.176  0.009  0.009  0.009  0.000  0.000  0.000  0.000  0.000  0.204
tot    0.352  0.019  0.019  0.019  0.000  0.000  0.000  0.000  0.000  0.409
 
band     6 # energy    9.30862666 # occ.  0.00000000
 
ion      s     py     pz     px    dxy    dyz    dz2    dxz  x2-y2    tot
    1  0.000  0.015  0.027  0.067  0.000  0.000  0.000  0.000  0.000  0.109
    2  0.000  0.015  0.027  0.067  0.000  0.000  0.000  0.000  0.000  0.109
tot    0.000  0.031  0.054  0.133  0.000  0.000  0.000  0.000  0.000  0.218
 
band     7 # energy    9.30862672 # occ.  0.00000000
 
ion      s     py     pz     px    dxy    dyz    dz2    dxz  x2-y2    tot
    1  0.000  0.057  0.046  0.006  0.000  0.000  0.000  0.000  0.000  0.109
    2  0.000  0.057  0.046  0.006  0.000  0.000  0.000  0.000  0.000  0.109
tot    0.000  0.114  0.092  0.012  0.000  0.000  0.000  0.000  0.000  0.218
 
band     8 # energy   13.73321737 # occ.  0.00000000
 
ion      s     py     pz     px    dxy    dyz    dz2    dxz  x2-y2    tot
    1  0.006  0.032  0.032  0.032  0.000  0.000  0.000  0.000  0.000  0.103
    2  0.006  0.032  0.032  0.032  0.000  0.000  0.000  0.000  0.000  0.103
tot    0.012  0.064  0.064  0.064  0.000  0.000  0.000  0.000  0.000  0.205
 
band     9 # energy   14.14616759 # occ.  0.00000000
 
ion      s     py     pz     px    dxy    dyz    dz2    dxz  x2-y2    tot
    1  0.000  0.009  0.004  0.026  0.000  0.000  0.000  0.000  0.000  0.039
    2  0.000  0.009  0.004  0.026  0.000  0.000  0.000  0.000  0.000  0.039
tot    0.000  0.018  0.008  0.051  0.000  0.000  0.000  0.000  0.000  0.078
 
band    10 # energy   14.14616764 # occ.  0.00000000
 
ion      s     py     pz     px    dxy    dyz    dz2    dxz  x2-y2    tot
    1  0.000  0.017  0.022  0.000  0.000  0.000  0.000  0.000  0.000  0.039
    2  0.000  0.017  0.022  0.000  0.000  0.000  0.000  0.000  0.000  0.039
tot    0.000  0.034  0.043  0.001  0.000  0.000  0.000  0.000  0.000  0.078
 
band    11 # energy   15.25742813 # occ.  0.00000000
 
ion      s     py     pz     px    dxy    dyz    dz2    dxz  x2-y2    tot
    1  0.109  0.030  0.030  0.030  0.000  0.000  0.000  0.000  0.000  0.197
    2  0.109  0.030  0.030  0.030  0.000  0.000  0.000  0.000  0.000  0.197
tot    0.217  0.059  0.059  0.059  0.000  0.000  0.000  0.000  0.000  0.394
 
band    12 # energy   19.82366031 # occ.  0.00000000
 
ion      s     py     pz     px    dxy    dyz    dz2    dxz  x2-y2    tot
    1  0.013  0.052  0.060  0.079  0.000  0.000  0.000  0.000  0.000  0.203
    2  0.013  0.067  0.079  0.044  0.000  0.000  0.000  0.000  0.000  0.203
tot    0.026  0.119  0.139  0.122  0.000  0.000  0.000  0.000  0.000  0.406
 

 k-point    12 :    0.34285714 0.34285714 0.34285714     weight = 0.00555556

band     1 # energy   -4.67974732 # occ.  2.00000000
 
ion      s     py     pz     px    dxy    dyz    dz2    dxz  x2-y2    tot
    1  0.211  0.004  0.004  0.004  0.000  0.000  0.000  0.000  0.000  0.224
    2  0.211  0.004  0.004  0.004  0.000  0.000  0.000  0.000  0.000  0.224
tot    0.422  0.009  0.009  0.009  0.000  0.000  0.000  0.000  0.000  0.449
 
band     2 # energy    0.35253827 # occ.  2.00000000
 
ion      s     py     pz     px    dxy    dyz    dz2    dxz  x2-y2    tot
    1  0.105  0.034  0.034  0.034  0.000  0.000  0.000  0.000  0.000  0.208
    2  0.105  0.034  0.034  0.034  0.000  0.000  0.000  0.000  0.000  0.208
tot    0.211  0.068  0.068  0.068  0.000  0.000  0.000  0.000  0.000  0.416
 
band     3 # energy    4.81038062 # occ.  2.00000000
 
ion      s     py     pz     px    dxy    dyz    dz2    dxz  x2-y2    tot
    1  0.000  0.110  0.003  0.103  0.000  0.000  0.000  0.000  0.000  0.216
    2  0.000  0.110  0.003  0.103  0.000  0.000  0.000  0.000  0.000  0.216
tot    0.000  0.220  0.006  0.206  0.000  0.000  0.000  0.000  0.000  0.432
 
band     4 # energy    4.81038062 # occ.  2.00000000
 
ion      s     py     pz     px    dxy    dyz    dz2    dxz  x2-y2    tot
    1  0.000  0.034  0.141  0.041  0.000  0.000  0.000  0.000  0.000  0.216
    2  0.000  0.034  0.141  0.041  0.000  0.000  0.000  0.000  0.000  0.216
tot    0.000  0.068  0.282  0.082  0.000  0.000  0.000  0.000  0.000  0.432
 
band     5 # energy    7.57433048 # occ.  0.00000000
 
ion      s     py     pz     px    dxy    dyz    dz2    dxz  x2-y2    tot
    1  0.174  0.010  0.010  0.010  0.000  0.000  0.000  0.000  0.000  0.204
    2  0.174  0.010  0.010  0.010  0.000  0.000  0.000  0.000  0.000  0.204
tot    0.348  0.020  0.020  0.020  0.000  0.000  0.000  0.000  0.000  0.409
 
band     6 # energy    9.32777725 # occ.  0.00000000
 
ion      s     py     pz     px    dxy    dyz    dz2    dxz  x2-y2    tot
    1  0.000  0.068  0.033  0.011  0.000  0.000  0.000  0.000  0.000  0.112
    2  0.000  0.068  0.033  0.011  0.000  0.000  0.000  0.000  0.000  0.112
tot    0.000  0.137  0.066  0.022  0.000  0.000  0.000  0.000  0.000  0.224
 
band     7 # energy    9.32777725 # occ.  0.00000000
 
ion      s     py     pz     px    dxy    dyz    dz2    dxz  x2-y2    tot
    1  0.000  0.006  0.042  0.064  0.000  0.000  0.000  0.000  0.000  0.112
    2  0.000  0.006  0.042  0.064  0.000  0.000  0.000  0.000  0.000  0.112
tot    0.000  0.013  0.084  0.128  0.000  0.000  0.000  0.000  0.000  0.224
 
band     8 # energy   13.72579724 # occ.  0.00000000
 
ion      s     py     pz     px    dxy    dyz    dz2    dxz  x2-y2    tot
    1  0.011  0.037  0.037  0.037  0.000  0.000  0.000  0.000  0.000  0.123
    2  0.011  0.037  0.037  0.037  0.000  0.000  0.000  0.000  0.000  0.123
tot    0.021  0.075  0.075  0.075  0.000  0.000  0.000  0.000  0.000  0.246
 
band     9 # energy   13.94479312 # occ.  0.00000000
 
ion      s     py     pz     px    dxy    dyz    dz2    dxz  x2-y2    tot
    1  0.000  0.006  0.009  0.022  0.000  0.000  0.000  0.000  0.000  0.037
    2  0.000  0.006  0.009  0.022  0.000  0.000  0.000  0.000  0.000  0.037
tot    0.000  0.012  0.018  0.043  0.000  0.000  0.000  0.000  0.000  0.074
 
band    10 # energy   13.94479314 # occ.  0.00000000
 
ion      s     py     pz     px    dxy    dyz    dz2    dxz  x2-y2    tot
    1  0.000  0.018  0.016  0.003  0.000  0.000  0.000  0.000  0.000  0.037
    2  0.000  0.018  0.016  0.003  0.000  0.000  0.000  0.000  0.000  0.037
tot    0.000  0.037  0.031  0.006  0.000  0.000  0.000  0.000  0.000  0.074
 
band    11 # energy   15.06638062 # occ.  0.00000000
 
ion      s     py     pz     px    dxy    dyz    dz2    dxz  x2-y2    tot
    1  0.110  0.024  0.024  0.024  0.000  0.000  0.000  0.000  0.000  0.181
    2  0.110  0.024  0.023  0.023  0.000  0.000  0.000  0.000  0.000  0.181
tot    0.220  0.047  0.047  0.047  0.000  0.000  0.000  0.000  0.000  0.361
 
band    12 # energy   19.62747579 # occ.  0.00000000
 
ion      s     py     pz     px    dxy    dyz    dz2    dxz  x2-y2    tot
    1  0.016  0.050  0.065  0.055  0.000  0.000  0.000  0.000  0.000  0.186
    2  0.016  0.059  0.053  0.058  0.000  0.000  0.000  0.000  0.000  0.186
tot    0.032  0.109  0.118  0.113  0.000  0.000  0.000  0.000  0.000  0.372
 

 k-point    13 :    0.32857143 0.32857143 0.32857143     weight = 0.00555556

band     1 # energy   -4.78724654 # occ.  2.00000000
 
ion      s     py     pz     px    dxy    dyz    dz2    dxz  x2-y2    tot
    1  0.211  0.004  0.004  0.004  0.000  0.000  0.000  0.000  0.000  0.223
    2  0.211  0.004  0.004  0.004  0.000  0.000  0.000  0.000  0.000  0.223
tot    0.422  0.008  0.008  0.008  0.000  0.000  0.000  0.000  0.000  0.446
 
band     2 # energy    0.57398528 # occ.  2.00000000
 
ion      s     py     pz     px    dxy    dyz    dz2    dxz  x2-y2    tot
    1  0.104  0.035  0.035  0.035  0.000  0.000  0.000  0.000  0.000  0.209
    2  0.104  0.035  0.035  0.035  0.000  0.000  0.000  0.000  0.000  0.209
tot    0.209  0.070  0.070  0.070  0.000  0.000  0.000  0.000  0.000  0.418
 
band     3 # energy    4.84356043 # occ.  2.00000000
 
ion      s     py     pz     px    dxy    dyz    dz2    dxz  x2-y2    tot
    1  0.000  0.048  0.138  0.031  0.000  0.000  0.000  0.000  0.000  0.216
    2  0.000  0.048  0.138  0.031  0.000  0.000  0.000  0.000  0.000  0.216
tot    0.000  0.095  0.275  0.061  0.000  0.000  0.000  0.000  0.000  0.431
 
band     4 # energy    4.84356043 # occ.  2.00000000
 
ion      s     py     pz     px    dxy    dyz    dz2    dxz  x2-y2    tot
    1  0.000  0.096  0.006  0.113  0.000  0.000  0.000  0.000  0.000  0.216
    2  0.000  0.096  0.006  0.113  0.000  0.000  0.000  0.000  0.000  0.216
tot    0.000  0.193  0.013  0.226  0.000  0.000  0.000  0.000  0.000  0.431
 
band     5 # energy    7.61169359 # occ.  0.00000000
 
ion      s     py     pz     px    dxy    dyz    dz2    dxz  x2-y2    tot
    1  0.172  0.011  0.011  0.011  0.000  0.000  0.000  0.000  0.000  0.204
    2  0.172  0.011  0.011  0.011  0.000  0.000  0.000  0.000  0.000  0.204
tot    0.343  0.022  0.022  0.022  0.000  0.000  0.000  0.000  0.000  0.408
 
band     6 # energy    9.34460332 # occ.  0.00000000
 
ion      s     py     pz     px    dxy    dyz    dz2    dxz  x2-y2    tot
    1  0.000  0.076  0.021  0.018  0.000  0.000  0.000  0.000  0.000  0.116
    2  0.000  0.076  0.021  0.018  0.000  0.000  0.000  0.000  0.000  0.116
tot    0.000  0.152  0.043  0.037  0.000  0.000  0.000  0.000  0.000  0.232
 
band     7 # energy    9.34460334 # occ.  0.00000000
 
ion      s     py     pz     px    dxy    dyz    dz2    dxz  x2-y2    tot
    1  0.000  0.001  0.056  0.059  0.000  0.000  0.000  0.000  0.000  0.116
    2  0.000  0.001  0.056  0.059  0.000  0.000  0.000  0.000  0.000  0.116
tot    0.000  0.002  0.112  0.118  0.000  0.000  0.000  0.000  0.000  0.232
 
band     8 # energy   13.68702631 # occ.  0.00000000
 
ion      s     py     pz     px    dxy    dyz    dz2    dxz  x2-y2    tot
    1  0.020  0.043  0.043  0.043  0.000  0.000  0.000  0.000  0.000  0.151
    2  0.020  0.043  0.043  0.043  0.000  0.000  0.000  0.000  0.000  0.151
tot    0.041  0.087  0.087  0.087  0.000  0.000  0.000  0.000  0.000  0.301
 
band     9 # energy   13.75699384 # occ.  0.00000000
 
ion      s     py     pz     px    dxy    dyz    dz2    dxz  x2-y2    tot
    1  0.000  0.018  0.013  0.003  0.000  0.000  0.000  0.000  0.000  0.034
    2  0.000  0.018  0.013  0.003  0.000  0.000  0.000  0.000  0.000  0.034
tot    0.000  0.036  0.026  0.006  0.000  0.000  0.000  0.000  0.000  0.069
 
band    10 # energy   13.75699384 # occ.  0.00000000
 
ion      s     py     pz     px    dxy    dyz    dz2    dxz  x2-y2    tot
    1  0.000  0.005  0.010  0.020  0.000  0.000  0.000  0.000  0.000  0.034
    2  0.000  0.005  0.010  0.020  0.000  0.000  0.000  0.000  0.000  0.034
tot    0.000  0.010  0.019  0.040  0.000  0.000  0.000  0.000  0.000  0.069
 
band    11 # energy   14.91132325 # occ.  0.00000000
 
ion      s     py     pz     px    dxy    dyz    dz2    dxz  x2-y2    tot
    1  0.107  0.017  0.017  0.017  0.000  0.000  0.000  0.000  0.000  0.157
    2  0.107  0.017  0.017  0.017  0.000  0.000  0.000  0.000  0.000  0.157
tot    0.213  0.034  0.034  0.034  0.000  0.000  0.000  0.000  0.000  0.314
 
band    12 # energy   19.36904226 # occ.  0.00000000
 
ion      s     py     pz     px    dxy    dyz    dz2    dxz  x2-y2    tot
    1  0.020  0.053  0.050  0.049  0.000  0.000  0.000  0.000  0.000  0.172
    2  0.019  0.049  0.051  0.052  0.000  0.000  0.000  0.000  0.000  0.171
tot    0.039  0.102  0.101  0.101  0.000  0.000  0.000  0.000  0.000  0.342
 

 k-point    14 :    0.31428571 0.31428571 0.31428571     weight = 0.00555556

band     1 # energy   -4.89273738 # occ.  2.00000000
 
ion      s     py     pz     px    dxy    dyz    dz2    dxz  x2-y2    tot
    1  0.211  0.004  0.004  0.004  0.000  0.000  0.000  0.000  0.000  0.222
    2  0.211  0.004  0.004  0.004  0.000  0.000  0.000  0.000  0.000  0.222
tot    0.421  0.008  0.008  0.008  0.000  0.000  0.000  0.000  0.000  0.444
 
band     2 # energy    0.80286219 # occ.  2.00000000
 
ion      s     py     pz     px    dxy    dyz    dz2    dxz  x2-y2    tot
    1  0.103  0.036  0.036  0.036  0.000  0.000  0.000  0.000  0.000  0.210
    2  0.103  0.036  0.036  0.036  0.000  0.000  0.000  0.000  0.000  0.210
tot    0.207  0.071  0.071  0.071  0.000  0.000  0.000  0.000  0.000  0.421
 
band     3 # energy    4.87946791 # occ.  2.00000000
 
ion      s     py     pz     px    dxy    dyz    dz2    dxz  x2-y2    tot
    1  0.000  0.130  0.019  0.066  0.000  0.000  0.000  0.000  0.000  0.215
    2  0.000  0.130  0.019  0.066  0.000  0.000  0.000  0.000  0.000  0.215
tot    0.000  0.259  0.039  0.133  0.000  0.000  0.000  0.000  0.000  0.431
 
band     4 # energy    4.87946792 # occ.  2.00000000
 
ion      s     py     pz     px    dxy    dyz    dz2    dxz  x2-y2    tot
    1  0.000  0.014  0.124  0.077  0.000  0.000  0.000  0.000  0.000  0.215
    2  0.000  0.014  0.124  0.077  0.000  0.000  0.000  0.000  0.000  0.215
tot    0.000  0.028  0.248  0.155  0.000  0.000  0.000  0.000  0.000  0.431
 
band     5 # energy    7.65194256 # occ.  0.00000000
 
ion      s     py     pz     px    dxy    dyz    dz2    dxz  x2-y2    tot
    1  0.169  0.012  0.012  0.012  0.000  0.000  0.000  0.000  0.000  0.204
    2  0.169  0.012  0.012  0.012  0.000  0.000  0.000  0.000  0.000  0.204
tot    0.338  0.023  0.023  0.023  0.000  0.000  0.000  0.000  0.000  0.408
 
band     6 # energy    9.35789373 # occ.  0.00000000
 
ion      s     py     pz     px    dxy    dyz    dz2    dxz  x2-y2    tot
    1  0.000  0.055  0.020  0.045  0.000  0.000  0.000  0.000  0.000  0.120
    2  0.000  0.055  0.020  0.045  0.000  0.000  0.000  0.000  0.000  0.120
tot    0.000  0.109  0.041  0.089  0.000  0.000  0.000  0.000  0.000  0.239
 
band     7 # energy    9.35789378 # occ.  0.00000000
 
ion      s     py     pz     px    dxy    dyz    dz2    dxz  x2-y2    tot
    1  0.000  0.025  0.059  0.035  0.000  0.000  0.000  0.000  0.000  0.120
    2  0.000  0.025  0.059  0.035  0.000  0.000  0.000  0.000  0.000  0.120
tot    0.000  0.050  0.119  0.070  0.000  0.000  0.000  0.000  0.000  0.239
 
band     8 # energy   13.58417562 # occ.  0.00000000
 
ion      s     py     pz     px    dxy    dyz    dz2    dxz  x2-y2    tot
    1  0.000  0.017  0.009  0.006  0.000  0.000  0.000  0.000  0.000  0.032
    2  0.000  0.017  0.009  0.006  0.000  0.000  0.000  0.000  0.000  0.032
tot    0.000  0.034  0.018  0.011  0.000  0.000  0.000  0.000  0.000  0.063
 
band     9 # energy   13.58417572 # occ.  0.00000000
 
ion      s     py     pz     px    dxy    dyz    dz2    dxz  x2-y2    tot
    1  0.000  0.004  0.012  0.015  0.000  0.000  0.000  0.000  0.000  0.032
    2  0.000  0.004  0.012  0.015  0.000  0.000  0.000  0.000  0.000  0.032
tot    0.000  0.008  0.024  0.031  0.000  0.000  0.000  0.000  0.000  0.063
 
band    10 # energy   13.60456026 # occ.  0.00000000
 
ion      s     py     pz     px    dxy    dyz    dz2    dxz  x2-y2    tot
    1  0.036  0.049  0.049  0.049  0.000  0.000  0.000  0.000  0.000  0.182
    2  0.036  0.049  0.049  0.049  0.000  0.000  0.000  0.000  0.000  0.182
tot    0.072  0.098  0.098  0.098  0.000  0.000  0.000  0.000  0.000  0.365
 
band    11 # energy   14.80439903 # occ.  0.00000000
 
ion      s     py     pz     px    dxy    dyz    dz2    dxz  x2-y2    tot
    1  0.097  0.011  0.011  0.011  0.000  0.000  0.000  0.000  0.000  0.129
    2  0.097  0.011  0.011  0.011  0.000  0.000  0.000  0.000  0.000  0.129
tot    0.194  0.021  0.021  0.021  0.000  0.000  0.000  0.000  0.000  0.258
 
band    12 # energy   19.07860156 # occ.  0.00000000
 
ion      s     py     pz     px    dxy    dyz    dz2    dxz  x2-y2    tot
    1  0.024  0.044  0.044  0.044  0.000  0.000  0.000  0.000  0.000  0.156
    2  0.024  0.044  0.044  0.044  0.000  0.000  0.000  0.000  0.000  0.156
tot    0.047  0.088  0.088  0.088  0.000  0.000  0.000  0.000  0.000  0.311
 

 k-point    15 :    0.30000000 0.30000000 0.30000000     weight = 0.00555556

band     1 # energy   -4.99561441 # occ.  2.00000000
 
ion      s     py     pz     px    dxy    dyz    dz2    dxz  x2-y2    tot
    1  0.210  0.004  0.004  0.004  0.000  0.000  0.000  0.000  0.000  0.221
    2  0.210  0.004  0.004  0.004  0.000  0.000  0.000  0.000  0.000  0.221
tot    0.421  0.007  0.007  0.007  0.000  0.000  0.000  0.000  0.000  0.443
 
band     2 # energy    1.03843071 # occ.  2.00000000
 
ion      s     py     pz     px    dxy    dyz    dz2    dxz  x2-y2    tot
    1  0.102  0.037  0.037  0.037  0.000  0.000  0.000  0.000  0.000  0.211
    2  0.102  0.037  0.037  0.037  0.000  0.000  0.000  0.000  0.000  0.211
tot    0.204  0.073  0.073  0.073  0.000  0.000  0.000  0.000  0.000  0.423
 
band     3 # energy    4.91803246 # occ.  2.00000000
 
ion      s     py     pz     px    dxy    dyz    dz2    dxz  x2-y2    tot
    1  0.000  0.114  0.020  0.081  0.000  0.000  0.000  0.000  0.000  0.215
    2  0.000  0.114  0.020  0.081  0.000  0.000  0.000  0.000  0.000  0.215
tot    0.000  0.229  0.040  0.161  0.000  0.000  0.000  0.000  0.000  0.430
 
band     4 # energy    4.91803247 # occ.  2.00000000
 
ion      s     py     pz     px    dxy    dyz    dz2    dxz  x2-y2    tot
    1  0.000  0.029  0.123  0.063  0.000  0.000  0.000  0.000  0.000  0.215
    2  0.000  0.029  0.123  0.063  0.000  0.000  0.000  0.000  0.000  0.215
tot    0.000  0.058  0.247  0.126  0.000  0.000  0.000  0.000  0.000  0.430
 
band     5 # energy    7.69496012 # occ.  0.00000000
 
ion      s     py     pz     px    dxy    dyz    dz2    dxz  x2-y2    tot
    1  0.166  0.012  0.012  0.012  0.000  0.000  0.000  0.000  0.000  0.204
    2  0.166  0.012  0.012  0.012  0.000  0.000  0.000  0.000  0.000  0.204
tot    0.333  0.025  0.025  0.025  0.000  0.000  0.000  0.000  0.000  0.408
 
band     6 # energy    9.36629069 # occ.  0.00000000
 
ion      s     py     pz     px    dxy    dyz    dz2    dxz  x2-y2    tot
    1  0.000  0.071  0.015  0.038  0.000  0.000  0.000  0.000  0.000  0.124
    2  0.000  0.071  0.015  0.038  0.000  0.000  0.000  0.000  0.000  0.124
tot    0.000  0.142  0.030  0.076  0.000  0.000  0.000  0.000  0.000  0.248
 
band     7 # energy    9.36629077 # occ.  0.00000000
 
ion      s     py     pz     px    dxy    dyz    dz2    dxz  x2-y2    tot
    1  0.000  0.012  0.068  0.045  0.000  0.000  0.000  0.000  0.000  0.124
    2  0.000  0.012  0.068  0.045  0.000  0.000  0.000  0.000  0.000  0.124
tot    0.000  0.023  0.135  0.089  0.000  0.000  0.000  0.000  0.000  0.248
 
band     8 # energy   13.42756803 # occ.  0.00000000
 
ion      s     py     pz     px    dxy    dyz    dz2    dxz  x2-y2    tot
    1  0.000  0.011  0.004  0.013  0.000  0.000  0.000  0.000  0.000  0.029
    2  0.000  0.011  0.004  0.013  0.000  0.000  0.000  0.000  0.000  0.029
tot    0.000  0.023  0.009  0.026  0.000  0.000  0.000  0.000  0.000  0.057
 
band     9 # energy   13.42756836 # occ.  0.00000000
 
ion      s     py     pz     px    dxy    dyz    dz2    dxz  x2-y2    tot
    1  0.000  0.008  0.015  0.006  0.000  0.000  0.000  0.000  0.000  0.029
    2  0.000  0.008  0.015  0.006  0.000  0.000  0.000  0.000  0.000  0.029
tot    0.000  0.015  0.029  0.012  0.000  0.000  0.000  0.000  0.000  0.057
 
band    10 # energy   13.47375423 # occ.  0.00000000
 
ion      s     py     pz     px    dxy    dyz    dz2    dxz  x2-y2    tot
    1  0.055  0.052  0.052  0.052  0.000  0.000  0.000  0.000  0.000  0.212
    2  0.055  0.052  0.052  0.052  0.000  0.000  0.000  0.000  0.000  0.212
tot    0.111  0.104  0.104  0.104  0.000  0.000  0.000  0.000  0.000  0.423
 
band    11 # energy   14.74975992 # occ.  0.00000000
 
ion      s     py     pz     px    dxy    dyz    dz2    dxz  x2-y2    tot
    1  0.084  0.007  0.007  0.007  0.000  0.000  0.000  0.000  0.000  0.104
    2  0.084  0.007  0.007  0.007  0.000  0.000  0.000  0.000  0.000  0.104
tot    0.168  0.013  0.013  0.013  0.000  0.000  0.000  0.000  0.000  0.208
 
band    12 # energy   18.77011859 # occ.  0.00000000
 
ion      s     py     pz     px    dxy    dyz    dz2    dxz  x2-y2    tot
    1  0.028  0.039  0.039  0.038  0.000  0.000  0.000  0.000  0.000  0.143
    2  0.028  0.038  0.039  0.039  0.000  0.000  0.000  0.000  0.000  0.143
tot    0.055  0.077  0.077  0.077  0.000  0.000  0.000  0.000  0.000  0.287
 

 k-point    16 :    0.28571429 0.28571429 0.28571429     weight = 0.00555556

band     1 # energy   -5.09540395 # occ.  2.00000000
 
ion      s     py     pz     px    dxy    dyz    dz2    dxz  x2-y2    tot
    1  0.210  0.003  0.003  0.003  0.000  0.000  0.000  0.000  0.000  0.220
    2  0.210  0.003  0.003  0.003  0.000  0.000  0.000  0.000  0.000  0.220
tot    0.421  0.007  0.007  0.007  0.000  0.000  0.000  0.000  0.000  0.441
 
band     2 # energy    1.28000437 # occ.  2.00000000
 
ion      s     py     pz     px    dxy    dyz    dz2    dxz  x2-y2    tot
    1  0.100  0.037  0.037  0.037  0.000  0.000  0.000  0.000  0.000  0.213
    2  0.100  0.037  0.037  0.037  0.000  0.000  0.000  0.000  0.000  0.213
tot    0.200  0.075  0.075  0.075  0.000  0.000  0.000  0.000  0.000  0.425
 
band     3 # energy    4.95918841 # occ.  2.00000000
 
ion      s     py     pz     px    dxy    dyz    dz2    dxz  x2-y2    tot
    1  0.000  0.025  0.105  0.085  0.000  0.000  0.000  0.000  0.000  0.215
    2  0.000  0.025  0.105  0.085  0.000  0.000  0.000  0.000  0.000  0.215
tot    0.000  0.051  0.209  0.169  0.000  0.000  0.000  0.000  0.000  0.429
 
band     4 # energy    4.95918844 # occ.  2.00000000
 
ion      s     py     pz     px    dxy    dyz    dz2    dxz  x2-y2    tot
    1  0.000  0.118  0.038  0.058  0.000  0.000  0.000  0.000  0.000  0.215
    2  0.000  0.118  0.038  0.058  0.000  0.000  0.000  0.000  0.000  0.215
tot    0.000  0.235  0.077  0.117  0.000  0.000  0.000  0.000  0.000  0.429
 
band     5 # energy    7.74058298 # occ.  0.00000000
 
ion      s     py     pz     px    dxy    dyz    dz2    dxz  x2-y2    tot
    1  0.163  0.013  0.013  0.013  0.000  0.000  0.000  0.000  0.000  0.204
    2  0.163  0.013  0.013  0.013  0.000  0.000  0.000  0.000  0.000  0.204
tot    0.327  0.027  0.027  0.027  0.000  0.000  0.000  0.000  0.000  0.407
 
band     6 # energy    9.36858278 # occ.  0.00000000
 
ion      s     py     pz     px    dxy    dyz    dz2    dxz  x2-y2    tot
    1  0.000  0.039  0.048  0.042  0.000  0.000  0.000  0.000  0.000  0.128
    2  0.000  0.039  0.048  0.042  0.000  0.000  0.000  0.000  0.000  0.128
tot    0.000  0.078  0.095  0.083  0.000  0.000  0.000  0.000  0.000  0.256
 
band     7 # energy    9.36858289 # occ.  0.00000000
 
ion      s     py     pz     px    dxy    dyz    dz2    dxz  x2-y2    tot
    1  0.000  0.047  0.038  0.044  0.000  0.000  0.000  0.000  0.000  0.128
    2  0.000  0.047  0.038  0.044  0.000  0.000  0.000  0.000  0.000  0.128
tot    0.000  0.093  0.075  0.088  0.000  0.000  0.000  0.000  0.000  0.256
 
band     8 # energy   13.28904595 # occ.  0.00000000
 
ion      s     py     pz     px    dxy    dyz    dz2    dxz  x2-y2    tot
    1  0.000  0.009  0.015  0.002  0.000  0.000  0.000  0.000  0.000  0.025
    2  0.000  0.009  0.015  0.002  0.000  0.000  0.000  0.000  0.000  0.025
tot    0.000  0.018  0.029  0.004  0.000  0.000  0.000  0.000  0.000  0.050
 
band     9 # energy   13.28904600 # occ.  0.00000000
 
ion      s     py     pz     px    dxy    dyz    dz2    dxz  x2-y2    tot
    1  0.000  0.008  0.002  0.015  0.000  0.000  0.000  0.000  0.000  0.025
    2  0.000  0.008  0.002  0.015  0.000  0.000  0.000  0.000  0.000  0.025
tot    0.000  0.016  0.004  0.030  0.000  0.000  0.000  0.000  0.000  0.050
 
band    10 # energy   13.30102853 # occ.  0.00000000
 
ion      s     py     pz     px    dxy    dyz    dz2    dxz  x2-y2    tot
    1  0.075  0.053  0.053  0.053  0.000  0.000  0.000  0.000  0.000  0.234
    2  0.075  0.053  0.053  0.053  0.000  0.000  0.000  0.000  0.000  0.234
tot    0.149  0.106  0.106  0.106  0.000  0.000  0.000  0.000  0.000  0.467
 
band    11 # energy   14.74005293 # occ.  0.00000000
 
ion      s     py     pz     px    dxy    dyz    dz2    dxz  x2-y2    tot
    1  0.071  0.005  0.005  0.005  0.000  0.000  0.000  0.000  0.000  0.087
    2  0.071  0.005  0.005  0.005  0.000  0.000  0.000  0.000  0.000  0.087
tot    0.142  0.010  0.010  0.010  0.000  0.000  0.000  0.000  0.000  0.173
 
band    12 # energy   18.45393692 # occ.  0.00000000
 
ion      s     py     pz     px    dxy    dyz    dz2    dxz  x2-y2    tot
    1  0.031  0.034  0.034  0.034  0.000  0.000  0.000  0.000  0.000  0.133
    2  0.031  0.034  0.034  0.034  0.000  0.000  0.000  0.000  0.000  0.133
tot    0.062  0.068  0.068  0.068  0.000  0.000  0.000  0.000  0.000  0.267
 

 k-point    17 :    0.27142857 0.27142857 0.27142857     weight = 0.00555556

band     1 # energy   -5.19170161 # occ.  2.00000000
 
ion      s     py     pz     px    dxy    dyz    dz2    dxz  x2-y2    tot
    1  0.210  0.003  0.003  0.003  0.000  0.000  0.000  0.000  0.000  0.220
    2  0.210  0.003  0.003  0.003  0.000  0.000  0.000  0.000  0.000  0.220
tot    0.421  0.006  0.006  0.006  0.000  0.000  0.000  0.000  0.000  0.439
 
band     2 # energy    1.52702225 # occ.  2.00000000
 
ion      s     py     pz     px    dxy    dyz    dz2    dxz  x2-y2    tot
    1  0.098  0.038  0.038  0.038  0.000  0.000  0.000  0.000  0.000  0.213
    2  0.098  0.038  0.038  0.038  0.000  0.000  0.000  0.000  0.000  0.214
tot    0.196  0.077  0.077  0.077  0.000  0.000  0.000  0.000  0.000  0.427
 
band     3 # energy    5.00282176 # occ.  2.00000000
 
ion      s     py     pz     px    dxy    dyz    dz2    dxz  x2-y2    tot
    1  0.000  0.038  0.115  0.062  0.000  0.000  0.000  0.000  0.000  0.214
    2  0.000  0.038  0.115  0.062  0.000  0.000  0.000  0.000  0.000  0.214
tot    0.000  0.076  0.229  0.124  0.000  0.000  0.000  0.000  0.000  0.429
 
band     4 # energy    5.00282179 # occ.  2.00000000
 
ion      s     py     pz     px    dxy    dyz    dz2    dxz  x2-y2    tot
    1  0.000  0.105  0.028  0.081  0.000  0.000  0.000  0.000  0.000  0.214
    2  0.000  0.105  0.028  0.081  0.000  0.000  0.000  0.000  0.000  0.214
tot    0.000  0.210  0.056  0.162  0.000  0.000  0.000  0.000  0.000  0.429
 
band     5 # energy    7.78863700 # occ.  0.00000000
 
ion      s     py     pz     px    dxy    dyz    dz2    dxz  x2-y2    tot
    1  0.160  0.014  0.014  0.014  0.000  0.000  0.000  0.000  0.000  0.203
    2  0.160  0.014  0.014  0.014  0.000  0.000  0.000  0.000  0.000  0.203
tot    0.320  0.029  0.029  0.029  0.000  0.000  0.000  0.000  0.000  0.407
 
band     6 # energy    9.36331473 # occ.  0.00000000
 
ion      s     py     pz     px    dxy    dyz    dz2    dxz  x2-y2    tot
    1  0.000  0.009  0.084  0.039  0.000  0.000  0.000  0.000  0.000  0.132
    2  0.000  0.009  0.084  0.039  0.000  0.000  0.000  0.000  0.000  0.132
tot    0.000  0.017  0.169  0.079  0.000  0.000  0.000  0.000  0.000  0.265
 
band     7 # energy    9.36331478 # occ.  0.00000000
 
ion      s     py     pz     px    dxy    dyz    dz2    dxz  x2-y2    tot
    1  0.000  0.080  0.004  0.049  0.000  0.000  0.000  0.000  0.000  0.132
    2  0.000  0.080  0.004  0.049  0.000  0.000  0.000  0.000  0.000  0.132
tot    0.000  0.159  0.008  0.098  0.000  0.000  0.000  0.000  0.000  0.265
 
band     8 # energy   13.09807396 # occ.  0.00000000
 
ion      s     py     pz     px    dxy    dyz    dz2    dxz  x2-y2    tot
    1  0.091  0.052  0.052  0.052  0.000  0.000  0.000  0.000  0.000  0.249
    2  0.091  0.052  0.052  0.052  0.000  0.000  0.000  0.000  0.000  0.249
tot    0.183  0.105  0.105  0.105  0.000  0.000  0.000  0.000  0.000  0.497
 
band     9 # energy   13.16936941 # occ.  0.00000000
 
ion      s     py     pz     px    dxy    dyz    dz2    dxz  x2-y2    tot
    1  0.000  0.006  0.004  0.012  0.000  0.000  0.000  0.000  0.000  0.022
    2  0.000  0.006  0.004  0.012  0.000  0.000  0.000  0.000  0.000  0.022
tot    0.000  0.012  0.007  0.025  0.000  0.000  0.000  0.000  0.000  0.043
 
band    10 # energy   13.16936943 # occ.  0.00000000
 
ion      s     py     pz     px    dxy    dyz    dz2    dxz  x2-y2    tot
    1  0.000  0.009  0.011  0.002  0.000  0.000  0.000  0.000  0.000  0.022
    2  0.000  0.009  0.011  0.002  0.000  0.000  0.000  0.000  0.000  0.022
tot    0.000  0.017  0.022  0.004  0.000  0.000  0.000  0.000  0.000  0.043
 
band    11 # energy   14.76232465 # occ.  0.00000000
 
ion      s     py     pz     px    dxy    dyz    dz2    dxz  x2-y2    tot
    1  0.061  0.005  0.005  0.005  0.000  0.000  0.000  0.000  0.000  0.077
    2  0.061  0.005  0.005  0.005  0.000  0.000  0.000  0.000  0.000  0.077
tot    0.122  0.010  0.010  0.010  0.000  0.000  0.000  0.000  0.000  0.153
 
band    12 # energy   18.13829355 # occ.  0.00000000
 
ion      s     py     pz     px    dxy    dyz    dz2    dxz  x2-y2    tot
    1  0.034  0.030  0.030  0.030  0.000  0.000  0.000  0.000  0.000  0.124
    2  0.034  0.030  0.030  0.030  0.000  0.000  0.000  0.000  0.000  0.124
tot    0.068  0.060  0.060  0.060  0.000  0.000  0.000  0.000  0.000  0.249
 

 k-point    18 :    0.25714286 0.25714286 0.25714286     weight = 0.00555556

band     1 # energy   -5.28417832 # occ.  2.00000000
 
ion      s     py     pz     px    dxy    dyz    dz2    dxz  x2-y2    tot
    1  0.210  0.003  0.003  0.003  0.000  0.000  0.000  0.000  0.000  0.219
    2  0.210  0.003  0.003  0.003  0.000  0.000  0.000  0.000  0.000  0.219
tot    0.421  0.006  0.006  0.006  0.000  0.000  0.000  0.000  0.000  0.438
 
band     2 # energy    1.77893562 # occ.  2.00000000
 
ion      s     py     pz     px    dxy    dyz    dz2    dxz  x2-y2    tot
    1  0.096  0.039  0.039  0.039  0.000  0.000  0.000  0.000  0.000  0.214
    2  0.096  0.039  0.039  0.039  0.000  0.000  0.000  0.000  0.000  0.214
tot    0.192  0.079  0.079  0.079  0.000  0.000  0.000  0.000  0.000  0.429
 
band     3 # energy    5.04882958 # occ.  2.00000000
 
ion      s     py     pz     px    dxy    dyz    dz2    dxz  x2-y2    tot
    1  0.000  0.102  0.007  0.104  0.000  0.000  0.000  0.000  0.000  0.214
    2  0.000  0.102  0.007  0.104  0.000  0.000  0.000  0.000  0.000  0.214
tot    0.000  0.204  0.015  0.209  0.000  0.000  0.000  0.000  0.000  0.428
 
band     4 # energy    5.04882962 # occ.  2.00000000
 
ion      s     py     pz     px    dxy    dyz    dz2    dxz  x2-y2    tot
    1  0.000  0.041  0.135  0.038  0.000  0.000  0.000  0.000  0.000  0.214
    2  0.000  0.041  0.135  0.038  0.000  0.000  0.000  0.000  0.000  0.214
tot    0.000  0.081  0.270  0.076  0.000  0.000  0.000  0.000  0.000  0.428
 
band     5 # energy    7.83889592 # occ.  0.00000000
 
ion      s     py     pz     px    dxy    dyz    dz2    dxz  x2-y2    tot
    1  0.157  0.015  0.016  0.015  0.000  0.000  0.000  0.000  0.000  0.203
    2  0.157  0.016  0.015  0.015  0.000  0.000  0.000  0.000  0.000  0.203
tot    0.313  0.031  0.031  0.031  0.000  0.000  0.000  0.000  0.000  0.406
 
band     6 # energy    9.34953086 # occ.  0.00000000
 
ion      s     py     pz     px    dxy    dyz    dz2    dxz  x2-y2    tot
    1  0.000  0.076  0.005  0.056  0.000  0.000  0.000  0.000  0.000  0.137
    2  0.000  0.076  0.005  0.056  0.000  0.000  0.000  0.000  0.000  0.137
tot    0.000  0.151  0.010  0.112  0.000  0.000  0.000  0.000  0.000  0.273
 
band     7 # energy    9.34953111 # occ.  0.00000000
 
ion      s     py     pz     px    dxy    dyz    dz2    dxz  x2-y2    tot
    1  0.000  0.016  0.086  0.035  0.000  0.000  0.000  0.000  0.000  0.137
    2  0.000  0.016  0.086  0.035  0.000  0.000  0.000  0.000  0.000  0.137
tot    0.000  0.031  0.172  0.070  0.000  0.000  0.000  0.000  0.000  0.273
 
band     8 # energy   12.87518959 # occ.  0.00000000
 
ion      s     py     pz     px    dxy    dyz    dz2    dxz  x2-y2    tot
    1  0.106  0.051  0.051  0.051  0.000  0.000  0.000  0.000  0.000  0.259
    2  0.106  0.051  0.051  0.051  0.000  0.000  0.000  0.000  0.000  0.259
tot    0.211  0.102  0.102  0.102  0.000  0.000  0.000  0.000  0.000  0.518
 
band     9 # energy   13.06993432 # occ.  0.00000000
 
ion      s     py     pz     px    dxy    dyz    dz2    dxz  x2-y2    tot
    1  0.000  0.003  0.008  0.008  0.000  0.000  0.000  0.000  0.000  0.018
    2  0.000  0.003  0.008  0.008  0.000  0.000  0.000  0.000  0.000  0.018
tot    0.000  0.006  0.015  0.016  0.000  0.000  0.000  0.000  0.000  0.037
 
band    10 # energy   13.06993435 # occ.  0.00000000
 
ion      s     py     pz     px    dxy    dyz    dz2    dxz  x2-y2    tot
    1  0.000  0.009  0.005  0.004  0.000  0.000  0.000  0.000  0.000  0.018
    2  0.000  0.009  0.005  0.004  0.000  0.000  0.000  0.000  0.000  0.018
tot    0.000  0.019  0.009  0.009  0.000  0.000  0.000  0.000  0.000  0.037
 
band    11 # energy   14.80435105 # occ.  0.00000000
 
ion      s     py     pz     px    dxy    dyz    dz2    dxz  x2-y2    tot
    1  0.054  0.006  0.006  0.006  0.000  0.000  0.000  0.000  0.000  0.072
    2  0.054  0.006  0.006  0.006  0.000  0.000  0.000  0.000  0.000  0.072
tot    0.108  0.012  0.012  0.012  0.000  0.000  0.000  0.000  0.000  0.144
 
band    12 # energy   17.82920090 # occ.  0.00000000
 
ion      s     py     pz     px    dxy    dyz    dz2    dxz  x2-y2    tot
    1  0.037  0.026  0.026  0.026  0.000  0.000  0.000  0.000  0.000  0.116
    2  0.037  0.026  0.026  0.026  0.000  0.000  0.000  0.000  0.000  0.116
tot    0.074  0.053  0.053  0.053  0.000  0.000  0.000  0.000  0.000  0.232
 

 k-point    19 :    0.24285714 0.24285714 0.24285714     weight = 0.00555556

band     1 # energy   -5.37257715 # occ.  2.00000000
 
ion      s     py     pz     px    dxy    dyz    dz2    dxz  x2-y2    tot
    1  0.211  0.003  0.003  0.003  0.000  0.000  0.000  0.000  0.000  0.218
    2  0.211  0.003  0.003  0.003  0.000  0.000  0.000  0.000  0.000  0.218
tot    0.421  0.005  0.005  0.005  0.000  0.000  0.000  0.000  0.000  0.437
 
band     2 # energy    2.03523213 # occ.  2.00000000
 
ion      s     py     pz     px    dxy    dyz    dz2    dxz  x2-y2    tot
    1  0.094  0.041  0.041  0.041  0.000  0.000  0.000  0.000  0.000  0.215
    2  0.094  0.041  0.041  0.041  0.000  0.000  0.000  0.000  0.000  0.215
tot    0.187  0.081  0.081  0.081  0.000  0.000  0.000  0.000  0.000  0.431
 
band     3 # energy    5.09702572 # occ.  2.00000000
 
ion      s     py     pz     px    dxy    dyz    dz2    dxz  x2-y2    tot
    1  0.000  0.095  0.051  0.068  0.000  0.000  0.000  0.000  0.000  0.214
    2  0.000  0.095  0.051  0.068  0.000  0.000  0.000  0.000  0.000  0.214
tot    0.000  0.190  0.101  0.136  0.000  0.000  0.000  0.000  0.000  0.427
 
band     4 # energy    5.09702576 # occ.  2.00000000
 
ion      s     py     pz     px    dxy    dyz    dz2    dxz  x2-y2    tot
    1  0.000  0.047  0.092  0.074  0.000  0.000  0.000  0.000  0.000  0.214
    2  0.000  0.047  0.092  0.074  0.000  0.000  0.000  0.000  0.000  0.214
tot    0.000  0.095  0.184  0.149  0.000  0.000  0.000  0.000  0.000  0.427
 
band     5 # energy    7.89112791 # occ.  0.00000000
 
ion      s     py     pz     px    dxy    dyz    dz2    dxz  x2-y2    tot
    1  0.153  0.017  0.017  0.017  0.000  0.000  0.000  0.000  0.000  0.203
    2  0.153  0.017  0.017  0.017  0.000  0.000  0.000  0.000  0.000  0.203
tot    0.306  0.033  0.033  0.033  0.000  0.000  0.000  0.000  0.000  0.406
 
band     6 # energy    9.32614094 # occ.  0.00000000
 
ion      s     py     pz     px    dxy    dyz    dz2    dxz  x2-y2    tot
    1  0.000  0.040  0.089  0.011  0.000  0.000  0.000  0.000  0.000  0.141
    2  0.000  0.040  0.089  0.011  0.000  0.000  0.000  0.000  0.000  0.141
tot    0.000  0.081  0.178  0.023  0.000  0.000  0.000  0.000  0.000  0.281
 
band     7 # energy    9.32614097 # occ.  0.00000000
 
ion      s     py     pz     px    dxy    dyz    dz2    dxz  x2-y2    tot
    1  0.000  0.053  0.005  0.082  0.000  0.000  0.000  0.000  0.000  0.141
    2  0.000  0.053  0.005  0.082  0.000  0.000  0.000  0.000  0.000  0.141
tot    0.000  0.107  0.010  0.164  0.000  0.000  0.000  0.000  0.000  0.281
 
band     8 # energy   12.63945918 # occ.  0.00000000
 
ion      s     py     pz     px    dxy    dyz    dz2    dxz  x2-y2    tot
    1  0.118  0.049  0.049  0.049  0.000  0.000  0.000  0.000  0.000  0.266
    2  0.118  0.049  0.049  0.049  0.000  0.000  0.000  0.000  0.000  0.266
tot    0.236  0.099  0.099  0.099  0.000  0.000  0.000  0.000  0.000  0.532
 
band     9 # energy   12.99134981 # occ.  0.00000000
 
ion      s     py     pz     px    dxy    dyz    dz2    dxz  x2-y2    tot
    1  0.000  0.005  0.002  0.008  0.000  0.000  0.000  0.000  0.000  0.015
    2  0.000  0.005  0.002  0.008  0.000  0.000  0.000  0.000  0.000  0.015
tot    0.000  0.010  0.003  0.016  0.000  0.000  0.000  0.000  0.000  0.030
 
band    10 # energy   12.99134982 # occ.  0.00000000
 
ion      s     py     pz     px    dxy    dyz    dz2    dxz  x2-y2    tot
    1  0.000  0.005  0.008  0.002  0.000  0.000  0.000  0.000  0.000  0.015
    2  0.000  0.005  0.008  0.002  0.000  0.000  0.000  0.000  0.000  0.015
tot    0.000  0.010  0.016  0.003  0.000  0.000  0.000  0.000  0.000  0.030
 
band    11 # energy   14.85638385 # occ.  0.00000000
 
ion      s     py     pz     px    dxy    dyz    dz2    dxz  x2-y2    tot
    1  0.049  0.007  0.007  0.007  0.000  0.000  0.000  0.000  0.000  0.071
    2  0.049  0.007  0.007  0.007  0.000  0.000  0.000  0.000  0.000  0.071
tot    0.099  0.015  0.015  0.015  0.000  0.000  0.000  0.000  0.000  0.142
 
band    12 # energy   17.53303833 # occ.  0.00000000
 
ion      s     py     pz     px    dxy    dyz    dz2    dxz  x2-y2    tot
    1  0.039  0.023  0.023  0.023  0.000  0.000  0.000  0.000  0.000  0.108
    2  0.039  0.023  0.023  0.023  0.000  0.000  0.000  0.000  0.000  0.108
tot    0.078  0.046  0.046  0.046  0.000  0.000  0.000  0.000  0.000  0.215
 

 k-point    20 :    0.22857143 0.22857143 0.22857143     weight = 0.00555556

band     1 # energy   -5.45667636 # occ.  2.00000000
 
ion      s     py     pz     px    dxy    dyz    dz2    dxz  x2-y2    tot
    1  0.211  0.002  0.002  0.002  0.000  0.000  0.000  0.000  0.000  0.218
    2  0.211  0.002  0.002  0.002  0.000  0.000  0.000  0.000  0.000  0.218
tot    0.422  0.005  0.005  0.005  0.000  0.000  0.000  0.000  0.000  0.435
 
band     2 # energy    2.29537898 # occ.  2.00000000
 
ion      s     py     pz     px    dxy    dyz    dz2    dxz  x2-y2    tot
    1  0.091  0.042  0.042  0.042  0.000  0.000  0.000  0.000  0.000  0.216
    2  0.091  0.042  0.042  0.042  0.000  0.000  0.000  0.000  0.000  0.216
tot    0.182  0.083  0.083  0.083  0.000  0.000  0.000  0.000  0.000  0.432
 
band     3 # energy    5.14724284 # occ.  2.00000000
 
ion      s     py     pz     px    dxy    dyz    dz2    dxz  x2-y2    tot
    1  0.000  0.118  0.035  0.060  0.000  0.000  0.000  0.000  0.000  0.213
    2  0.000  0.118  0.035  0.060  0.000  0.000  0.000  0.000  0.000  0.213
tot    0.000  0.236  0.070  0.121  0.000  0.000  0.000  0.000  0.000  0.427
 
band     4 # energy    5.14724285 # occ.  2.00000000
 
ion      s     py     pz     px    dxy    dyz    dz2    dxz  x2-y2    tot
    1  0.000  0.024  0.107  0.082  0.000  0.000  0.000  0.000  0.000  0.213
    2  0.000  0.024  0.107  0.082  0.000  0.000  0.000  0.000  0.000  0.213
tot    0.000  0.048  0.215  0.164  0.000  0.000  0.000  0.000  0.000  0.427
 
band     5 # energy    7.94501368 # occ.  0.00000000
 
ion      s     py     pz     px    dxy    dyz    dz2    dxz  x2-y2    tot
    1  0.149  0.018  0.018  0.018  0.000  0.000  0.000  0.000  0.000  0.202
    2  0.149  0.018  0.018  0.018  0.000  0.000  0.000  0.000  0.000  0.202
tot    0.297  0.036  0.036  0.036  0.000  0.000  0.000  0.000  0.000  0.405
 
band     6 # energy    9.29282098 # occ.  0.00000000
 
ion      s     py     pz     px    dxy    dyz    dz2    dxz  x2-y2    tot
    1  0.000  0.076  0.067  0.000  0.000  0.000  0.000  0.000  0.000  0.144
    2  0.000  0.076  0.067  0.000  0.000  0.000  0.000  0.000  0.000  0.144
tot    0.000  0.153  0.135  0.001  0.000  0.000  0.000  0.000  0.000  0.288
 
band     7 # energy    9.29282102 # occ.  0.00000000
 
ion      s     py     pz     px    dxy    dyz    dz2    dxz  x2-y2    tot
    1  0.000  0.020  0.029  0.096  0.000  0.000  0.000  0.000  0.000  0.144
    2  0.000  0.020  0.029  0.096  0.000  0.000  0.000  0.000  0.000  0.144
tot    0.000  0.039  0.058  0.192  0.000  0.000  0.000  0.000  0.000  0.288
 
band     8 # energy   12.39533086 # occ.  0.00000000
 
ion      s     py     pz     px    dxy    dyz    dz2    dxz  x2-y2    tot
    1  0.129  0.048  0.048  0.048  0.000  0.000  0.000  0.000  0.000  0.272
    2  0.129  0.048  0.048  0.048  0.000  0.000  0.000  0.000  0.000  0.272
tot    0.258  0.095  0.095  0.095  0.000  0.000  0.000  0.000  0.000  0.543
 
band     9 # energy   12.93407290 # occ.  0.00000000
 
ion      s     py     pz     px    dxy    dyz    dz2    dxz  x2-y2    tot
    1  0.000  0.004  0.005  0.003  0.000  0.000  0.000  0.000  0.000  0.012
    2  0.000  0.004  0.005  0.003  0.000  0.000  0.000  0.000  0.000  0.012
tot    0.000  0.008  0.010  0.006  0.000  0.000  0.000  0.000  0.000  0.024
 
band    10 # energy   12.93407290 # occ.  0.00000000
 
ion      s     py     pz     px    dxy    dyz    dz2    dxz  x2-y2    tot
    1  0.000  0.004  0.003  0.005  0.000  0.000  0.000  0.000  0.000  0.012
    2  0.000  0.004  0.003  0.005  0.000  0.000  0.000  0.000  0.000  0.012
tot    0.000  0.008  0.006  0.010  0.000  0.000  0.000  0.000  0.000  0.024
 
band    11 # energy   14.90989818 # occ.  0.00000000
 
ion      s     py     pz     px    dxy    dyz    dz2    dxz  x2-y2    tot
    1  0.047  0.009  0.009  0.009  0.000  0.000  0.000  0.000  0.000  0.073
    2  0.047  0.009  0.009  0.009  0.000  0.000  0.000  0.000  0.000  0.073
tot    0.094  0.018  0.018  0.018  0.000  0.000  0.000  0.000  0.000  0.146
 
band    12 # energy   17.25573984 # occ.  0.00000000
 
ion      s     py     pz     px    dxy    dyz    dz2    dxz  x2-y2    tot
    1  0.040  0.020  0.020  0.020  0.000  0.000  0.000  0.000  0.000  0.099
    2  0.040  0.020  0.020  0.020  0.000  0.000  0.000  0.000  0.000  0.099
tot    0.081  0.039  0.039  0.039  0.000  0.000  0.000  0.000  0.000  0.198
 

 k-point    21 :    0.21428571 0.21428571 0.21428571     weight = 0.00555556

band     1 # energy   -5.53628450 # occ.  2.00000000
 
ion      s     py     pz     px    dxy    dyz    dz2    dxz  x2-y2    tot
    1  0.211  0.002  0.002  0.002  0.000  0.000  0.000  0.000  0.000  0.217
    2  0.211  0.002  0.002  0.002  0.000  0.000  0.000  0.000  0.000  0.217
tot    0.422  0.004  0.004  0.004  0.000  0.000  0.000  0.000  0.000  0.434
 
band     2 # energy    2.55884238 # occ.  2.00000000
 
ion      s     py     pz     px    dxy    dyz    dz2    dxz  x2-y2    tot
    1  0.088  0.043  0.043  0.043  0.000  0.000  0.000  0.000  0.000  0.217
    2  0.088  0.043  0.043  0.043  0.000  0.000  0.000  0.000  0.000  0.217
tot    0.176  0.086  0.086  0.086  0.000  0.000  0.000  0.000  0.000  0.434
 
band     3 # energy    5.19928591 # occ.  2.00000000
 
ion      s     py     pz     px    dxy    dyz    dz2    dxz  x2-y2    tot
    1  0.000  0.113  0.087  0.013  0.000  0.000  0.000  0.000  0.000  0.213
    2  0.000  0.113  0.087  0.013  0.000  0.000  0.000  0.000  0.000  0.213
tot    0.000  0.226  0.173  0.027  0.000  0.000  0.000  0.000  0.000  0.427
 
band     4 # energy    5.19928592 # occ.  2.00000000
 
ion      s     py     pz     px    dxy    dyz    dz2    dxz  x2-y2    tot
    1  0.000  0.029  0.055  0.129  0.000  0.000  0.000  0.000  0.000  0.213
    2  0.000  0.029  0.055  0.129  0.000  0.000  0.000  0.000  0.000  0.213
tot    0.000  0.058  0.111  0.258  0.000  0.000  0.000  0.000  0.000  0.427
 
band     5 # energy    8.00018552 # occ.  0.00000000
 
ion      s     py     pz     px    dxy    dyz    dz2    dxz  x2-y2    tot
    1  0.144  0.019  0.019  0.019  0.000  0.000  0.000  0.000  0.000  0.202
    2  0.144  0.019  0.019  0.019  0.000  0.000  0.000  0.000  0.000  0.202
tot    0.288  0.039  0.039  0.039  0.000  0.000  0.000  0.000  0.000  0.404
 
band     6 # energy    9.24960002 # occ.  0.00000000
 
ion      s     py     pz     px    dxy    dyz    dz2    dxz  x2-y2    tot
    1  0.000  0.022  0.059  0.066  0.000  0.000  0.000  0.000  0.000  0.147
    2  0.000  0.022  0.059  0.066  0.000  0.000  0.000  0.000  0.000  0.147
tot    0.000  0.044  0.119  0.132  0.000  0.000  0.000  0.000  0.000  0.295
 
band     7 # energy    9.24960005 # occ.  0.00000000
 
ion      s     py     pz     px    dxy    dyz    dz2    dxz  x2-y2    tot
    1  0.000  0.076  0.039  0.032  0.000  0.000  0.000  0.000  0.000  0.147
    2  0.000  0.076  0.039  0.032  0.000  0.000  0.000  0.000  0.000  0.147
tot    0.000  0.153  0.078  0.064  0.000  0.000  0.000  0.000  0.000  0.295
 
band     8 # energy   12.14561607 # occ.  0.00000000
 
ion      s     py     pz     px    dxy    dyz    dz2    dxz  x2-y2    tot
    1  0.139  0.046  0.046  0.046  0.000  0.000  0.000  0.000  0.000  0.276
    2  0.139  0.046  0.046  0.046  0.000  0.000  0.000  0.000  0.000  0.276
tot    0.278  0.092  0.092  0.092  0.000  0.000  0.000  0.000  0.000  0.553
 
band     9 # energy   12.89813790 # occ.  0.00000000
 
ion      s     py     pz     px    dxy    dyz    dz2    dxz  x2-y2    tot
    1  0.000  0.005  0.003  0.001  0.000  0.000  0.000  0.000  0.000  0.009
    2  0.000  0.005  0.003  0.001  0.000  0.000  0.000  0.000  0.000  0.009
tot    0.000  0.010  0.006  0.002  0.000  0.000  0.000  0.000  0.000  0.019
 
band    10 # energy   12.89813790 # occ.  0.00000000
 
ion      s     py     pz     px    dxy    dyz    dz2    dxz  x2-y2    tot
    1  0.000  0.001  0.003  0.005  0.000  0.000  0.000  0.000  0.000  0.009
    2  0.000  0.001  0.003  0.005  0.000  0.000  0.000  0.000  0.000  0.009
tot    0.000  0.002  0.007  0.010  0.000  0.000  0.000  0.000  0.000  0.019
 
band    11 # energy   14.95618326 # occ.  0.00000000
 
ion      s     py     pz     px    dxy    dyz    dz2    dxz  x2-y2    tot
    1  0.046  0.010  0.010  0.010  0.000  0.000  0.000  0.000  0.000  0.078
    2  0.046  0.010  0.010  0.010  0.000  0.000  0.000  0.000  0.000  0.078
tot    0.093  0.021  0.021  0.021  0.000  0.000  0.000  0.000  0.000  0.155
 
band    12 # energy   17.00519399 # occ.  0.00000000
 
ion      s     py     pz     px    dxy    dyz    dz2    dxz  x2-y2    tot
    1  0.041  0.016  0.016  0.016  0.000  0.000  0.000  0.000  0.000  0.089
    2  0.041  0.016  0.016  0.016  0.000  0.000  0.000  0.000  0.000  0.089
tot    0.081  0.033  0.033  0.033  0.000  0.000  0.000  0.000  0.000  0.179
 

 k-point    22 :    0.20000000 0.20000000 0.20000000     weight = 0.00555556

band     1 # energy   -5.61127056 # occ.  2.00000000
 
ion      s     py     pz     px    dxy    dyz    dz2    dxz  x2-y2    tot
    1  0.211  0.002  0.002  0.002  0.000  0.000  0.000  0.000  0.000  0.217
    2  0.211  0.002  0.002  0.002  0.000  0.000  0.000  0.000  0.000  0.217
tot    0.422  0.004  0.004  0.004  0.000  0.000  0.000  0.000  0.000  0.433
 
band     2 # energy    2.82499039 # occ.  2.00000000
 
ion      s     py     pz     px    dxy    dyz    dz2    dxz  x2-y2    tot
    1  0.085  0.044  0.044  0.044  0.000  0.000  0.000  0.000  0.000  0.218
    2  0.085  0.044  0.044  0.044  0.000  0.000  0.000  0.000  0.000  0.218
tot    0.169  0.089  0.089  0.089  0.000  0.000  0.000  0.000  0.000  0.435
 
band     3 # energy    5.25282635 # occ.  2.00000000
 
ion      s     py     pz     px    dxy    dyz    dz2    dxz  x2-y2    tot
    1  0.000  0.115  0.066  0.032  0.000  0.000  0.000  0.000  0.000  0.213
    2  0.000  0.115  0.066  0.032  0.000  0.000  0.000  0.000  0.000  0.213
tot    0.000  0.230  0.133  0.063  0.000  0.000  0.000  0.000  0.000  0.426
 
band     4 # energy    5.25282637 # occ.  2.00000000
 
ion      s     py     pz     px    dxy    dyz    dz2    dxz  x2-y2    tot
    1  0.000  0.027  0.076  0.110  0.000  0.000  0.000  0.000  0.000  0.213
    2  0.000  0.027  0.076  0.110  0.000  0.000  0.000  0.000  0.000  0.213
tot    0.000  0.054  0.152  0.221  0.000  0.000  0.000  0.000  0.000  0.426
 
band     5 # energy    8.05630317 # occ.  0.00000000
 
ion      s     py     pz     px    dxy    dyz    dz2    dxz  x2-y2    tot
    1  0.139  0.021  0.021  0.021  0.000  0.000  0.000  0.000  0.000  0.201
    2  0.139  0.021  0.021  0.021  0.000  0.000  0.000  0.000  0.000  0.201
tot    0.278  0.041  0.041  0.041  0.000  0.000  0.000  0.000  0.000  0.403
 
band     6 # energy    9.19701262 # occ.  0.00000000
 
ion      s     py     pz     px    dxy    dyz    dz2    dxz  x2-y2    tot
    1  0.000  0.048  0.056  0.047  0.000  0.000  0.000  0.000  0.000  0.150
    2  0.000  0.048  0.056  0.047  0.000  0.000  0.000  0.000  0.000  0.150
tot    0.000  0.096  0.111  0.093  0.000  0.000  0.000  0.000  0.000  0.300
 
band     7 # energy    9.19701319 # occ.  0.00000000
 
ion      s     py     pz     px    dxy    dyz    dz2    dxz  x2-y2    tot
    1  0.000  0.052  0.044  0.053  0.000  0.000  0.000  0.000  0.000  0.150
    2  0.000  0.052  0.044  0.053  0.000  0.000  0.000  0.000  0.000  0.150
tot    0.000  0.104  0.089  0.107  0.000  0.000  0.000  0.000  0.000  0.300
 
band     8 # energy   11.89219254 # occ.  0.00000000
 
ion      s     py     pz     px    dxy    dyz    dz2    dxz  x2-y2    tot
    1  0.149  0.044  0.044  0.044  0.000  0.000  0.000  0.000  0.000  0.280
    2  0.149  0.044  0.044  0.044  0.000  0.000  0.000  0.000  0.000  0.280
tot    0.298  0.088  0.088  0.088  0.000  0.000  0.000  0.000  0.000  0.561
 
band     9 # energy   12.88271724 # occ.  0.00000000
 
ion      s     py     pz     px    dxy    dyz    dz2    dxz  x2-y2    tot
    1  0.000  0.000  0.004  0.002  0.000  0.000  0.000  0.000  0.000  0.007
    2  0.000  0.000  0.004  0.002  0.000  0.000  0.000  0.000  0.000  0.007
tot    0.000  0.001  0.009  0.004  0.000  0.000  0.000  0.000  0.000  0.014
 
band    10 # energy   12.88271742 # occ.  0.00000000
 
ion      s     py     pz     px    dxy    dyz    dz2    dxz  x2-y2    tot
    1  0.000  0.004  0.000  0.003  0.000  0.000  0.000  0.000  0.000  0.007
    2  0.000  0.004  0.000  0.003  0.000  0.000  0.000  0.000  0.000  0.007
tot    0.000  0.009  0.000  0.005  0.000  0.000  0.000  0.000  0.000  0.014
 
band    11 # energy   14.98499590 # occ.  0.00000000
 
ion      s     py     pz     px    dxy    dyz    dz2    dxz  x2-y2    tot
    1  0.048  0.012  0.012  0.012  0.000  0.000  0.000  0.000  0.000  0.084
    2  0.048  0.012  0.012  0.012  0.000  0.000  0.000  0.000  0.000  0.084
tot    0.096  0.024  0.024  0.024  0.000  0.000  0.000  0.000  0.000  0.168
 
band    12 # energy   16.79081133 # occ.  0.00000000
 
ion      s     py     pz     px    dxy    dyz    dz2    dxz  x2-y2    tot
    1  0.039  0.013  0.013  0.013  0.000  0.000  0.000  0.000  0.000  0.079
    2  0.039  0.013  0.013  0.013  0.000  0.000  0.000  0.000  0.000  0.079
tot    0.079  0.026  0.026  0.026  0.000  0.000  0.000  0.000  0.000  0.157
 

 k-point    23 :    0.18571429 0.18571429 0.18571429     weight = 0.00555556

band     1 # energy   -5.68151228 # occ.  2.00000000
 
ion      s     py     pz     px    dxy    dyz    dz2    dxz  x2-y2    tot
    1  0.211  0.002  0.002  0.002  0.000  0.000  0.000  0.000  0.000  0.216
    2  0.211  0.002  0.002  0.002  0.000  0.000  0.000  0.000  0.000  0.216
tot    0.423  0.003  0.003  0.003  0.000  0.000  0.000  0.000  0.000  0.432
 
band     2 # energy    3.09317192 # occ.  2.00000000
 
ion      s     py     pz     px    dxy    dyz    dz2    dxz  x2-y2    tot
    1  0.081  0.046  0.046  0.046  0.000  0.000  0.000  0.000  0.000  0.218
    2  0.081  0.046  0.046  0.046  0.000  0.000  0.000  0.000  0.000  0.218
tot    0.162  0.091  0.091  0.091  0.000  0.000  0.000  0.000  0.000  0.436
 
band     3 # energy    5.30756168 # occ.  2.00000000
 
ion      s     py     pz     px    dxy    dyz    dz2    dxz  x2-y2    tot
    1  0.000  0.041  0.141  0.032  0.000  0.000  0.000  0.000  0.000  0.213
    2  0.000  0.041  0.141  0.032  0.000  0.000  0.000  0.000  0.000  0.213
tot    0.000  0.081  0.281  0.063  0.000  0.000  0.000  0.000  0.000  0.426
 
band     4 # energy    5.30756171 # occ.  2.00000000
 
ion      s     py     pz     px    dxy    dyz    dz2    dxz  x2-y2    tot
    1  0.000  0.101  0.001  0.110  0.000  0.000  0.000  0.000  0.000  0.213
    2  0.000  0.101  0.001  0.110  0.000  0.000  0.000  0.000  0.000  0.213
tot    0.000  0.203  0.003  0.221  0.000  0.000  0.000  0.000  0.000  0.426
 
band     5 # energy    8.11262920 # occ.  0.00000000
 
ion      s     py     pz     px    dxy    dyz    dz2    dxz  x2-y2    tot
    1  0.134  0.022  0.022  0.022  0.000  0.000  0.000  0.000  0.000  0.201
    2  0.134  0.022  0.022  0.022  0.000  0.000  0.000  0.000  0.000  0.201
tot    0.267  0.045  0.045  0.045  0.000  0.000  0.000  0.000  0.000  0.401
 
band     6 # energy    9.13606363 # occ.  0.00000000
 
ion      s     py     pz     px    dxy    dyz    dz2    dxz  x2-y2    tot
    1  0.000  0.070  0.054  0.028  0.000  0.000  0.000  0.000  0.000  0.152
    2  0.000  0.070  0.054  0.028  0.000  0.000  0.000  0.000  0.000  0.152
tot    0.000  0.141  0.108  0.055  0.000  0.000  0.000  0.000  0.000  0.304
 
band     7 # energy    9.13606369 # occ.  0.00000000
 
ion      s     py     pz     px    dxy    dyz    dz2    dxz  x2-y2    tot
    1  0.000  0.031  0.047  0.074  0.000  0.000  0.000  0.000  0.000  0.152
    2  0.000  0.031  0.047  0.074  0.000  0.000  0.000  0.000  0.000  0.152
tot    0.000  0.062  0.095  0.147  0.000  0.000  0.000  0.000  0.000  0.304
 
band     8 # energy   11.63637785 # occ.  0.00000000
 
ion      s     py     pz     px    dxy    dyz    dz2    dxz  x2-y2    tot
    1  0.159  0.042  0.042  0.042  0.000  0.000  0.000  0.000  0.000  0.284
    2  0.159  0.042  0.042  0.042  0.000  0.000  0.000  0.000  0.000  0.284
tot    0.317  0.084  0.084  0.084  0.000  0.000  0.000  0.000  0.000  0.569
 
band     9 # energy   12.88634513 # occ.  0.00000000
 
ion      s     py     pz     px    dxy    dyz    dz2    dxz  x2-y2    tot
    1  0.000  0.002  0.003  0.001  0.000  0.000  0.000  0.000  0.000  0.005
    2  0.000  0.002  0.003  0.001  0.000  0.000  0.000  0.000  0.000  0.005
tot    0.000  0.004  0.005  0.002  0.000  0.000  0.000  0.000  0.000  0.011
 
band    10 # energy   12.88634522 # occ.  0.00000000
 
ion      s     py     pz     px    dxy    dyz    dz2    dxz  x2-y2    tot
    1  0.000  0.002  0.001  0.003  0.000  0.000  0.000  0.000  0.000  0.005
    2  0.000  0.002  0.001  0.003  0.000  0.000  0.000  0.000  0.000  0.005
tot    0.000  0.003  0.002  0.005  0.000  0.000  0.000  0.000  0.000  0.011
 
band    11 # energy   14.98479351 # occ.  0.00000000
 
ion      s     py     pz     px    dxy    dyz    dz2    dxz  x2-y2    tot
    1  0.052  0.013  0.013  0.013  0.000  0.000  0.000  0.000  0.000  0.092
    2  0.052  0.013  0.013  0.013  0.000  0.000  0.000  0.000  0.000  0.092
tot    0.104  0.027  0.027  0.027  0.000  0.000  0.000  0.000  0.000  0.185
 
band    12 # energy   16.62421052 # occ.  0.00000000
 
ion      s     py     pz     px    dxy    dyz    dz2    dxz  x2-y2    tot
    1  0.036  0.010  0.010  0.010  0.000  0.000  0.000  0.000  0.000  0.067
    2  0.036  0.010  0.010  0.010  0.000  0.000  0.000  0.000  0.000  0.067
tot    0.073  0.020  0.020  0.020  0.000  0.000  0.000  0.000  0.000  0.134
 

 k-point    24 :    0.17142857 0.17142857 0.17142857     weight = 0.00555556

band     1 # energy   -5.74688732 # occ.  2.00000000
 
ion      s     py     pz     px    dxy    dyz    dz2    dxz  x2-y2    tot
    1  0.212  0.001  0.001  0.001  0.000  0.000  0.000  0.000  0.000  0.216
    2  0.212  0.001  0.001  0.001  0.000  0.000  0.000  0.000  0.000  0.216
tot    0.423  0.003  0.003  0.003  0.000  0.000  0.000  0.000  0.000  0.432
 
band     2 # energy    3.36262514 # occ.  2.00000000
 
ion      s     py     pz     px    dxy    dyz    dz2    dxz  x2-y2    tot
    1  0.077  0.047  0.047  0.047  0.000  0.000  0.000  0.000  0.000  0.219
    2  0.077  0.047  0.047  0.047  0.000  0.000  0.000  0.000  0.000  0.219
tot    0.154  0.094  0.094  0.094  0.000  0.000  0.000  0.000  0.000  0.438
 
band     3 # energy    5.36310489 # occ.  2.00000000
 
ion      s     py     pz     px    dxy    dyz    dz2    dxz  x2-y2    tot
    1  0.000  0.063  0.125  0.025  0.000  0.000  0.000  0.000  0.000  0.213
    2  0.000  0.063  0.125  0.025  0.000  0.000  0.000  0.000  0.000  0.213
tot    0.000  0.125  0.250  0.051  0.000  0.000  0.000  0.000  0.000  0.426
 
band     4 # energy    5.36310491 # occ.  2.00000000
 
ion      s     py     pz     px    dxy    dyz    dz2    dxz  x2-y2    tot
    1  0.000  0.079  0.017  0.117  0.000  0.000  0.000  0.000  0.000  0.213
    2  0.000  0.079  0.017  0.117  0.000  0.000  0.000  0.000  0.000  0.213
tot    0.000  0.159  0.034  0.233  0.000  0.000  0.000  0.000  0.000  0.426
 
band     5 # energy    8.16862684 # occ.  0.00000000
 
ion      s     py     pz     px    dxy    dyz    dz2    dxz  x2-y2    tot
    1  0.128  0.024  0.024  0.024  0.000  0.000  0.000  0.000  0.000  0.200
    2  0.128  0.024  0.024  0.024  0.000  0.000  0.000  0.000  0.000  0.200
tot    0.255  0.048  0.048  0.048  0.000  0.000  0.000  0.000  0.000  0.399
 
band     6 # energy    9.06817266 # occ.  0.00000000
 
ion      s     py     pz     px    dxy    dyz    dz2    dxz  x2-y2    tot
    1  0.000  0.088  0.017  0.048  0.000  0.000  0.000  0.000  0.000  0.153
    2  0.000  0.088  0.017  0.048  0.000  0.000  0.000  0.000  0.000  0.153
tot    0.000  0.176  0.034  0.097  0.000  0.000  0.000  0.000  0.000  0.307
 
band     7 # energy    9.06817269 # occ.  0.00000000
 
ion      s     py     pz     px    dxy    dyz    dz2    dxz  x2-y2    tot
    1  0.000  0.014  0.085  0.054  0.000  0.000  0.000  0.000  0.000  0.153
    2  0.000  0.014  0.085  0.054  0.000  0.000  0.000  0.000  0.000  0.153
tot    0.000  0.029  0.170  0.108  0.000  0.000  0.000  0.000  0.000  0.307
 
band     8 # energy   11.37938290 # occ.  0.00000000
 
ion      s     py     pz     px    dxy    dyz    dz2    dxz  x2-y2    tot
    1  0.169  0.040  0.040  0.040  0.000  0.000  0.000  0.000  0.000  0.288
    2  0.169  0.040  0.040  0.040  0.000  0.000  0.000  0.000  0.000  0.288
tot    0.338  0.080  0.080  0.080  0.000  0.000  0.000  0.000  0.000  0.576
 
band     9 # energy   12.90757050 # occ.  0.00000000
 
ion      s     py     pz     px    dxy    dyz    dz2    dxz  x2-y2    tot
    1  0.000  0.000  0.001  0.003  0.000  0.000  0.000  0.000  0.000  0.004
    2  0.000  0.000  0.001  0.003  0.000  0.000  0.000  0.000  0.000  0.004
tot    0.000  0.001  0.002  0.005  0.000  0.000  0.000  0.000  0.000  0.008
 
band    10 # energy   12.90757075 # occ.  0.00000000
 
ion      s     py     pz     px    dxy    dyz    dz2    dxz  x2-y2    tot
    1  0.000  0.002  0.002  0.000  0.000  0.000  0.000  0.000  0.000  0.004
    2  0.000  0.002  0.002  0.000  0.000  0.000  0.000  0.000  0.000  0.004
tot    0.000  0.005  0.003  0.000  0.000  0.000  0.000  0.000  0.000  0.008
 
band    11 # energy   14.94568666 # occ.  0.00000000
 
ion      s     py     pz     px    dxy    dyz    dz2    dxz  x2-y2    tot
    1  0.058  0.014  0.014  0.014  0.000  0.000  0.000  0.000  0.000  0.100
    2  0.058  0.014  0.014  0.014  0.000  0.000  0.000  0.000  0.000  0.100
tot    0.116  0.028  0.028  0.028  0.000  0.000  0.000  0.000  0.000  0.201
 
band    12 # energy   16.51517378 # occ.  0.00000000
 
ion      s     py     pz     px    dxy    dyz    dz2    dxz  x2-y2    tot
    1  0.032  0.008  0.008  0.008  0.000  0.000  0.000  0.000  0.000  0.056
    2  0.032  0.008  0.008  0.008  0.000  0.000  0.000  0.000  0.000  0.056
tot    0.063  0.016  0.016  0.016  0.000  0.000  0.000  0.000  0.000  0.112
 

 k-point    25 :    0.15714286 0.15714286 0.15714286     weight = 0.00555556

band     1 # energy   -5.80730075 # occ.  2.00000000
 
ion      s     py     pz     px    dxy    dyz    dz2    dxz  x2-y2    tot
    1  0.212  0.001  0.001  0.001  0.000  0.000  0.000  0.000  0.000  0.215
    2  0.212  0.001  0.001  0.001  0.000  0.000  0.000  0.000  0.000  0.215
tot    0.424  0.002  0.002  0.002  0.000  0.000  0.000  0.000  0.000  0.431
 
band     2 # energy    3.63243470 # occ.  2.00000000
 
ion      s     py     pz     px    dxy    dyz    dz2    dxz  x2-y2    tot
    1  0.073  0.049  0.049  0.049  0.000  0.000  0.000  0.000  0.000  0.219
    2  0.073  0.049  0.049  0.049  0.000  0.000  0.000  0.000  0.000  0.219
tot    0.146  0.098  0.098  0.098  0.000  0.000  0.000  0.000  0.000  0.438
 
band     3 # energy    5.41898984 # occ.  2.00000000
 
ion      s     py     pz     px    dxy    dyz    dz2    dxz  x2-y2    tot
    1  0.000  0.044  0.092  0.077  0.000  0.000  0.000  0.000  0.000  0.213
    2  0.000  0.044  0.092  0.077  0.000  0.000  0.000  0.000  0.000  0.213
tot    0.000  0.088  0.185  0.153  0.000  0.000  0.000  0.000  0.000  0.426
 
band     4 # energy    5.41898985 # occ.  2.00000000
 
ion      s     py     pz     px    dxy    dyz    dz2    dxz  x2-y2    tot
    1  0.000  0.098  0.050  0.065  0.000  0.000  0.000  0.000  0.000  0.213
    2  0.000  0.098  0.050  0.065  0.000  0.000  0.000  0.000  0.000  0.213
tot    0.000  0.196  0.099  0.131  0.000  0.000  0.000  0.000  0.000  0.426
 
band     5 # energy    8.22352215 # occ.  0.00000000
 
ion      s     py     pz     px    dxy    dyz    dz2    dxz  x2-y2    tot
    1  0.121  0.026  0.026  0.026  0.000  0.000  0.000  0.000  0.000  0.198
    2  0.121  0.026  0.026  0.026  0.000  0.000  0.000  0.000  0.000  0.198
tot    0.241  0.052  0.052  0.052  0.000  0.000  0.000  0.000  0.000  0.396
 
band     6 # energy    8.99504599 # occ.  0.00000000
 
ion      s     py     pz     px    dxy    dyz    dz2    dxz  x2-y2    tot
    1  0.000  0.016  0.044  0.094  0.000  0.000  0.000  0.000  0.000  0.154
    2  0.000  0.016  0.044  0.094  0.000  0.000  0.000  0.000  0.000  0.154
tot    0.000  0.032  0.088  0.188  0.000  0.000  0.000  0.000  0.000  0.309
 
band     7 # energy    8.99504607 # occ.  0.00000000
 
ion      s     py     pz     px    dxy    dyz    dz2    dxz  x2-y2    tot
    1  0.000  0.087  0.059  0.009  0.000  0.000  0.000  0.000  0.000  0.154
    2  0.000  0.087  0.059  0.009  0.000  0.000  0.000  0.000  0.000  0.154
tot    0.000  0.173  0.117  0.018  0.000  0.000  0.000  0.000  0.000  0.309
 
band     8 # energy   11.12241441 # occ.  0.00000000
 
ion      s     py     pz     px    dxy    dyz    dz2    dxz  x2-y2    tot
    1  0.179  0.038  0.038  0.038  0.000  0.000  0.000  0.000  0.000  0.292
    2  0.179  0.038  0.038  0.038  0.000  0.000  0.000  0.000  0.000  0.292
tot    0.359  0.075  0.075  0.075  0.000  0.000  0.000  0.000  0.000  0.584
 
band     9 # energy   12.94435127 # occ.  0.00000000
 
ion      s     py     pz     px    dxy    dyz    dz2    dxz  x2-y2    tot
    1  0.000  0.000  0.001  0.002  0.000  0.000  0.000  0.000  0.000  0.003
    2  0.000  0.000  0.001  0.002  0.000  0.000  0.000  0.000  0.000  0.003
tot    0.000  0.001  0.002  0.004  0.000  0.000  0.000  0.000  0.000  0.006
 
band    10 # energy   12.94435128 # occ.  0.00000000
 
ion      s     py     pz     px    dxy    dyz    dz2    dxz  x2-y2    tot
    1  0.000  0.002  0.001  0.000  0.000  0.000  0.000  0.000  0.000  0.003
    2  0.000  0.002  0.001  0.000  0.000  0.000  0.000  0.000  0.000  0.003
tot    0.000  0.004  0.002  0.000  0.000  0.000  0.000  0.000  0.000  0.006
 
band    11 # energy   14.86515567 # occ.  0.00000000
 
ion      s     py     pz     px    dxy    dyz    dz2    dxz  x2-y2    tot
    1  0.065  0.014  0.014  0.014  0.000  0.000  0.000  0.000  0.000  0.106
    2  0.065  0.014  0.014  0.014  0.000  0.000  0.000  0.000  0.000  0.106
tot    0.129  0.028  0.028  0.028  0.000  0.000  0.000  0.000  0.000  0.213
 
band    12 # energy   16.46616029 # occ.  0.00000000
 
ion      s     py     pz     px    dxy    dyz    dz2    dxz  x2-y2    tot
    1  0.026  0.007  0.007  0.007  0.000  0.000  0.000  0.000  0.000  0.047
    2  0.026  0.007  0.007  0.007  0.000  0.000  0.000  0.000  0.000  0.047
tot    0.053  0.014  0.014  0.014  0.000  0.000  0.000  0.000  0.000  0.095
 

 k-point    26 :    0.14285714 0.14285714 0.14285714     weight = 0.00555556

band     1 # energy   -5.86267709 # occ.  2.00000000
 
ion      s     py     pz     px    dxy    dyz    dz2    dxz  x2-y2    tot
    1  0.212  0.001  0.001  0.001  0.000  0.000  0.000  0.000  0.000  0.215
    2  0.212  0.001  0.001  0.001  0.000  0.000  0.000  0.000  0.000  0.215
tot    0.424  0.002  0.002  0.002  0.000  0.000  0.000  0.000  0.000  0.430
 
band     2 # energy    3.90153608 # occ.  2.00000000
 
ion      s     py     pz     px    dxy    dyz    dz2    dxz  x2-y2    tot
    1  0.068  0.051  0.051  0.051  0.000  0.000  0.000  0.000  0.000  0.220
    2  0.068  0.051  0.051  0.051  0.000  0.000  0.000  0.000  0.000  0.220
tot    0.136  0.101  0.101  0.101  0.000  0.000  0.000  0.000  0.000  0.439
 
band     3 # energy    5.47463064 # occ.  2.00000000
 
ion      s     py     pz     px    dxy    dyz    dz2    dxz  x2-y2    tot
    1  0.000  0.075  0.009  0.129  0.000  0.000  0.000  0.000  0.000  0.213
    2  0.000  0.075  0.009  0.129  0.000  0.000  0.000  0.000  0.000  0.213
tot    0.000  0.150  0.019  0.257  0.000  0.000  0.000  0.000  0.000  0.426
 
band     4 # energy    5.47463065 # occ.  2.00000000
 
ion      s     py     pz     px    dxy    dyz    dz2    dxz  x2-y2    tot
    1  0.000  0.067  0.133  0.014  0.000  0.000  0.000  0.000  0.000  0.213
    2  0.000  0.067  0.133  0.014  0.000  0.000  0.000  0.000  0.000  0.213
tot    0.000  0.134  0.265  0.027  0.000  0.000  0.000  0.000  0.000  0.426
 
band     5 # energy    8.27638354 # occ.  0.00000000
 
ion      s     py     pz     px    dxy    dyz    dz2    dxz  x2-y2    tot
    1  0.113  0.028  0.028  0.028  0.000  0.000  0.000  0.000  0.000  0.196
    2  0.113  0.028  0.028  0.028  0.000  0.000  0.000  0.000  0.000  0.196
tot    0.226  0.056  0.056  0.056  0.000  0.000  0.000  0.000  0.000  0.393
 
band     6 # energy    8.91857760 # occ.  0.00000000
 
ion      s     py     pz     px    dxy    dyz    dz2    dxz  x2-y2    tot
    1  0.000  0.010  0.098  0.047  0.000  0.000  0.000  0.000  0.000  0.155
    2  0.000  0.010  0.098  0.047  0.000  0.000  0.000  0.000  0.000  0.155
tot    0.000  0.019  0.196  0.094  0.000  0.000  0.000  0.000  0.000  0.310
 
band     7 # energy    8.91857767 # occ.  0.00000000
 
ion      s     py     pz     px    dxy    dyz    dz2    dxz  x2-y2    tot
    1  0.000  0.094  0.005  0.056  0.000  0.000  0.000  0.000  0.000  0.155
    2  0.000  0.094  0.005  0.056  0.000  0.000  0.000  0.000  0.000  0.155
tot    0.000  0.187  0.010  0.112  0.000  0.000  0.000  0.000  0.000  0.310
 
band     8 # energy   10.86687104 # occ.  0.00000000
 
ion      s     py     pz     px    dxy    dyz    dz2    dxz  x2-y2    tot
    1  0.191  0.035  0.035  0.035  0.000  0.000  0.000  0.000  0.000  0.296
    2  0.191  0.035  0.035  0.035  0.000  0.000  0.000  0.000  0.000  0.296
tot    0.382  0.070  0.070  0.070  0.000  0.000  0.000  0.000  0.000  0.592
 
band     9 # energy   12.99437563 # occ.  0.00000000
 
ion      s     py     pz     px    dxy    dyz    dz2    dxz  x2-y2    tot
    1  0.000  0.001  0.001  0.000  0.000  0.000  0.000  0.000  0.000  0.002
    2  0.000  0.001  0.001  0.000  0.000  0.000  0.000  0.000  0.000  0.002
tot    0.000  0.001  0.003  0.001  0.000  0.000  0.000  0.000  0.000  0.005
 
band    10 # energy   12.99437564 # occ.  0.00000000
 
ion      s     py     pz     px    dxy    dyz    dz2    dxz  x2-y2    tot
    1  0.000  0.001  0.000  0.001  0.000  0.000  0.000  0.000  0.000  0.002
    2  0.000  0.001  0.000  0.001  0.000  0.000  0.000  0.000  0.000  0.002
tot    0.000  0.002  0.000  0.003  0.000  0.000  0.000  0.000  0.000  0.005
 
band    11 # energy   14.75068714 # occ.  0.00000000
 
ion      s     py     pz     px    dxy    dyz    dz2    dxz  x2-y2    tot
    1  0.071  0.013  0.013  0.013  0.000  0.000  0.000  0.000  0.000  0.110
    2  0.071  0.013  0.013  0.013  0.000  0.000  0.000  0.000  0.000  0.110
tot    0.142  0.026  0.026  0.026  0.000  0.000  0.000  0.000  0.000  0.219
 
band    12 # energy   16.46968760 # occ.  0.00000000
 
ion      s     py     pz     px    dxy    dyz    dz2    dxz  x2-y2    tot
    1  0.021  0.007  0.007  0.007  0.000  0.000  0.000  0.000  0.000  0.042
    2  0.021  0.007  0.007  0.007  0.000  0.000  0.000  0.000  0.000  0.042
tot    0.043  0.014  0.013  0.014  0.000  0.000  0.000  0.000  0.000  0.083
 

 k-point    27 :    0.12857143 0.12857143 0.12857143     weight = 0.00555556

band     1 # energy   -5.91294642 # occ.  2.00000000
 
ion      s     py     pz     px    dxy    dyz    dz2    dxz  x2-y2    tot
    1  0.212  0.001  0.001  0.001  0.000  0.000  0.000  0.000  0.000  0.215
    2  0.212  0.001  0.001  0.001  0.000  0.000  0.000  0.000  0.000  0.215
tot    0.425  0.002  0.002  0.002  0.000  0.000  0.000  0.000  0.000  0.429
 
band     2 # energy    4.16837120 # occ.  2.00000000
 
ion      s     py     pz     px    dxy    dyz    dz2    dxz  x2-y2    tot
    1  0.063  0.052  0.052  0.052  0.000  0.000  0.000  0.000  0.000  0.220
    2  0.063  0.052  0.052  0.052  0.000  0.000  0.000  0.000  0.000  0.220
tot    0.125  0.105  0.105  0.105  0.000  0.000  0.000  0.000  0.000  0.440
 
band     3 # energy    5.52943020 # occ.  2.00000000
 
ion      s     py     pz     px    dxy    dyz    dz2    dxz  x2-y2    tot
    1  0.000  0.124  0.005  0.084  0.000  0.000  0.000  0.000  0.000  0.213
    2  0.000  0.124  0.005  0.084  0.000  0.000  0.000  0.000  0.000  0.213
tot    0.000  0.248  0.011  0.168  0.000  0.000  0.000  0.000  0.000  0.427
 
band     4 # energy    5.52943021 # occ.  2.00000000
 
ion      s     py     pz     px    dxy    dyz    dz2    dxz  x2-y2    tot
    1  0.000  0.018  0.137  0.058  0.000  0.000  0.000  0.000  0.000  0.213
    2  0.000  0.018  0.137  0.058  0.000  0.000  0.000  0.000  0.000  0.213
tot    0.000  0.036  0.274  0.117  0.000  0.000  0.000  0.000  0.000  0.427
 
band     5 # energy    8.32600315 # occ.  0.00000000
 
ion      s     py     pz     px    dxy    dyz    dz2    dxz  x2-y2    tot
    1  0.104  0.030  0.030  0.030  0.000  0.000  0.000  0.000  0.000  0.194
    2  0.104  0.030  0.030  0.030  0.000  0.000  0.000  0.000  0.000  0.194
tot    0.208  0.060  0.060  0.060  0.000  0.000  0.000  0.000  0.000  0.388
 
band     6 # energy    8.84072044 # occ.  0.00000000
 
ion      s     py     pz     px    dxy    dyz    dz2    dxz  x2-y2    tot
    1  0.000  0.006  0.061  0.088  0.000  0.000  0.000  0.000  0.000  0.155
    2  0.000  0.006  0.061  0.088  0.000  0.000  0.000  0.000  0.000  0.155
tot    0.000  0.012  0.121  0.177  0.000  0.000  0.000  0.000  0.000  0.310
 
band     7 # energy    8.84072049 # occ.  0.00000000
 
ion      s     py     pz     px    dxy    dyz    dz2    dxz  x2-y2    tot
    1  0.000  0.097  0.043  0.015  0.000  0.000  0.000  0.000  0.000  0.155
    2  0.000  0.097  0.043  0.015  0.000  0.000  0.000  0.000  0.000  0.155
tot    0.000  0.195  0.085  0.030  0.000  0.000  0.000  0.000  0.000  0.310
 
band     8 # energy   10.61454040 # occ.  0.00000000
 
ion      s     py     pz     px    dxy    dyz    dz2    dxz  x2-y2    tot
    1  0.204  0.032  0.032  0.032  0.000  0.000  0.000  0.000  0.000  0.301
    2  0.204  0.032  0.032  0.032  0.000  0.000  0.000  0.000  0.000  0.301
tot    0.408  0.064  0.064  0.064  0.000  0.000  0.000  0.000  0.000  0.602
 
band     9 # energy   13.05486472 # occ.  0.00000000
 
ion      s     py     pz     px    dxy    dyz    dz2    dxz  x2-y2    tot
    1  0.000  0.001  0.000  0.000  0.000  0.000  0.000  0.000  0.000  0.002
    2  0.000  0.001  0.000  0.000  0.000  0.000  0.000  0.000  0.000  0.002
tot    0.000  0.002  0.001  0.001  0.000  0.000  0.000  0.000  0.000  0.004
 
band    10 # energy   13.05486472 # occ.  0.00000000
 
ion      s     py     pz     px    dxy    dyz    dz2    dxz  x2-y2    tot
    1  0.000  0.000  0.001  0.001  0.000  0.000  0.000  0.000  0.000  0.002
    2  0.000  0.000  0.001  0.001  0.000  0.000  0.000  0.000  0.000  0.002
tot    0.000  0.000  0.002  0.002  0.000  0.000  0.000  0.000  0.000  0.004
 
band    11 # energy   14.61540528 # occ.  0.00000000
 
ion      s     py     pz     px    dxy    dyz    dz2    dxz  x2-y2    tot
    1  0.077  0.011  0.011  0.011  0.000  0.000  0.000  0.000  0.000  0.111
    2  0.077  0.011  0.011  0.011  0.000  0.000  0.000  0.000  0.000  0.111
tot    0.154  0.022  0.022  0.022  0.000  0.000  0.000  0.000  0.000  0.221
 
band    12 # energy   16.51187306 # occ.  0.00000000
 
ion      s     py     pz     px    dxy    dyz    dz2    dxz  x2-y2    tot
    1  0.017  0.007  0.007  0.007  0.000  0.000  0.000  0.000  0.000  0.039
    2  0.017  0.007  0.007  0.007  0.000  0.000  0.000  0.000  0.000  0.039
tot    0.035  0.014  0.014  0.014  0.000  0.000  0.000  0.000  0.000  0.078
 

 k-point    28 :    0.11428571 0.11428571 0.11428571     weight = 0.00555556

band     1 # energy   -5.95805197 # occ.  2.00000000
 
ion      s     py     pz     px    dxy    dyz    dz2    dxz  x2-y2    tot
    1  0.213  0.001  0.001  0.001  0.000  0.000  0.000  0.000  0.000  0.214
    2  0.213  0.001  0.001  0.001  0.000  0.000  0.000  0.000  0.000  0.214
tot    0.425  0.001  0.001  0.001  0.000  0.000  0.000  0.000  0.000  0.429
 
band     2 # energy    4.43119648 # occ.  2.00000000
 
ion      s     py     pz     px    dxy    dyz    dz2    dxz  x2-y2    tot
    1  0.057  0.054  0.054  0.054  0.000  0.000  0.000  0.000  0.000  0.220
    2  0.057  0.054  0.054  0.054  0.000  0.000  0.000  0.000  0.000  0.220
tot    0.113  0.109  0.109  0.109  0.000  0.000  0.000  0.000  0.000  0.440
 
band     3 # energy    5.58261230 # occ.  2.00000000
 
ion      s     py     pz     px    dxy    dyz    dz2    dxz  x2-y2    tot
    1  0.000  0.105  0.002  0.107  0.000  0.000  0.000  0.000  0.000  0.214
    2  0.000  0.105  0.002  0.107  0.000  0.000  0.000  0.000  0.000  0.214
tot    0.000  0.209  0.003  0.215  0.000  0.000  0.000  0.000  0.000  0.427
 
band     4 # energy    5.58261232 # occ.  2.00000000
 
ion      s     py     pz     px    dxy    dyz    dz2    dxz  x2-y2    tot
    1  0.000  0.038  0.141  0.035  0.000  0.000  0.000  0.000  0.000  0.214
    2  0.000  0.038  0.141  0.035  0.000  0.000  0.000  0.000  0.000  0.214
tot    0.000  0.076  0.281  0.070  0.000  0.000  0.000  0.000  0.000  0.427
 
band     5 # energy    8.37095463 # occ.  0.00000000
 
ion      s     py     pz     px    dxy    dyz    dz2    dxz  x2-y2    tot
    1  0.093  0.033  0.033  0.033  0.000  0.000  0.000  0.000  0.000  0.191
    2  0.093  0.033  0.033  0.033  0.000  0.000  0.000  0.000  0.000  0.191
tot    0.186  0.065  0.065  0.065  0.000  0.000  0.000  0.000  0.000  0.382
 
band     6 # energy    8.76352990 # occ.  0.00000000
 
ion      s     py     pz     px    dxy    dyz    dz2    dxz  x2-y2    tot
    1  0.000  0.015  0.042  0.098  0.000  0.000  0.000  0.000  0.000  0.155
    2  0.000  0.015  0.042  0.098  0.000  0.000  0.000  0.000  0.000  0.155
tot    0.000  0.030  0.083  0.197  0.000  0.000  0.000  0.000  0.000  0.310
 
band     7 # energy    8.76353004 # occ.  0.00000000
 
ion      s     py     pz     px    dxy    dyz    dz2    dxz  x2-y2    tot
    1  0.000  0.088  0.062  0.005  0.000  0.000  0.000  0.000  0.000  0.155
    2  0.000  0.088  0.062  0.005  0.000  0.000  0.000  0.000  0.000  0.155
tot    0.000  0.177  0.123  0.010  0.000  0.000  0.000  0.000  0.000  0.310
 
band     8 # energy   10.36784421 # occ.  0.00000000
 
ion      s     py     pz     px    dxy    dyz    dz2    dxz  x2-y2    tot
    1  0.219  0.029  0.029  0.029  0.000  0.000  0.000  0.000  0.000  0.306
    2  0.219  0.029  0.029  0.029  0.000  0.000  0.000  0.000  0.000  0.306
tot    0.438  0.058  0.058  0.058  0.000  0.000  0.000  0.000  0.000  0.613
 
band     9 # energy   13.12331035 # occ.  0.00000000
 
ion      s     py     pz     px    dxy    dyz    dz2    dxz  x2-y2    tot
    1  0.000  0.001  0.000  0.001  0.000  0.000  0.000  0.000  0.000  0.002
    2  0.000  0.001  0.000  0.001  0.000  0.000  0.000  0.000  0.000  0.002
tot    0.000  0.001  0.001  0.001  0.000  0.000  0.000  0.000  0.000  0.003
 
band    10 # energy   13.12331269 # occ.  0.00000000
 
ion      s     py     pz     px    dxy    dyz    dz2    dxz  x2-y2    tot
    1  0.000  0.000  0.001  0.000  0.000  0.000  0.000  0.000  0.000  0.002
    2  0.000  0.000  0.001  0.000  0.000  0.000  0.000  0.000  0.000  0.002
tot    0.000  0.001  0.002  0.001  0.000  0.000  0.000  0.000  0.000  0.003
 
band    11 # energy   14.47222165 # occ.  0.00000000
 
ion      s     py     pz     px    dxy    dyz    dz2    dxz  x2-y2    tot
    1  0.082  0.009  0.009  0.009  0.000  0.000  0.000  0.000  0.000  0.110
    2  0.082  0.009  0.009  0.009  0.000  0.000  0.000  0.000  0.000  0.110
tot    0.164  0.019  0.019  0.019  0.000  0.000  0.000  0.000  0.000  0.220
 
band    12 # energy   16.57948024 # occ.  0.00000000
 
ion      s     py     pz     px    dxy    dyz    dz2    dxz  x2-y2    tot
    1  0.014  0.008  0.008  0.008  0.000  0.000  0.000  0.000  0.000  0.038
    2  0.014  0.008  0.008  0.008  0.000  0.000  0.000  0.000  0.000  0.038
tot    0.028  0.016  0.016  0.016  0.000  0.000  0.000  0.000  0.000  0.076
 

 k-point    29 :    0.10000000 0.10000000 0.10000000     weight = 0.00555556

band     1 # energy   -5.99794890 # occ.  2.00000000
 
ion      s     py     pz     px    dxy    dyz    dz2    dxz  x2-y2    tot
    1  0.213  0.000  0.000  0.000  0.000  0.000  0.000  0.000  0.000  0.214
    2  0.213  0.000  0.000  0.000  0.000  0.000  0.000  0.000  0.000  0.214
tot    0.426  0.001  0.001  0.001  0.000  0.000  0.000  0.000  0.000  0.428
 
band     2 # energy    4.68755761 # occ.  2.00000000
 
ion      s     py     pz     px    dxy    dyz    dz2    dxz  x2-y2    tot
    1  0.050  0.057  0.057  0.057  0.000  0.000  0.000  0.000  0.000  0.220
    2  0.050  0.057  0.057  0.057  0.000  0.000  0.000  0.000  0.000  0.220
tot    0.100  0.113  0.113  0.113  0.000  0.000  0.000  0.000  0.000  0.440
 
band     3 # energy    5.63330328 # occ.  2.00000000
 
ion      s     py     pz     px    dxy    dyz    dz2    dxz  x2-y2    tot
    1  0.000  0.041  0.075  0.099  0.000  0.000  0.000  0.000  0.000  0.214
    2  0.000  0.041  0.075  0.099  0.000  0.000  0.000  0.000  0.000  0.214
tot    0.000  0.082  0.149  0.197  0.000  0.000  0.000  0.000  0.000  0.428
 
band     4 # energy    5.63330330 # occ.  2.00000000
 
ion      s     py     pz     px    dxy    dyz    dz2    dxz  x2-y2    tot
    1  0.000  0.102  0.068  0.044  0.000  0.000  0.000  0.000  0.000  0.214
    2  0.000  0.102  0.068  0.044  0.000  0.000  0.000  0.000  0.000  0.214
tot    0.000  0.204  0.136  0.088  0.000  0.000  0.000  0.000  0.000  0.428
 
band     5 # energy    8.40936028 # occ.  0.00000000
 
ion      s     py     pz     px    dxy    dyz    dz2    dxz  x2-y2    tot
    1  0.081  0.035  0.035  0.035  0.000  0.000  0.000  0.000  0.000  0.186
    2  0.081  0.035  0.035  0.035  0.000  0.000  0.000  0.000  0.000  0.186
tot    0.161  0.071  0.071  0.071  0.000  0.000  0.000  0.000  0.000  0.373
 
band     6 # energy    8.68909809 # occ.  0.00000000
 
ion      s     py     pz     px    dxy    dyz    dz2    dxz  x2-y2    tot
    1  0.000  0.078  0.001  0.075  0.000  0.000  0.000  0.000  0.000  0.154
    2  0.000  0.078  0.001  0.075  0.000  0.000  0.000  0.000  0.000  0.154
tot    0.000  0.157  0.003  0.149  0.000  0.000  0.000  0.000  0.000  0.309
 
band     7 # energy    8.68909814 # occ.  0.00000000
 
ion      s     py     pz     px    dxy    dyz    dz2    dxz  x2-y2    tot
    1  0.000  0.025  0.102  0.028  0.000  0.000  0.000  0.000  0.000  0.154
    2  0.000  0.025  0.102  0.028  0.000  0.000  0.000  0.000  0.000  0.154
tot    0.000  0.049  0.203  0.057  0.000  0.000  0.000  0.000  0.000  0.309
 
band     8 # energy   10.13008064 # occ.  0.00000000
 
ion      s     py     pz     px    dxy    dyz    dz2    dxz  x2-y2    tot
    1  0.237  0.025  0.025  0.025  0.000  0.000  0.000  0.000  0.000  0.313
    2  0.237  0.025  0.025  0.025  0.000  0.000  0.000  0.000  0.000  0.313
tot    0.473  0.051  0.051  0.051  0.000  0.000  0.000  0.000  0.000  0.626
 
band     9 # energy   13.19669620 # occ.  0.00000000
 
ion      s     py     pz     px    dxy    dyz    dz2    dxz  x2-y2    tot
    1  0.000  0.001  0.000  0.001  0.000  0.000  0.000  0.000  0.000  0.001
    2  0.000  0.001  0.000  0.001  0.000  0.000  0.000  0.000  0.000  0.001
tot    0.000  0.001  0.000  0.001  0.000  0.000  0.000  0.000  0.000  0.003
 
band    10 # energy   13.19669620 # occ.  0.00000000
 
ion      s     py     pz     px    dxy    dyz    dz2    dxz  x2-y2    tot
    1  0.000  0.000  0.001  0.000  0.000  0.000  0.000  0.000  0.000  0.001
    2  0.000  0.000  0.001  0.000  0.000  0.000  0.000  0.000  0.000  0.001
tot    0.000  0.001  0.002  0.001  0.000  0.000  0.000  0.000  0.000  0.003
 
band    11 # energy   14.33105644 # occ.  0.00000000
 
ion      s     py     pz     px    dxy    dyz    dz2    dxz  x2-y2    tot
    1  0.086  0.007  0.007  0.007  0.000  0.000  0.000  0.000  0.000  0.109
    2  0.086  0.007  0.007  0.007  0.000  0.000  0.000  0.000  0.000  0.109
tot    0.173  0.015  0.015  0.015  0.000  0.000  0.000  0.000  0.000  0.217
 
band    12 # energy   16.66144456 # occ.  0.00000000
 
ion      s     py     pz     px    dxy    dyz    dz2    dxz  x2-y2    tot
    1  0.011  0.009  0.009  0.009  0.000  0.000  0.000  0.000  0.000  0.038
    2  0.011  0.009  0.009  0.009  0.000  0.000  0.000  0.000  0.000  0.038
tot    0.022  0.018  0.018  0.018  0.000  0.000  0.000  0.000  0.000  0.075
 

 k-point    30 :    0.08571429 0.08571429 0.08571429     weight = 0.00555556

band     1 # energy   -6.03261370 # occ.  2.00000000
 
ion      s     py     pz     px    dxy    dyz    dz2    dxz  x2-y2    tot
    1  0.213  0.000  0.000  0.000  0.000  0.000  0.000  0.000  0.000  0.214
    2  0.213  0.000  0.000  0.000  0.000  0.000  0.000  0.000  0.000  0.214
tot    0.426  0.001  0.001  0.001  0.000  0.000  0.000  0.000  0.000  0.428
 
band     2 # energy    4.93418760 # occ.  2.00000000
 
ion      s     py     pz     px    dxy    dyz    dz2    dxz  x2-y2    tot
    1  0.042  0.059  0.059  0.059  0.000  0.000  0.000  0.000  0.000  0.220
    2  0.042  0.059  0.059  0.059  0.000  0.000  0.000  0.000  0.000  0.220
tot    0.085  0.118  0.118  0.118  0.000  0.000  0.000  0.000  0.000  0.439
 
band     3 # energy    5.68052631 # occ.  2.00000000
 
ion      s     py     pz     px    dxy    dyz    dz2    dxz  x2-y2    tot
    1  0.000  0.125  0.005  0.084  0.000  0.000  0.000  0.000  0.000  0.214
    2  0.000  0.125  0.005  0.084  0.000  0.000  0.000  0.000  0.000  0.214
tot    0.000  0.251  0.009  0.169  0.000  0.000  0.000  0.000  0.000  0.429
 
band     4 # energy    5.68052633 # occ.  2.00000000
 
ion      s     py     pz     px    dxy    dyz    dz2    dxz  x2-y2    tot
    1  0.000  0.018  0.138  0.059  0.000  0.000  0.000  0.000  0.000  0.214
    2  0.000  0.018  0.138  0.059  0.000  0.000  0.000  0.000  0.000  0.214
tot    0.000  0.035  0.276  0.117  0.000  0.000  0.000  0.000  0.000  0.429
 
band     5 # energy    8.43898525 # occ.  0.00000000
 
ion      s     py     pz     px    dxy    dyz    dz2    dxz  x2-y2    tot
    1  0.066  0.038  0.038  0.038  0.000  0.000  0.000  0.000  0.000  0.181
    2  0.066  0.038  0.038  0.038  0.000  0.000  0.000  0.000  0.000  0.181
tot    0.131  0.077  0.077  0.077  0.000  0.000  0.000  0.000  0.000  0.361
 
band     6 # energy    8.61936162 # occ.  0.00000000
 
ion      s     py     pz     px    dxy    dyz    dz2    dxz  x2-y2    tot
    1  0.000  0.078  0.075  0.001  0.000  0.000  0.000  0.000  0.000  0.154
    2  0.000  0.078  0.075  0.001  0.000  0.000  0.000  0.000  0.000  0.154
tot    0.000  0.156  0.150  0.002  0.000  0.000  0.000  0.000  0.000  0.308
 
band     7 # energy    8.61936166 # occ.  0.00000000
 
ion      s     py     pz     px    dxy    dyz    dz2    dxz  x2-y2    tot
    1  0.000  0.025  0.028  0.102  0.000  0.000  0.000  0.000  0.000  0.154
    2  0.000  0.025  0.028  0.102  0.000  0.000  0.000  0.000  0.000  0.154
tot    0.000  0.049  0.056  0.203  0.000  0.000  0.000  0.000  0.000  0.308
 
band     8 # energy    9.90594143 # occ.  0.00000000
 
ion      s     py     pz     px    dxy    dyz    dz2    dxz  x2-y2    tot
    1  0.257  0.021  0.021  0.021  0.000  0.000  0.000  0.000  0.000  0.321
    2  0.257  0.021  0.021  0.021  0.000  0.000  0.000  0.000  0.000  0.321
tot    0.515  0.042  0.042  0.042  0.000  0.000  0.000  0.000  0.000  0.641
 
band     9 # energy   13.27170473 # occ.  0.00000000
 
ion      s     py     pz     px    dxy    dyz    dz2    dxz  x2-y2    tot
    1  0.000  0.000  0.000  0.000  0.000  0.000  0.000  0.000  0.000  0.001
    2  0.000  0.000  0.000  0.000  0.000  0.000  0.000  0.000  0.000  0.001
tot    0.000  0.001  0.001  0.001  0.000  0.000  0.000  0.000  0.000  0.002
 
band    10 # energy   13.27170484 # occ.  0.00000000
 
ion      s     py     pz     px    dxy    dyz    dz2    dxz  x2-y2    tot
    1  0.000  0.000  0.000  0.000  0.000  0.000  0.000  0.000  0.000  0.001
    2  0.000  0.000  0.000  0.000  0.000  0.000  0.000  0.000  0.000  0.001
tot    0.000  0.001  0.001  0.001  0.000  0.000  0.000  0.000  0.000  0.002
 
band    11 # energy   14.19898167 # occ.  0.00000000
 
ion      s     py     pz     px    dxy    dyz    dz2    dxz  x2-y2    tot
    1  0.090  0.006  0.006  0.006  0.000  0.000  0.000  0.000  0.000  0.107
    2  0.090  0.006  0.006  0.006  0.000  0.000  0.000  0.000  0.000  0.107
tot    0.180  0.011  0.011  0.011  0.000  0.000  0.000  0.000  0.000  0.214
 
band    12 # energy   16.75126508 # occ.  0.00000000
 
ion      s     py     pz     px    dxy    dyz    dz2    dxz  x2-y2    tot
    1  0.008  0.009  0.011  0.009  0.000  0.000  0.000  0.000  0.000  0.038
    2  0.008  0.009  0.011  0.009  0.000  0.000  0.000  0.000  0.000  0.038
tot    0.017  0.019  0.022  0.018  0.000  0.000  0.000  0.000  0.000  0.076
 

 k-point    31 :    0.07142857 0.07142857 0.07142857     weight = 0.00555556

band     1 # energy   -6.06199840 # occ.  2.00000000
 
ion      s     py     pz     px    dxy    dyz    dz2    dxz  x2-y2    tot
    1  0.213  0.000  0.000  0.000  0.000  0.000  0.000  0.000  0.000  0.214
    2  0.213  0.000  0.000  0.000  0.000  0.000  0.000  0.000  0.000  0.214
tot    0.426  0.000  0.000  0.000  0.000  0.000  0.000  0.000  0.000  0.428
 
band     2 # energy    5.16659276 # occ.  2.00000000
 
ion      s     py     pz     px    dxy    dyz    dz2    dxz  x2-y2    tot
    1  0.034  0.062  0.062  0.062  0.000  0.000  0.000  0.000  0.000  0.219
    2  0.034  0.062  0.062  0.062  0.000  0.000  0.000  0.000  0.000  0.219
tot    0.069  0.123  0.123  0.123  0.000  0.000  0.000  0.000  0.000  0.438
 
band     3 # energy    5.72321458 # occ.  2.00000000
 
ion      s     py     pz     px    dxy    dyz    dz2    dxz  x2-y2    tot
    1  0.000  0.049  0.034  0.132  0.000  0.000  0.000  0.000  0.000  0.215
    2  0.000  0.049  0.034  0.132  0.000  0.000  0.000  0.000  0.000  0.215
tot    0.000  0.097  0.068  0.265  0.000  0.000  0.000  0.000  0.000  0.430
 
band     4 # energy    5.72321463 # occ.  2.00000000
 
ion      s     py     pz     px    dxy    dyz    dz2    dxz  x2-y2    tot
    1  0.000  0.095  0.109  0.011  0.000  0.000  0.000  0.000  0.000  0.215
    2  0.000  0.095  0.109  0.011  0.000  0.000  0.000  0.000  0.000  0.215
tot    0.000  0.189  0.219  0.021  0.000  0.000  0.000  0.000  0.000  0.430
 
band     5 # energy    8.45696930 # occ.  0.00000000
 
ion      s     py     pz     px    dxy    dyz    dz2    dxz  x2-y2    tot
    1  0.048  0.042  0.042  0.042  0.000  0.000  0.000  0.000  0.000  0.174
    2  0.048  0.042  0.042  0.042  0.000  0.000  0.000  0.000  0.000  0.174
tot    0.097  0.083  0.083  0.083  0.000  0.000  0.000  0.000  0.000  0.347
 
band     6 # energy    8.55623300 # occ.  0.00000000
 
ion      s     py     pz     px    dxy    dyz    dz2    dxz  x2-y2    tot
    1  0.000  0.100  0.016  0.037  0.000  0.000  0.000  0.000  0.000  0.153
    2  0.000  0.100  0.016  0.037  0.000  0.000  0.000  0.000  0.000  0.153
tot    0.000  0.200  0.032  0.074  0.000  0.000  0.000  0.000  0.000  0.307
 
band     7 # energy    8.55623319 # occ.  0.00000000
 
ion      s     py     pz     px    dxy    dyz    dz2    dxz  x2-y2    tot
    1  0.000  0.002  0.086  0.065  0.000  0.000  0.000  0.000  0.000  0.153
    2  0.000  0.002  0.086  0.065  0.000  0.000  0.000  0.000  0.000  0.153
tot    0.000  0.004  0.173  0.130  0.000  0.000  0.000  0.000  0.000  0.307
 
band     8 # energy    9.70164923 # occ.  0.00000000
 
ion      s     py     pz     px    dxy    dyz    dz2    dxz  x2-y2    tot
    1  0.281  0.016  0.016  0.016  0.000  0.000  0.000  0.000  0.000  0.330
    2  0.281  0.016  0.016  0.016  0.000  0.000  0.000  0.000  0.000  0.330
tot    0.562  0.033  0.032  0.033  0.000  0.000  0.000  0.000  0.000  0.660
 
band     9 # energy   13.34477007 # occ.  0.00000000
 
ion      s     py     pz     px    dxy    dyz    dz2    dxz  x2-y2    tot
    1  0.000  0.000  0.000  0.001  0.000  0.000  0.000  0.000  0.000  0.001
    2  0.000  0.000  0.000  0.001  0.000  0.000  0.000  0.000  0.000  0.001
tot    0.000  0.000  0.000  0.001  0.000  0.000  0.000  0.000  0.000  0.002
 
band    10 # energy   13.34477008 # occ.  0.00000000
 
ion      s     py     pz     px    dxy    dyz    dz2    dxz  x2-y2    tot
    1  0.000  0.000  0.001  0.000  0.000  0.000  0.000  0.000  0.000  0.001
    2  0.000  0.000  0.001  0.000  0.000  0.000  0.000  0.000  0.000  0.001
tot    0.000  0.001  0.001  0.000  0.000  0.000  0.000  0.000  0.000  0.002
 
band    11 # energy   14.08087224 # occ.  0.00000000
 
ion      s     py     pz     px    dxy    dyz    dz2    dxz  x2-y2    tot
    1  0.093  0.004  0.004  0.004  0.000  0.000  0.000  0.000  0.000  0.106
    2  0.093  0.004  0.004  0.004  0.000  0.000  0.000  0.000  0.000  0.106
tot    0.187  0.008  0.008  0.008  0.000  0.000  0.000  0.000  0.000  0.211
 
band    12 # energy   16.83693403 # occ.  0.00000000
 
ion      s     py     pz     px    dxy    dyz    dz2    dxz  x2-y2    tot
    1  0.006  0.011  0.011  0.011  0.000  0.000  0.000  0.000  0.000  0.038
    2  0.006  0.011  0.011  0.011  0.000  0.000  0.000  0.000  0.000  0.038
tot    0.012  0.022  0.022  0.021  0.000  0.000  0.000  0.000  0.000  0.077
 

 k-point    32 :    0.05714286 0.05714286 0.05714286     weight = 0.00555556

band     1 # energy   -6.08606711 # occ.  2.00000000
 
ion      s     py     pz     px    dxy    dyz    dz2    dxz  x2-y2    tot
    1  0.213  0.000  0.000  0.000  0.000  0.000  0.000  0.000  0.000  0.214
    2  0.213  0.000  0.000  0.000  0.000  0.000  0.000  0.000  0.000  0.214
tot    0.426  0.000  0.000  0.000  0.000  0.000  0.000  0.000  0.000  0.427
 
band     2 # energy    5.37863109 # occ.  2.00000000
 
ion      s     py     pz     px    dxy    dyz    dz2    dxz  x2-y2    tot
    1  0.025  0.064  0.064  0.064  0.000  0.000  0.000  0.000  0.000  0.219
    2  0.025  0.064  0.064  0.064  0.000  0.000  0.000  0.000  0.000  0.219
tot    0.051  0.129  0.129  0.129  0.000  0.000  0.000  0.000  0.000  0.437
 
band     3 # energy    5.76027715 # occ.  2.00000000
 
ion      s     py     pz     px    dxy    dyz    dz2    dxz  x2-y2    tot
    1  0.000  0.128  0.081  0.006  0.000  0.000  0.000  0.000  0.000  0.215
    2  0.000  0.128  0.081  0.006  0.000  0.000  0.000  0.000  0.000  0.215
tot    0.000  0.255  0.162  0.013  0.000  0.000  0.000  0.000  0.000  0.430
 
band     4 # energy    5.76027716 # occ.  2.00000000
 
ion      s     py     pz     px    dxy    dyz    dz2    dxz  x2-y2    tot
    1  0.000  0.016  0.062  0.137  0.000  0.000  0.000  0.000  0.000  0.215
    2  0.000  0.016  0.062  0.137  0.000  0.000  0.000  0.000  0.000  0.215
tot    0.000  0.032  0.125  0.274  0.000  0.000  0.000  0.000  0.000  0.430
 
band     5 # energy    8.46084316 # occ.  0.00000000
 
ion      s     py     pz     px    dxy    dyz    dz2    dxz  x2-y2    tot
    1  0.030  0.045  0.045  0.045  0.000  0.000  0.000  0.000  0.000  0.166
    2  0.030  0.045  0.045  0.045  0.000  0.000  0.000  0.000  0.000  0.166
tot    0.060  0.090  0.090  0.090  0.000  0.000  0.000  0.000  0.000  0.331
 
band     6 # energy    8.50156911 # occ.  0.00000000
 
ion      s     py     pz     px    dxy    dyz    dz2    dxz  x2-y2    tot
    1  0.000  0.082  0.051  0.020  0.000  0.000  0.000  0.000  0.000  0.153
    2  0.000  0.082  0.051  0.020  0.000  0.000  0.000  0.000  0.000  0.153
tot    0.000  0.163  0.102  0.040  0.000  0.000  0.000  0.000  0.000  0.306
 
band     7 # energy    8.50156912 # occ.  0.00000000
 
ion      s     py     pz     px    dxy    dyz    dz2    dxz  x2-y2    tot
    1  0.000  0.020  0.051  0.082  0.000  0.000  0.000  0.000  0.000  0.153
    2  0.000  0.020  0.051  0.082  0.000  0.000  0.000  0.000  0.000  0.153
tot    0.000  0.040  0.101  0.164  0.000  0.000  0.000  0.000  0.000  0.306
 
band     8 # energy    9.52510461 # occ.  0.00000000
 
ion      s     py     pz     px    dxy    dyz    dz2    dxz  x2-y2    tot
    1  0.306  0.011  0.011  0.011  0.000  0.000  0.000  0.000  0.000  0.340
    2  0.306  0.011  0.011  0.011  0.000  0.000  0.000  0.000  0.000  0.340
tot    0.613  0.022  0.022  0.022  0.000  0.000  0.000  0.000  0.000  0.679
 
band     9 # energy   13.41226279 # occ.  0.00000000
 
ion      s     py     pz     px    dxy    dyz    dz2    dxz  x2-y2    tot
    1  0.000  0.000  0.000  0.000  0.000  0.000  0.000  0.000  0.000  0.001
    2  0.000  0.000  0.000  0.000  0.000  0.000  0.000  0.000  0.000  0.001
tot    0.000  0.001  0.000  0.000  0.000  0.000  0.000  0.000  0.000  0.001
 
band    10 # energy   13.41226281 # occ.  0.00000000
 
ion      s     py     pz     px    dxy    dyz    dz2    dxz  x2-y2    tot
    1  0.000  0.000  0.000  0.000  0.000  0.000  0.000  0.000  0.000  0.001
    2  0.000  0.000  0.000  0.000  0.000  0.000  0.000  0.000  0.000  0.001
tot    0.000  0.000  0.001  0.001  0.000  0.000  0.000  0.000  0.000  0.001
 
band    11 # energy   13.98025483 # occ.  0.00000000
 
ion      s     py     pz     px    dxy    dyz    dz2    dxz  x2-y2    tot
    1  0.096  0.003  0.003  0.003  0.000  0.000  0.000  0.000  0.000  0.104
    2  0.096  0.003  0.003  0.003  0.000  0.000  0.000  0.000  0.000  0.104
tot    0.193  0.005  0.005  0.005  0.000  0.000  0.000  0.000  0.000  0.209
 
band    12 # energy   16.91796828 # occ.  0.00000000
 
ion      s     py     pz     px    dxy    dyz    dz2    dxz  x2-y2    tot
    1  0.004  0.012  0.012  0.012  0.000  0.000  0.000  0.000  0.000  0.039
    2  0.004  0.012  0.012  0.012  0.000  0.000  0.000  0.000  0.000  0.039
tot    0.008  0.023  0.023  0.023  0.000  0.000  0.000  0.000  0.000  0.078
 

 k-point    33 :    0.04285714 0.04285714 0.04285714     weight = 0.00555556

band     1 # energy   -6.10481096 # occ.  2.00000000
 
ion      s     py     pz     px    dxy    dyz    dz2    dxz  x2-y2    tot
    1  0.213  0.000  0.000  0.000  0.000  0.000  0.000  0.000  0.000  0.214
    2  0.213  0.000  0.000  0.000  0.000  0.000  0.000  0.000  0.000  0.214
tot    0.427  0.000  0.000  0.000  0.000  0.000  0.000  0.000  0.000  0.427
 
band     2 # energy    5.56193773 # occ.  2.00000000
 
ion      s     py     pz     px    dxy    dyz    dz2    dxz  x2-y2    tot
    1  0.016  0.067  0.067  0.067  0.000  0.000  0.000  0.000  0.000  0.218
    2  0.016  0.067  0.067  0.067  0.000  0.000  0.000  0.000  0.000  0.218
tot    0.033  0.134  0.134  0.134  0.000  0.000  0.000  0.000  0.000  0.436
 
band     3 # energy    5.79054034 # occ.  2.00000000
 
ion      s     py     pz     px    dxy    dyz    dz2    dxz  x2-y2    tot
    1  0.000  0.014  0.109  0.092  0.000  0.000  0.000  0.000  0.000  0.216
    2  0.000  0.014  0.109  0.092  0.000  0.000  0.000  0.000  0.000  0.216
tot    0.000  0.028  0.219  0.184  0.000  0.000  0.000  0.000  0.000  0.431
 
band     4 # energy    5.79054036 # occ.  2.00000000
 
ion      s     py     pz     px    dxy    dyz    dz2    dxz  x2-y2    tot
    1  0.000  0.130  0.034  0.051  0.000  0.000  0.000  0.000  0.000  0.216
    2  0.000  0.130  0.034  0.051  0.000  0.000  0.000  0.000  0.000  0.216
tot    0.000  0.260  0.068  0.103  0.000  0.000  0.000  0.000  0.000  0.431
 
band     5 # energy    8.44975373 # occ.  0.00000000
 
ion      s     py     pz     px    dxy    dyz    dz2    dxz  x2-y2    tot
    1  0.014  0.048  0.048  0.048  0.000  0.000  0.000  0.000  0.000  0.158
    2  0.014  0.048  0.048  0.048  0.000  0.000  0.000  0.000  0.000  0.158
tot    0.028  0.096  0.096  0.096  0.000  0.000  0.000  0.000  0.000  0.317
 
band     6 # energy    8.45702427 # occ.  0.00000000
 
ion      s     py     pz     px    dxy    dyz    dz2    dxz  x2-y2    tot
    1  0.000  0.066  0.005  0.082  0.000  0.000  0.000  0.000  0.000  0.152
    2  0.000  0.066  0.005  0.082  0.000  0.000  0.000  0.000  0.000  0.152
tot    0.000  0.131  0.009  0.164  0.000  0.000  0.000  0.000  0.000  0.304
 
band     7 # energy    8.45702442 # occ.  0.00000000
 
ion      s     py     pz     px    dxy    dyz    dz2    dxz  x2-y2    tot
    1  0.000  0.036  0.097  0.020  0.000  0.000  0.000  0.000  0.000  0.152
    2  0.000  0.036  0.097  0.020  0.000  0.000  0.000  0.000  0.000  0.152
tot    0.000  0.071  0.194  0.039  0.000  0.000  0.000  0.000  0.000  0.304
 
band     8 # energy    9.38451018 # occ.  0.00000000
 
ion      s     py     pz     px    dxy    dyz    dz2    dxz  x2-y2    tot
    1  0.330  0.006  0.006  0.006  0.000  0.000  0.000  0.000  0.000  0.349
    2  0.330  0.006  0.006  0.006  0.000  0.000  0.000  0.000  0.000  0.349
tot    0.660  0.012  0.012  0.012  0.000  0.000  0.000  0.000  0.000  0.698
 
band     9 # energy   13.47025389 # occ.  0.00000000
 
ion      s     py     pz     px    dxy    dyz    dz2    dxz  x2-y2    tot
    1  0.000  0.000  0.000  0.000  0.000  0.000  0.000  0.000  0.000  0.000
    2  0.000  0.000  0.000  0.000  0.000  0.000  0.000  0.000  0.000  0.000
tot    0.000  0.000  0.000  0.000  0.000  0.000  0.000  0.000  0.000  0.001
 
band    10 # energy   13.47025402 # occ.  0.00000000
 
ion      s     py     pz     px    dxy    dyz    dz2    dxz  x2-y2    tot
    1  0.000  0.000  0.000  0.000  0.000  0.000  0.000  0.000  0.000  0.000
    2  0.000  0.000  0.000  0.000  0.000  0.000  0.000  0.000  0.000  0.000
tot    0.000  0.000  0.001  0.000  0.000  0.000  0.000  0.000  0.000  0.001
 
band    11 # energy   13.89963034 # occ.  0.00000000
 
ion      s     py     pz     px    dxy    dyz    dz2    dxz  x2-y2    tot
    1  0.099  0.002  0.002  0.002  0.000  0.000  0.000  0.000  0.000  0.103
    2  0.099  0.002  0.002  0.002  0.000  0.000  0.000  0.000  0.000  0.103
tot    0.197  0.003  0.003  0.003  0.000  0.000  0.000  0.000  0.000  0.206
 
band    12 # energy   16.98945791 # occ.  0.00000000
 
ion      s     py     pz     px    dxy    dyz    dz2    dxz  x2-y2    tot
    1  0.002  0.012  0.013  0.012  0.000  0.000  0.000  0.000  0.000  0.039
    2  0.002  0.012  0.013  0.012  0.000  0.000  0.000  0.000  0.000  0.040
tot    0.004  0.024  0.027  0.024  0.000  0.000  0.000  0.000  0.000  0.079
 

 k-point    34 :    0.02857143 0.02857143 0.02857143     weight = 0.00555556

band     1 # energy   -6.11820762 # occ.  2.00000000
 
ion      s     py     pz     px    dxy    dyz    dz2    dxz  x2-y2    tot
    1  0.213  0.000  0.000  0.000  0.000  0.000  0.000  0.000  0.000  0.214
    2  0.213  0.000  0.000  0.000  0.000  0.000  0.000  0.000  0.000  0.214
tot    0.427  0.000  0.000  0.000  0.000  0.000  0.000  0.000  0.000  0.427
 
band     2 # energy    5.70601225 # occ.  2.00000000
 
ion      s     py     pz     px    dxy    dyz    dz2    dxz  x2-y2    tot
    1  0.008  0.070  0.070  0.070  0.000  0.000  0.000  0.000  0.000  0.217
    2  0.008  0.070  0.070  0.070  0.000  0.000  0.000  0.000  0.000  0.217
tot    0.016  0.139  0.139  0.139  0.000  0.000  0.000  0.000  0.000  0.434
 
band     3 # energy    5.81301374 # occ.  2.00000000
 
ion      s     py     pz     px    dxy    dyz    dz2    dxz  x2-y2    tot
    1  0.000  0.069  0.011  0.135  0.000  0.000  0.000  0.000  0.000  0.216
    2  0.000  0.069  0.011  0.135  0.000  0.000  0.000  0.000  0.000  0.216
tot    0.000  0.139  0.023  0.271  0.000  0.000  0.000  0.000  0.000  0.432
 
band     4 # energy    5.81301377 # occ.  2.00000000
 
ion      s     py     pz     px    dxy    dyz    dz2    dxz  x2-y2    tot
    1  0.000  0.075  0.133  0.009  0.000  0.000  0.000  0.000  0.000  0.216
    2  0.000  0.075  0.133  0.009  0.000  0.000  0.000  0.000  0.000  0.216
tot    0.000  0.149  0.265  0.017  0.000  0.000  0.000  0.000  0.000  0.432
 
band     5 # energy    8.42405266 # occ.  0.00000000
 
ion      s     py     pz     px    dxy    dyz    dz2    dxz  x2-y2    tot
    1  0.000  0.075  0.004  0.072  0.000  0.000  0.000  0.000  0.000  0.152
    2  0.000  0.075  0.004  0.072  0.000  0.000  0.000  0.000  0.000  0.152
tot    0.000  0.150  0.009  0.145  0.000  0.000  0.000  0.000  0.000  0.304
 
band     6 # energy    8.42405277 # occ.  0.00000000
 
ion      s     py     pz     px    dxy    dyz    dz2    dxz  x2-y2    tot
    1  0.000  0.026  0.097  0.029  0.000  0.000  0.000  0.000  0.000  0.152
    2  0.000  0.026  0.097  0.029  0.000  0.000  0.000  0.000  0.000  0.152
tot    0.000  0.052  0.193  0.058  0.000  0.000  0.000  0.000  0.000  0.304
 
band     7 # energy    8.42792714 # occ.  0.00000000
 
ion      s     py     pz     px    dxy    dyz    dz2    dxz  x2-y2    tot
    1  0.004  0.050  0.050  0.050  0.000  0.000  0.000  0.000  0.000  0.154
    2  0.004  0.050  0.050  0.050  0.000  0.000  0.000  0.000  0.000  0.154
tot    0.008  0.100  0.100  0.100  0.000  0.000  0.000  0.000  0.000  0.307
 
band     8 # energy    9.28543808 # occ.  0.00000000
 
ion      s     py     pz     px    dxy    dyz    dz2    dxz  x2-y2    tot
    1  0.347  0.003  0.003  0.003  0.000  0.000  0.000  0.000  0.000  0.355
    2  0.347  0.003  0.003  0.003  0.000  0.000  0.000  0.000  0.000  0.355
tot    0.694  0.005  0.005  0.005  0.000  0.000  0.000  0.000  0.000  0.710
 
band     9 # energy   13.51501835 # occ.  0.00000000
 
ion      s     py     pz     px    dxy    dyz    dz2    dxz  x2-y2    tot
    1  0.000  0.000  0.000  0.000  0.000  0.000  0.000  0.000  0.000  0.000
    2  0.000  0.000  0.000  0.000  0.000  0.000  0.000  0.000  0.000  0.000
tot    0.000  0.000  0.000  0.000  0.000  0.000  0.000  0.000  0.000  0.000
 
band    10 # energy   13.51502193 # occ.  0.00000000
 
ion      s     py     pz     px    dxy    dyz    dz2    dxz  x2-y2    tot
    1  0.000  0.000  0.000  0.000  0.000  0.000  0.000  0.000  0.000  0.000
    2  0.000  0.000  0.000  0.000  0.000  0.000  0.000  0.000  0.000  0.000
tot    0.000  0.000  0.000  0.000  0.000  0.000  0.000  0.000  0.000  0.000
 
band    11 # energy   13.84081107 # occ.  0.00000000
 
ion      s     py     pz     px    dxy    dyz    dz2    dxz  x2-y2    tot
    1  0.100  0.001  0.001  0.001  0.000  0.000  0.000  0.000  0.000  0.102
    2  0.100  0.001  0.001  0.001  0.000  0.000  0.000  0.000  0.000  0.102
tot    0.201  0.001  0.001  0.001  0.000  0.000  0.000  0.000  0.000  0.205
 
band    12 # energy   17.04518505 # occ.  0.00000000
 
ion      s     py     pz     px    dxy    dyz    dz2    dxz  x2-y2    tot
    1  0.001  0.015  0.009  0.015  0.000  0.000  0.000  0.000  0.000  0.040
    2  0.001  0.014  0.008  0.016  0.000  0.000  0.000  0.000  0.000  0.040
tot    0.002  0.029  0.017  0.031  0.000  0.000  0.000  0.000  0.000  0.079
 

 k-point    35 :    0.01428571 0.01428571 0.01428571     weight = 0.00555556

band     1 # energy   -6.12624627 # occ.  2.00000000
 
ion      s     py     pz     px    dxy    dyz    dz2    dxz  x2-y2    tot
    1  0.213  0.000  0.000  0.000  0.000  0.000  0.000  0.000  0.000  0.213
    2  0.213  0.000  0.000  0.000  0.000  0.000  0.000  0.000  0.000  0.213
tot    0.427  0.000  0.000  0.000  0.000  0.000  0.000  0.000  0.000  0.427
 
band     2 # energy    5.79916944 # occ.  2.00000000
 
ion      s     py     pz     px    dxy    dyz    dz2    dxz  x2-y2    tot
    1  0.002  0.071  0.071  0.071  0.000  0.000  0.000  0.000  0.000  0.216
    2  0.002  0.071  0.071  0.071  0.000  0.000  0.000  0.000  0.000  0.216
tot    0.004  0.143  0.143  0.143  0.000  0.000  0.000  0.000  0.000  0.433
 
band     3 # energy    5.82686337 # occ.  2.00000000
 
ion      s     py     pz     px    dxy    dyz    dz2    dxz  x2-y2    tot
    1  0.000  0.068  0.037  0.111  0.000  0.000  0.000  0.000  0.000  0.216
    2  0.000  0.068  0.037  0.111  0.000  0.000  0.000  0.000  0.000  0.216
tot    0.000  0.136  0.074  0.222  0.000  0.000  0.000  0.000  0.000  0.432
 
band     4 # energy    5.82686340 # occ.  2.00000000
 
ion      s     py     pz     px    dxy    dyz    dz2    dxz  x2-y2    tot
    1  0.000  0.076  0.107  0.033  0.000  0.000  0.000  0.000  0.000  0.216
    2  0.000  0.076  0.107  0.033  0.000  0.000  0.000  0.000  0.000  0.216
tot    0.000  0.152  0.215  0.066  0.000  0.000  0.000  0.000  0.000  0.432
 
band     5 # energy    8.40378442 # occ.  0.00000000
 
ion      s     py     pz     px    dxy    dyz    dz2    dxz  x2-y2    tot
    1  0.000  0.011  0.043  0.097  0.000  0.000  0.000  0.000  0.000  0.151
    2  0.000  0.011  0.043  0.097  0.000  0.000  0.000  0.000  0.000  0.151
tot    0.000  0.022  0.086  0.195  0.000  0.000  0.000  0.000  0.000  0.303
 
band     6 # energy    8.40378450 # occ.  0.00000000
 
ion      s     py     pz     px    dxy    dyz    dz2    dxz  x2-y2    tot
    1  0.000  0.090  0.058  0.004  0.000  0.000  0.000  0.000  0.000  0.151
    2  0.000  0.090  0.058  0.004  0.000  0.000  0.000  0.000  0.000  0.151
tot    0.000  0.180  0.116  0.007  0.000  0.000  0.000  0.000  0.000  0.303
 
band     7 # energy    8.40611491 # occ.  0.00000000
 
ion      s     py     pz     px    dxy    dyz    dz2    dxz  x2-y2    tot
    1  0.001  0.050  0.050  0.050  0.000  0.000  0.000  0.000  0.000  0.152
    2  0.001  0.050  0.050  0.050  0.000  0.000  0.000  0.000  0.000  0.152
tot    0.001  0.101  0.101  0.101  0.000  0.000  0.000  0.000  0.000  0.303
 
band     8 # energy    9.22824660 # occ.  0.00000000
 
ion      s     py     pz     px    dxy    dyz    dz2    dxz  x2-y2    tot
    1  0.356  0.001  0.001  0.001  0.000  0.000  0.000  0.000  0.000  0.358
    2  0.356  0.001  0.001  0.001  0.000  0.000  0.000  0.000  0.000  0.358
tot    0.712  0.001  0.001  0.001  0.000  0.000  0.000  0.000  0.000  0.716
 
band     9 # energy   13.54335295 # occ.  0.00000000
 
ion      s     py     pz     px    dxy    dyz    dz2    dxz  x2-y2    tot
    1  0.000  0.000  0.000  0.000  0.000  0.000  0.000  0.000  0.000  0.000
    2  0.000  0.000  0.000  0.000  0.000  0.000  0.000  0.000  0.000  0.000
tot    0.000  0.000  0.000  0.000  0.000  0.000  0.000  0.000  0.000  0.000
 
band    10 # energy   13.54335299 # occ.  0.00000000
 
ion      s     py     pz     px    dxy    dyz    dz2    dxz  x2-y2    tot
    1  0.000  0.000  0.000  0.000  0.000  0.000  0.000  0.000  0.000  0.000
    2  0.000  0.000  0.000  0.000  0.000  0.000  0.000  0.000  0.000  0.000
tot    0.000  0.000  0.000  0.000  0.000  0.000  0.000  0.000  0.000  0.000
 
band    11 # energy   13.80503278 # occ.  0.00000000
 
ion      s     py     pz     px    dxy    dyz    dz2    dxz  x2-y2    tot
    1  0.101  0.000  0.000  0.000  0.000  0.000  0.000  0.000  0.000  0.102
    2  0.101  0.000  0.000  0.000  0.000  0.000  0.000  0.000  0.000  0.102
tot    0.203  0.000  0.000  0.000  0.000  0.000  0.000  0.000  0.000  0.204
 
band    12 # energy   17.09744157 # occ.  0.00000000
 
ion      s     py     pz     px    dxy    dyz    dz2    dxz  x2-y2    tot
    1  0.000  0.009  0.016  0.016  0.000  0.000  0.000  0.000  0.000  0.040
    2  0.000  0.008  0.016  0.016  0.000  0.000  0.000  0.000  0.000  0.040
tot    0.000  0.017  0.031  0.032  0.000  0.000  0.000  0.000  0.000  0.080
 

 k-point    36 :    0.00000000 0.00000000 0.00000000     weight = 0.00555556

band     1 # energy   -6.12892076 # occ.  2.00000000
 
ion      s     py     pz     px    dxy    dyz    dz2    dxz  x2-y2    tot
    1  0.213  0.000  0.000  0.000  0.000  0.000  0.000  0.000  0.000  0.213
    2  0.213  0.000  0.000  0.000  0.000  0.000  0.000  0.000  0.000  0.213
tot    0.427  0.000  0.000  0.000  0.000  0.000  0.000  0.000  0.000  0.427
 
band     2 # energy    5.83154360 # occ.  2.00000000
 
ion      s     py     pz     px    dxy    dyz    dz2    dxz  x2-y2    tot
    1  0.000  0.050  0.102  0.064  0.000  0.000  0.000  0.000  0.000  0.216
    2  0.000  0.050  0.102  0.064  0.000  0.000  0.000  0.000  0.000  0.216
tot    0.000  0.100  0.205  0.128  0.000  0.000  0.000  0.000  0.000  0.432
 
band     3 # energy    5.83154371 # occ.  2.00000000
 
ion      s     py     pz     px    dxy    dyz    dz2    dxz  x2-y2    tot
    1  0.000  0.113  0.002  0.101  0.000  0.000  0.000  0.000  0.000  0.216
    2  0.000  0.113  0.002  0.101  0.000  0.000  0.000  0.000  0.000  0.216
tot    0.000  0.227  0.003  0.202  0.000  0.000  0.000  0.000  0.000  0.432
 
band     4 # energy    5.83154371 # occ.  2.00000000
 
ion      s     py     pz     px    dxy    dyz    dz2    dxz  x2-y2    tot
    1  0.000  0.053  0.112  0.051  0.000  0.000  0.000  0.000  0.000  0.216
    2  0.000  0.053  0.112  0.051  0.000  0.000  0.000  0.000  0.000  0.216
tot    0.000  0.106  0.225  0.102  0.000  0.000  0.000  0.000  0.000  0.432
 
band     5 # energy    8.39694502 # occ.  0.00000000
 
ion      s     py     pz     px    dxy    dyz    dz2    dxz  x2-y2    tot
    1  0.000  0.109  0.039  0.003  0.000  0.000  0.000  0.000  0.000  0.151
    2  0.000  0.109  0.039  0.003  0.000  0.000  0.000  0.000  0.000  0.151
tot    0.000  0.219  0.078  0.006  0.000  0.000  0.000  0.000  0.000  0.303
 
band     6 # energy    8.39694507 # occ.  0.00000000
 
ion      s     py     pz     px    dxy    dyz    dz2    dxz  x2-y2    tot
    1  0.000  0.038  0.098  0.015  0.000  0.000  0.000  0.000  0.000  0.151
    2  0.000  0.038  0.098  0.015  0.000  0.000  0.000  0.000  0.000  0.151
tot    0.000  0.076  0.197  0.030  0.000  0.000  0.000  0.000  0.000  0.303
 
band     7 # energy    8.39694509 # occ.  0.00000000
 
ion      s     py     pz     px    dxy    dyz    dz2    dxz  x2-y2    tot
    1  0.000  0.004  0.014  0.133  0.000  0.000  0.000  0.000  0.000  0.151
    2  0.000  0.004  0.014  0.133  0.000  0.000  0.000  0.000  0.000  0.151
tot    0.000  0.008  0.028  0.267  0.000  0.000  0.000  0.000  0.000  0.303
 
band     8 # energy    9.20980121 # occ.  0.00000000
 
ion      s     py     pz     px    dxy    dyz    dz2    dxz  x2-y2    tot
    1  0.359  0.000  0.000  0.000  0.000  0.000  0.000  0.000  0.000  0.359
    2  0.359  0.000  0.000  0.000  0.000  0.000  0.000  0.000  0.000  0.359
tot    0.717  0.000  0.000  0.000  0.000  0.000  0.000  0.000  0.000  0.717
 
band     9 # energy   13.55306089 # occ.  0.00000000
 
ion      s     py     pz     px    dxy    dyz    dz2    dxz  x2-y2    tot
    1  0.000  0.000  0.000  0.000  0.000  0.000  0.000  0.000  0.000  0.000
    2  0.000  0.000  0.000  0.000  0.000  0.000  0.000  0.000  0.000  0.000
tot    0.000  0.000  0.000  0.000  0.000  0.000  0.000  0.000  0.000  0.000
 
band    10 # energy   13.55306523 # occ.  0.00000000
 
ion      s     py     pz     px    dxy    dyz    dz2    dxz  x2-y2    tot
    1  0.000  0.000  0.000  0.000  0.000  0.000  0.000  0.000  0.000  0.000
    2  0.000  0.000  0.000  0.000  0.000  0.000  0.000  0.000  0.000  0.000
tot    0.000  0.000  0.000  0.000  0.000  0.000  0.000  0.000  0.000  0.000
 
band    11 # energy   13.79302549 # occ.  0.00000000
 
ion      s     py     pz     px    dxy    dyz    dz2    dxz  x2-y2    tot
    1  0.102  0.000  0.000  0.000  0.000  0.000  0.000  0.000  0.000  0.102
    2  0.102  0.000  0.000  0.000  0.000  0.000  0.000  0.000  0.000  0.102
tot    0.203  0.000  0.000  0.000  0.000  0.000  0.000  0.000  0.000  0.203
 
band    12 # energy   17.08586149 # occ.  0.00000000
 
ion      s     py     pz     px    dxy    dyz    dz2    dxz  x2-y2    tot
    1  0.000  0.018  0.008  0.015  0.000  0.000  0.000  0.000  0.000  0.040
    2  0.000  0.018  0.008  0.015  0.000  0.000  0.000  0.000  0.000  0.040
tot    0.000  0.035  0.015  0.030  0.000  0.000  0.000  0.000  0.000  0.080
 

 k-point    37 :    0.00000000 0.00000000 0.00000000     weight = 0.00555556

band     1 # energy   -6.12892076 # occ.  2.00000000
 
ion      s     py     pz     px    dxy    dyz    dz2    dxz  x2-y2    tot
    1  0.213  0.000  0.000  0.000  0.000  0.000  0.000  0.000  0.000  0.213
    2  0.213  0.000  0.000  0.000  0.000  0.000  0.000  0.000  0.000  0.213
tot    0.427  0.000  0.000  0.000  0.000  0.000  0.000  0.000  0.000  0.427
 
band     2 # energy    5.83154361 # occ.  2.00000000
 
ion      s     py     pz     px    dxy    dyz    dz2    dxz  x2-y2    tot
    1  0.000  0.074  0.029  0.113  0.000  0.000  0.000  0.000  0.000  0.216
    2  0.000  0.074  0.029  0.113  0.000  0.000  0.000  0.000  0.000  0.216
tot    0.000  0.147  0.059  0.226  0.000  0.000  0.000  0.000  0.000  0.432
 
band     3 # energy    5.83154371 # occ.  2.00000000
 
ion      s     py     pz     px    dxy    dyz    dz2    dxz  x2-y2    tot
    1  0.000  0.112  0.007  0.096  0.000  0.000  0.000  0.000  0.000  0.216
    2  0.000  0.112  0.007  0.096  0.000  0.000  0.000  0.000  0.000  0.216
tot    0.000  0.225  0.015  0.192  0.000  0.000  0.000  0.000  0.000  0.432
 
band     4 # energy    5.83154372 # occ.  2.00000000
 
ion      s     py     pz     px    dxy    dyz    dz2    dxz  x2-y2    tot
    1  0.000  0.030  0.179  0.007  0.000  0.000  0.000  0.000  0.000  0.216
    2  0.000  0.030  0.179  0.007  0.000  0.000  0.000  0.000  0.000  0.216
tot    0.000  0.060  0.359  0.014  0.000  0.000  0.000  0.000  0.000  0.432
 
band     5 # energy    8.39694505 # occ.  0.00000000
 
ion      s     py     pz     px    dxy    dyz    dz2    dxz  x2-y2    tot
    1  0.000  0.087  0.021  0.044  0.000  0.000  0.000  0.000  0.000  0.151
    2  0.000  0.087  0.021  0.044  0.000  0.000  0.000  0.000  0.000  0.151
tot    0.000  0.174  0.041  0.087  0.000  0.000  0.000  0.000  0.000  0.303
 
band     6 # energy    8.39694505 # occ.  0.00000000
 
ion      s     py     pz     px    dxy    dyz    dz2    dxz  x2-y2    tot
    1  0.000  0.050  0.010  0.090  0.000  0.000  0.000  0.000  0.000  0.151
    2  0.000  0.050  0.010  0.090  0.000  0.000  0.000  0.000  0.000  0.151
tot    0.000  0.101  0.021  0.181  0.000  0.000  0.000  0.000  0.000  0.303
 
band     7 # energy    8.39694507 # occ.  0.00000000
 
ion      s     py     pz     px    dxy    dyz    dz2    dxz  x2-y2    tot
    1  0.000  0.014  0.120  0.017  0.000  0.000  0.000  0.000  0.000  0.151
    2  0.000  0.014  0.120  0.017  0.000  0.000  0.000  0.000  0.000  0.151
tot    0.000  0.028  0.240  0.035  0.000  0.000  0.000  0.000  0.000  0.303
 
band     8 # energy    9.20980122 # occ.  0.00000000
 
ion      s     py     pz     px    dxy    dyz    dz2    dxz  x2-y2    tot
    1  0.359  0.000  0.000  0.000  0.000  0.000  0.000  0.000  0.000  0.359
    2  0.359  0.000  0.000  0.000  0.000  0.000  0.000  0.000  0.000  0.359
tot    0.717  0.000  0.000  0.000  0.000  0.000  0.000  0.000  0.000  0.717
 
band     9 # energy   13.55306032 # occ.  0.00000000
 
ion      s     py     pz     px    dxy    dyz    dz2    dxz  x2-y2    tot
    1  0.000  0.000  0.000  0.000  0.000  0.000  0.000  0.000  0.000  0.000
    2  0.000  0.000  0.000  0.000  0.000  0.000  0.000  0.000  0.000  0.000
tot    0.000  0.000  0.000  0.000  0.000  0.000  0.000  0.000  0.000  0.000
 
band    10 # energy   13.55306268 # occ.  0.00000000
 
ion      s     py     pz     px    dxy    dyz    dz2    dxz  x2-y2    tot
    1  0.000  0.000  0.000  0.000  0.000  0.000  0.000  0.000  0.000  0.000
    2  0.000  0.000  0.000  0.000  0.000  0.000  0.000  0.000  0.000  0.000
tot    0.000  0.000  0.000  0.000  0.000  0.000  0.000  0.000  0.000  0.000
 
band    11 # energy   13.79302552 # occ.  0.00000000
 
ion      s     py     pz     px    dxy    dyz    dz2    dxz  x2-y2    tot
    1  0.102  0.000  0.000  0.000  0.000  0.000  0.000  0.000  0.000  0.102
    2  0.102  0.000  0.000  0.000  0.000  0.000  0.000  0.000  0.000  0.102
tot    0.203  0.000  0.000  0.000  0.000  0.000  0.000  0.000  0.000  0.203
 
band    12 # energy   17.08586180 # occ.  0.00000000
 
ion      s     py     pz     px    dxy    dyz    dz2    dxz  x2-y2    tot
    1  0.000  0.003  0.033  0.004  0.000  0.000  0.000  0.000  0.000  0.040
    2  0.000  0.003  0.033  0.004  0.000  0.000  0.000  0.000  0.000  0.040
tot    0.000  0.005  0.066  0.009  0.000  0.000  0.000  0.000  0.000  0.080
 

 k-point    38 :    0.01428571 0.00000000 0.01428571     weight = 0.00555556

band     1 # energy   -6.12535289 # occ.  2.00000000
 
ion      s     py     pz     px    dxy    dyz    dz2    dxz  x2-y2    tot
    1  0.213  0.000  0.000  0.000  0.000  0.000  0.000  0.000  0.000  0.213
    2  0.213  0.000  0.000  0.000  0.000  0.000  0.000  0.000  0.000  0.213
tot    0.427  0.000  0.000  0.000  0.000  0.000  0.000  0.000  0.000  0.427
 
band     2 # energy    5.80694954 # occ.  2.00000000
 
ion      s     py     pz     px    dxy    dyz    dz2    dxz  x2-y2    tot
    1  0.003  0.214  0.000  0.000  0.000  0.000  0.000  0.000  0.000  0.217
    2  0.003  0.214  0.000  0.000  0.000  0.000  0.000  0.000  0.000  0.217
tot    0.006  0.428  0.000  0.000  0.000  0.000  0.000  0.000  0.000  0.434
 
band     3 # energy    5.81597993 # occ.  2.00000000
 
ion      s     py     pz     px    dxy    dyz    dz2    dxz  x2-y2    tot
    1  0.000  0.000  0.078  0.138  0.000  0.000  0.000  0.000  0.000  0.216
    2  0.000  0.000  0.060  0.156  0.000  0.000  0.000  0.000  0.000  0.216
tot    0.000  0.000  0.138  0.294  0.000  0.000  0.000  0.000  0.000  0.432
 
band     4 # energy    5.81597999 # occ.  2.00000000
 
ion      s     py     pz     px    dxy    dyz    dz2    dxz  x2-y2    tot
    1  0.000  0.000  0.138  0.078  0.000  0.000  0.000  0.000  0.000  0.216
    2  0.000  0.000  0.156  0.060  0.000  0.000  0.000  0.000  0.000  0.216
tot    0.000  0.000  0.294  0.138  0.000  0.000  0.000  0.000  0.000  0.432
 
band     5 # energy    8.38801038 # occ.  0.00000000
 
ion      s     py     pz     px    dxy    dyz    dz2    dxz  x2-y2    tot
    1  0.000  0.151  0.000  0.000  0.000  0.000  0.000  0.000  0.000  0.151
    2  0.000  0.151  0.000  0.000  0.000  0.000  0.000  0.000  0.000  0.151
tot    0.001  0.302  0.000  0.000  0.000  0.000  0.000  0.000  0.000  0.302
 
band     6 # energy    8.41691692 # occ.  0.00000000
 
ion      s     py     pz     px    dxy    dyz    dz2    dxz  x2-y2    tot
    1  0.000  0.000  0.020  0.132  0.000  0.000  0.000  0.000  0.000  0.152
    2  0.000  0.000  0.044  0.108  0.000  0.000  0.000  0.000  0.000  0.152
tot    0.000  0.000  0.064  0.240  0.000  0.000  0.000  0.000  0.000  0.304
 
band     7 # energy    8.41691698 # occ.  0.00000000
 
ion      s     py     pz     px    dxy    dyz    dz2    dxz  x2-y2    tot
    1  0.000  0.000  0.132  0.020  0.000  0.000  0.000  0.000  0.000  0.152
    2  0.000  0.000  0.108  0.044  0.000  0.000  0.000  0.000  0.000  0.152
tot    0.000  0.000  0.240  0.064  0.000  0.000  0.000  0.000  0.000  0.304
 
band     8 # energy    9.23393266 # occ.  0.00000000
 
ion      s     py     pz     px    dxy    dyz    dz2    dxz  x2-y2    tot
    1  0.356  0.002  0.000  0.000  0.000  0.000  0.000  0.000  0.000  0.358
    2  0.356  0.002  0.000  0.000  0.000  0.000  0.000  0.000  0.000  0.358
tot    0.711  0.005  0.000  0.000  0.000  0.000  0.000  0.000  0.000  0.716
 
band     9 # energy   13.52334040 # occ.  0.00000000
 
ion      s     py     pz     px    dxy    dyz    dz2    dxz  x2-y2    tot
    1  0.000  0.000  0.000  0.000  0.000  0.000  0.000  0.000  0.000  0.000
    2  0.000  0.000  0.000  0.000  0.000  0.000  0.000  0.000  0.000  0.000
tot    0.000  0.000  0.000  0.000  0.000  0.000  0.000  0.000  0.000  0.000
 
band    10 # energy   13.55702184 # occ.  0.00000000
 
ion      s     py     pz     px    dxy    dyz    dz2    dxz  x2-y2    tot
    1  0.000  0.000  0.000  0.000  0.000  0.000  0.000  0.000  0.000  0.000
    2  0.000  0.000  0.000  0.000  0.000  0.000  0.000  0.000  0.000  0.000
tot    0.000  0.000  0.000  0.000  0.000  0.000  0.000  0.000  0.000  0.000
 
band    11 # energy   13.80903078 # occ.  0.00000000
 
ion      s     py     pz     px    dxy    dyz    dz2    dxz  x2-y2    tot
    1  0.101  0.001  0.000  0.000  0.000  0.000  0.000  0.000  0.000  0.102
    2  0.101  0.001  0.000  0.000  0.000  0.000  0.000  0.000  0.000  0.102
tot    0.202  0.001  0.000  0.000  0.000  0.000  0.000  0.000  0.000  0.204
 
band    12 # energy   17.09216257 # occ.  0.00000000
 
ion      s     py     pz     px    dxy    dyz    dz2    dxz  x2-y2    tot
    1  0.000  0.000  0.011  0.029  0.000  0.000  0.000  0.000  0.000  0.040
    2  0.000  0.000  0.011  0.029  0.000  0.000  0.000  0.000  0.000  0.040
tot    0.000  0.000  0.022  0.058  0.000  0.000  0.000  0.000  0.000  0.080
 

 k-point    39 :    0.02857143 0.00000000 0.02857143     weight = 0.00555556

band     1 # energy   -6.11463188 # occ.  2.00000000
 
ion      s     py     pz     px    dxy    dyz    dz2    dxz  x2-y2    tot
    1  0.213  0.000  0.000  0.000  0.000  0.000  0.000  0.000  0.000  0.214
    2  0.213  0.000  0.000  0.000  0.000  0.000  0.000  0.000  0.000  0.214
tot    0.427  0.000  0.000  0.000  0.000  0.000  0.000  0.000  0.000  0.427
 
band     2 # energy    5.73529905 # occ.  2.00000000
 
ion      s     py     pz     px    dxy    dyz    dz2    dxz  x2-y2    tot
    1  0.011  0.208  0.000  0.000  0.000  0.000  0.000  0.000  0.000  0.220
    2  0.011  0.208  0.000  0.000  0.000  0.000  0.000  0.000  0.000  0.220
tot    0.023  0.417  0.000  0.000  0.000  0.000  0.000  0.000  0.000  0.439
 
band     3 # energy    5.77073418 # occ.  2.00000000
 
ion      s     py     pz     px    dxy    dyz    dz2    dxz  x2-y2    tot
    1  0.000  0.000  0.190  0.025  0.000  0.000  0.000  0.000  0.000  0.215
    2  0.000  0.000  0.138  0.077  0.000  0.000  0.000  0.000  0.000  0.215
tot    0.000  0.000  0.328  0.102  0.000  0.000  0.000  0.000  0.000  0.429
 
band     4 # energy    5.77073419 # occ.  2.00000000
 
ion      s     py     pz     px    dxy    dyz    dz2    dxz  x2-y2    tot
    1  0.000  0.000  0.025  0.190  0.000  0.000  0.000  0.000  0.000  0.215
    2  0.000  0.000  0.077  0.138  0.000  0.000  0.000  0.000  0.000  0.215
tot    0.000  0.000  0.102  0.328  0.000  0.000  0.000  0.000  0.000  0.429
 
band     5 # energy    8.36155997 # occ.  0.00000000
 
ion      s     py     pz     px    dxy    dyz    dz2    dxz  x2-y2    tot
    1  0.002  0.149  0.000  0.000  0.000  0.000  0.000  0.000  0.000  0.150
    2  0.002  0.149  0.000  0.000  0.000  0.000  0.000  0.000  0.000  0.150
tot    0.003  0.298  0.000  0.000  0.000  0.000  0.000  0.000  0.000  0.301
 
band     6 # energy    8.47537074 # occ.  0.00000000
 
ion      s     py     pz     px    dxy    dyz    dz2    dxz  x2-y2    tot
    1  0.000  0.000  0.040  0.113  0.000  0.000  0.000  0.000  0.000  0.153
    2  0.000  0.000  0.097  0.056  0.000  0.000  0.000  0.000  0.000  0.153
tot    0.000  0.000  0.137  0.169  0.000  0.000  0.000  0.000  0.000  0.306
 
band     7 # energy    8.47537082 # occ.  0.00000000
 
ion      s     py     pz     px    dxy    dyz    dz2    dxz  x2-y2    tot
    1  0.000  0.000  0.113  0.040  0.000  0.000  0.000  0.000  0.000  0.153
    2  0.000  0.000  0.056  0.097  0.000  0.000  0.000  0.000  0.000  0.153
tot    0.000  0.000  0.169  0.137  0.000  0.000  0.000  0.000  0.000  0.306
 
band     8 # energy    9.30385668 # occ.  0.00000000
 
ion      s     py     pz     px    dxy    dyz    dz2    dxz  x2-y2    tot
    1  0.347  0.009  0.000  0.000  0.000  0.000  0.000  0.000  0.000  0.356
    2  0.347  0.009  0.000  0.000  0.000  0.000  0.000  0.000  0.000  0.356
tot    0.694  0.017  0.000  0.000  0.000  0.000  0.000  0.000  0.000  0.711
 
band     9 # energy   13.43761216 # occ.  0.00000000
 
ion      s     py     pz     px    dxy    dyz    dz2    dxz  x2-y2    tot
    1  0.000  0.000  0.000  0.000  0.000  0.000  0.000  0.000  0.000  0.001
    2  0.000  0.000  0.000  0.000  0.000  0.000  0.000  0.000  0.000  0.001
tot    0.000  0.001  0.000  0.000  0.000  0.000  0.000  0.000  0.000  0.001
 
band    10 # energy   13.56888374 # occ.  0.00000000
 
ion      s     py     pz     px    dxy    dyz    dz2    dxz  x2-y2    tot
    1  0.000  0.000  0.000  0.000  0.000  0.000  0.000  0.000  0.000  0.000
    2  0.000  0.000  0.000  0.000  0.000  0.000  0.000  0.000  0.000  0.000
tot    0.000  0.000  0.000  0.000  0.000  0.000  0.000  0.000  0.000  0.000
 
band    11 # energy   13.85667003 # occ.  0.00000000
 
ion      s     py     pz     px    dxy    dyz    dz2    dxz  x2-y2    tot
    1  0.100  0.003  0.000  0.000  0.000  0.000  0.000  0.000  0.000  0.103
    2  0.100  0.003  0.000  0.000  0.000  0.000  0.000  0.000  0.000  0.103
tot    0.200  0.005  0.000  0.000  0.000  0.000  0.000  0.000  0.000  0.205
 
band    12 # energy   17.11104007 # occ.  0.00000000
 
ion      s     py     pz     px    dxy    dyz    dz2    dxz  x2-y2    tot
    1  0.000  0.000  0.029  0.010  0.000  0.000  0.000  0.000  0.000  0.040
    2  0.000  0.000  0.028  0.011  0.000  0.000  0.000  0.000  0.000  0.040
tot    0.000  0.000  0.058  0.022  0.000  0.000  0.000  0.000  0.000  0.080
 

 k-point    40 :    0.04285714 0.00000000 0.04285714     weight = 0.00555556

band     1 # energy   -6.09676047 # occ.  2.00000000
 
ion      s     py     pz     px    dxy    dyz    dz2    dxz  x2-y2    tot
    1  0.213  0.000  0.000  0.000  0.000  0.000  0.000  0.000  0.000  0.214
    2  0.213  0.000  0.000  0.000  0.000  0.000  0.000  0.000  0.000  0.214
tot    0.427  0.001  0.000  0.000  0.000  0.000  0.000  0.000  0.000  0.427
 
band     2 # energy    5.62219469 # occ.  2.00000000
 
ion      s     py     pz     px    dxy    dyz    dz2    dxz  x2-y2    tot
    1  0.023  0.200  0.000  0.000  0.000  0.000  0.000  0.000  0.000  0.223
    2  0.023  0.200  0.000  0.000  0.000  0.000  0.000  0.000  0.000  0.223
tot    0.046  0.400  0.000  0.000  0.000  0.000  0.000  0.000  0.000  0.447
 
band     3 # energy    5.69964579 # occ.  2.00000000
 
ion      s     py     pz     px    dxy    dyz    dz2    dxz  x2-y2    tot
    1  0.000  0.000  0.004  0.209  0.000  0.000  0.000  0.000  0.000  0.213
    2  0.000  0.000  0.020  0.193  0.000  0.000  0.000  0.000  0.000  0.213
tot    0.000  0.000  0.024  0.402  0.000  0.000  0.000  0.000  0.000  0.426
 
band     4 # energy    5.69964581 # occ.  2.00000000
 
ion      s     py     pz     px    dxy    dyz    dz2    dxz  x2-y2    tot
    1  0.000  0.000  0.209  0.004  0.000  0.000  0.000  0.000  0.000  0.213
    2  0.000  0.000  0.193  0.020  0.000  0.000  0.000  0.000  0.000  0.213
tot    0.000  0.000  0.402  0.024  0.000  0.000  0.000  0.000  0.000  0.426
 
band     5 # energy    8.31862647 # occ.  0.00000000
 
ion      s     py     pz     px    dxy    dyz    dz2    dxz  x2-y2    tot
    1  0.003  0.146  0.000  0.000  0.000  0.000  0.000  0.000  0.000  0.149
    2  0.003  0.146  0.000  0.000  0.000  0.000  0.000  0.000  0.000  0.149
tot    0.007  0.292  0.000  0.000  0.000  0.000  0.000  0.000  0.000  0.299
 
band     6 # energy    8.56845350 # occ.  0.00000000
 
ion      s     py     pz     px    dxy    dyz    dz2    dxz  x2-y2    tot
    1  0.000  0.000  0.104  0.050  0.000  0.000  0.000  0.000  0.000  0.155
    2  0.000  0.000  0.021  0.134  0.000  0.000  0.000  0.000  0.000  0.155
tot    0.000  0.000  0.125  0.184  0.000  0.000  0.000  0.000  0.000  0.309
 
band     7 # energy    8.56845365 # occ.  0.00000000
 
ion      s     py     pz     px    dxy    dyz    dz2    dxz  x2-y2    tot
    1  0.000  0.000  0.050  0.104  0.000  0.000  0.000  0.000  0.000  0.155
    2  0.000  0.000  0.134  0.021  0.000  0.000  0.000  0.000  0.000  0.155
tot    0.000  0.000  0.184  0.125  0.000  0.000  0.000  0.000  0.000  0.309
 
band     8 # energy    9.41292036 # occ.  0.00000000
 
ion      s     py     pz     px    dxy    dyz    dz2    dxz  x2-y2    tot
    1  0.334  0.018  0.000  0.000  0.000  0.000  0.000  0.000  0.000  0.352
    2  0.334  0.018  0.000  0.000  0.000  0.000  0.000  0.000  0.000  0.352
tot    0.669  0.036  0.000  0.000  0.000  0.000  0.000  0.000  0.000  0.704
 
band     9 # energy   13.30501937 # occ.  0.00000000
 
ion      s     py     pz     px    dxy    dyz    dz2    dxz  x2-y2    tot
    1  0.000  0.001  0.000  0.000  0.000  0.000  0.000  0.000  0.000  0.001
    2  0.000  0.001  0.000  0.000  0.000  0.000  0.000  0.000  0.000  0.001
tot    0.001  0.002  0.000  0.000  0.000  0.000  0.000  0.000  0.000  0.003
 
band    10 # energy   13.58866133 # occ.  0.00000000
 
ion      s     py     pz     px    dxy    dyz    dz2    dxz  x2-y2    tot
    1  0.000  0.000  0.000  0.000  0.000  0.000  0.000  0.000  0.000  0.000
    2  0.000  0.000  0.000  0.000  0.000  0.000  0.000  0.000  0.000  0.000
tot    0.000  0.000  0.000  0.000  0.000  0.000  0.000  0.000  0.000  0.000
 
band    11 # energy   13.93488574 # occ.  0.00000000
 
ion      s     py     pz     px    dxy    dyz    dz2    dxz  x2-y2    tot
    1  0.098  0.006  0.000  0.000  0.000  0.000  0.000  0.000  0.000  0.104
    2  0.098  0.006  0.000  0.000  0.000  0.000  0.000  0.000  0.000  0.104
tot    0.195  0.012  0.000  0.000  0.000  0.000  0.000  0.000  0.000  0.207
 
band    12 # energy   17.14218430 # occ.  0.00000000
 
ion      s     py     pz     px    dxy    dyz    dz2    dxz  x2-y2    tot
    1  0.000  0.000  0.021  0.018  0.000  0.000  0.000  0.000  0.000  0.040
    2  0.000  0.000  0.024  0.015  0.000  0.000  0.000  0.000  0.000  0.040
tot    0.000  0.000  0.045  0.034  0.000  0.000  0.000  0.000  0.000  0.079
 

 k-point    41 :    0.05714286 0.00000000 0.05714286     weight = 0.00555556

band     1 # energy   -6.07175049 # occ.  2.00000000
 
ion      s     py     pz     px    dxy    dyz    dz2    dxz  x2-y2    tot
    1  0.213  0.001  0.000  0.000  0.000  0.000  0.000  0.000  0.000  0.214
    2  0.213  0.001  0.000  0.000  0.000  0.000  0.000  0.000  0.000  0.214
tot    0.426  0.001  0.000  0.000  0.000  0.000  0.000  0.000  0.000  0.428
 
band     2 # energy    5.47490253 # occ.  2.00000000
 
ion      s     py     pz     px    dxy    dyz    dz2    dxz  x2-y2    tot
    1  0.037  0.190  0.000  0.000  0.000  0.000  0.000  0.000  0.000  0.227
    2  0.037  0.190  0.000  0.000  0.000  0.000  0.000  0.000  0.000  0.227
tot    0.074  0.381  0.000  0.000  0.000  0.000  0.000  0.000  0.000  0.455
 
band     3 # energy    5.60772809 # occ.  2.00000000
 
ion      s     py     pz     px    dxy    dyz    dz2    dxz  x2-y2    tot
    1  0.000  0.000  0.066  0.145  0.000  0.000  0.000  0.000  0.000  0.211
    2  0.000  0.000  0.082  0.130  0.000  0.000  0.000  0.000  0.000  0.211
tot    0.000  0.000  0.148  0.275  0.000  0.000  0.000  0.000  0.000  0.422
 
band     4 # energy    5.60772816 # occ.  2.00000000
 
ion      s     py     pz     px    dxy    dyz    dz2    dxz  x2-y2    tot
    1  0.000  0.000  0.145  0.066  0.000  0.000  0.000  0.000  0.000  0.211
    2  0.000  0.000  0.130  0.082  0.000  0.000  0.000  0.000  0.000  0.211
tot    0.000  0.000  0.275  0.148  0.000  0.000  0.000  0.000  0.000  0.422
 
band     5 # energy    8.26077889 # occ.  0.00000000
 
ion      s     py     pz     px    dxy    dyz    dz2    dxz  x2-y2    tot
    1  0.006  0.142  0.000  0.000  0.000  0.000  0.000  0.000  0.000  0.148
    2  0.006  0.142  0.000  0.000  0.000  0.000  0.000  0.000  0.000  0.148
tot    0.011  0.285  0.000  0.000  0.000  0.000  0.000  0.000  0.000  0.296
 
band     6 # energy    8.69108505 # occ.  0.00000000
 
ion      s     py     pz     px    dxy    dyz    dz2    dxz  x2-y2    tot
    1  0.000  0.000  0.052  0.104  0.000  0.000  0.000  0.000  0.000  0.156
    2  0.000  0.000  0.006  0.150  0.000  0.000  0.000  0.000  0.000  0.156
tot    0.000  0.000  0.058  0.254  0.000  0.000  0.000  0.000  0.000  0.313
 
band     7 # energy    8.69108519 # occ.  0.00000000
 
ion      s     py     pz     px    dxy    dyz    dz2    dxz  x2-y2    tot
    1  0.000  0.000  0.104  0.052  0.000  0.000  0.000  0.000  0.000  0.156
    2  0.000  0.000  0.150  0.006  0.000  0.000  0.000  0.000  0.000  0.156
tot    0.000  0.000  0.254  0.058  0.000  0.000  0.000  0.000  0.000  0.313
 
band     8 # energy    9.55186825 # occ.  0.00000000
 
ion      s     py     pz     px    dxy    dyz    dz2    dxz  x2-y2    tot
    1  0.320  0.029  0.000  0.000  0.000  0.000  0.000  0.000  0.000  0.348
    2  0.320  0.029  0.000  0.000  0.000  0.000  0.000  0.000  0.000  0.348
tot    0.639  0.057  0.000  0.000  0.000  0.000  0.000  0.000  0.000  0.696
 
band     9 # energy   13.13800829 # occ.  0.00000000
 
ion      s     py     pz     px    dxy    dyz    dz2    dxz  x2-y2    tot
    1  0.001  0.001  0.000  0.000  0.000  0.000  0.000  0.000  0.000  0.002
    2  0.001  0.001  0.000  0.000  0.000  0.000  0.000  0.000  0.000  0.002
tot    0.003  0.002  0.000  0.000  0.000  0.000  0.000  0.000  0.000  0.005
 
band    10 # energy   13.61634859 # occ.  0.00000000
 
ion      s     py     pz     px    dxy    dyz    dz2    dxz  x2-y2    tot
    1  0.000  0.000  0.000  0.000  0.000  0.000  0.000  0.000  0.000  0.000
    2  0.000  0.000  0.000  0.000  0.000  0.000  0.000  0.000  0.000  0.000
tot    0.000  0.000  0.000  0.000  0.000  0.000  0.000  0.000  0.000  0.000
 
band    11 # energy   14.04205463 # occ.  0.00000000
 
ion      s     py     pz     px    dxy    dyz    dz2    dxz  x2-y2    tot
    1  0.095  0.010  0.000  0.000  0.000  0.000  0.000  0.000  0.000  0.105
    2  0.095  0.010  0.000  0.000  0.000  0.000  0.000  0.000  0.000  0.105
tot    0.190  0.020  0.000  0.000  0.000  0.000  0.000  0.000  0.000  0.210
 
band    12 # energy   17.18635265 # occ.  0.00000000
 
ion      s     py     pz     px    dxy    dyz    dz2    dxz  x2-y2    tot
    1  0.000  0.000  0.025  0.014  0.000  0.000  0.000  0.000  0.000  0.039
    2  0.000  0.000  0.025  0.014  0.000  0.000  0.000  0.000  0.000  0.039
tot    0.000  0.000  0.050  0.028  0.000  0.000  0.000  0.000  0.000  0.079
 

 k-point    42 :    0.07142857 0.00000000 0.07142857     weight = 0.00555556

band     1 # energy   -6.03960433 # occ.  2.00000000
 
ion      s     py     pz     px    dxy    dyz    dz2    dxz  x2-y2    tot
    1  0.213  0.001  0.000  0.000  0.000  0.000  0.000  0.000  0.000  0.214
    2  0.213  0.001  0.000  0.000  0.000  0.000  0.000  0.000  0.000  0.214
tot    0.426  0.002  0.000  0.000  0.000  0.000  0.000  0.000  0.000  0.428
 
band     2 # energy    5.30065395 # occ.  2.00000000
 
ion      s     py     pz     px    dxy    dyz    dz2    dxz  x2-y2    tot
    1  0.051  0.181  0.000  0.000  0.000  0.000  0.000  0.000  0.000  0.232
    2  0.051  0.181  0.000  0.000  0.000  0.000  0.000  0.000  0.000  0.232
tot    0.102  0.361  0.000  0.000  0.000  0.000  0.000  0.000  0.000  0.463
 
band     3 # energy    5.50017372 # occ.  2.00000000
 
ion      s     py     pz     px    dxy    dyz    dz2    dxz  x2-y2    tot
    1  0.000  0.000  0.141  0.068  0.000  0.000  0.000  0.000  0.000  0.209
    2  0.000  0.000  0.198  0.012  0.000  0.000  0.000  0.000  0.000  0.209
tot    0.000  0.000  0.339  0.080  0.000  0.000  0.000  0.000  0.000  0.419
 
band     4 # energy    5.50017376 # occ.  2.00000000
 
ion      s     py     pz     px    dxy    dyz    dz2    dxz  x2-y2    tot
    1  0.000  0.000  0.068  0.141  0.000  0.000  0.000  0.000  0.000  0.209
    2  0.000  0.000  0.012  0.198  0.000  0.000  0.000  0.000  0.000  0.209
tot    0.000  0.000  0.080  0.339  0.000  0.000  0.000  0.000  0.000  0.419
 
band     5 # energy    8.18995520 # occ.  0.00000000
 
ion      s     py     pz     px    dxy    dyz    dz2    dxz  x2-y2    tot
    1  0.008  0.138  0.000  0.000  0.000  0.000  0.000  0.000  0.000  0.146
    2  0.008  0.138  0.000  0.000  0.000  0.000  0.000  0.000  0.000  0.146
tot    0.017  0.276  0.000  0.000  0.000  0.000  0.000  0.000  0.000  0.293
 
band     6 # energy    8.83808477 # occ.  0.00000000
 
ion      s     py     pz     px    dxy    dyz    dz2    dxz  x2-y2    tot
    1  0.000  0.000  0.049  0.109  0.000  0.000  0.000  0.000  0.000  0.158
    2  0.000  0.000  0.147  0.011  0.000  0.000  0.000  0.000  0.000  0.158
tot    0.000  0.000  0.196  0.120  0.000  0.000  0.000  0.000  0.000  0.316
 
band     7 # energy    8.83808484 # occ.  0.00000000
 
ion      s     py     pz     px    dxy    dyz    dz2    dxz  x2-y2    tot
    1  0.000  0.000  0.109  0.049  0.000  0.000  0.000  0.000  0.000  0.158
    2  0.000  0.000  0.011  0.147  0.000  0.000  0.000  0.000  0.000  0.158
tot    0.000  0.000  0.120  0.196  0.000  0.000  0.000  0.000  0.000  0.316
 
band     8 # energy    9.71006061 # occ.  0.00000000
 
ion      s     py     pz     px    dxy    dyz    dz2    dxz  x2-y2    tot
    1  0.303  0.040  0.000  0.000  0.000  0.000  0.000  0.000  0.000  0.343
    2  0.303  0.040  0.000  0.000  0.000  0.000  0.000  0.000  0.000  0.343
tot    0.607  0.080  0.000  0.000  0.000  0.000  0.000  0.000  0.000  0.687
 
band     9 # energy   12.95036783 # occ.  0.00000000
 
ion      s     py     pz     px    dxy    dyz    dz2    dxz  x2-y2    tot
    1  0.003  0.001  0.000  0.000  0.000  0.000  0.000  0.000  0.000  0.004
    2  0.003  0.001  0.000  0.000  0.000  0.000  0.000  0.000  0.000  0.004
tot    0.007  0.001  0.000  0.000  0.000  0.000  0.000  0.000  0.000  0.008
 
band    10 # energy   13.65194325 # occ.  0.00000000
 
ion      s     py     pz     px    dxy    dyz    dz2    dxz  x2-y2    tot
    1  0.000  0.000  0.000  0.000  0.000  0.000  0.000  0.000  0.000  0.000
    2  0.000  0.000  0.000  0.000  0.000  0.000  0.000  0.000  0.000  0.000
tot    0.000  0.000  0.000  0.000  0.000  0.000  0.000  0.000  0.000  0.000
 
band    11 # energy   14.17616140 # occ.  0.00000000
 
ion      s     py     pz     px    dxy    dyz    dz2    dxz  x2-y2    tot
    1  0.091  0.015  0.000  0.000  0.000  0.000  0.000  0.000  0.000  0.107
    2  0.091  0.015  0.000  0.000  0.000  0.000  0.000  0.000  0.000  0.107
tot    0.183  0.031  0.000  0.000  0.000  0.000  0.000  0.000  0.000  0.213
 
band    12 # energy   17.24206318 # occ.  0.00000000
 
ion      s     py     pz     px    dxy    dyz    dz2    dxz  x2-y2    tot
    1  0.000  0.000  0.032  0.006  0.000  0.000  0.000  0.000  0.000  0.039
    2  0.000  0.000  0.036  0.003  0.000  0.000  0.000  0.000  0.000  0.039
tot    0.000  0.000  0.068  0.010  0.000  0.000  0.000  0.000  0.000  0.078
 

 k-point    43 :    0.08571429 0.00000000 0.08571429     weight = 0.00555556

band     1 # energy   -6.00034180 # occ.  2.00000000
 
ion      s     py     pz     px    dxy    dyz    dz2    dxz  x2-y2    tot
    1  0.213  0.001  0.000  0.000  0.000  0.000  0.000  0.000  0.000  0.214
    2  0.213  0.001  0.000  0.000  0.000  0.000  0.000  0.000  0.000  0.214
tot    0.426  0.003  0.000  0.000  0.000  0.000  0.000  0.000  0.000  0.428
 
band     2 # energy    5.10573556 # occ.  2.00000000
 
ion      s     py     pz     px    dxy    dyz    dz2    dxz  x2-y2    tot
    1  0.064  0.171  0.000  0.000  0.000  0.000  0.000  0.000  0.000  0.236
    2  0.064  0.171  0.000  0.000  0.000  0.000  0.000  0.000  0.000  0.236
tot    0.129  0.342  0.000  0.000  0.000  0.000  0.000  0.000  0.000  0.471
 
band     3 # energy    5.38149788 # occ.  2.00000000
 
ion      s     py     pz     px    dxy    dyz    dz2    dxz  x2-y2    tot
    1  0.000  0.000  0.205  0.003  0.000  0.000  0.000  0.000  0.000  0.208
    2  0.000  0.000  0.089  0.118  0.000  0.000  0.000  0.000  0.000  0.208
tot    0.000  0.000  0.294  0.121  0.000  0.000  0.000  0.000  0.000  0.415
 
band     4 # energy    5.38149791 # occ.  2.00000000
 
ion      s     py     pz     px    dxy    dyz    dz2    dxz  x2-y2    tot
    1  0.000  0.000  0.003  0.205  0.000  0.000  0.000  0.000  0.000  0.208
    2  0.000  0.000  0.118  0.089  0.000  0.000  0.000  0.000  0.000  0.208
tot    0.000  0.000  0.121  0.294  0.000  0.000  0.000  0.000  0.000  0.415
 
band     5 # energy    8.10828208 # occ.  0.00000000
 
ion      s     py     pz     px    dxy    dyz    dz2    dxz  x2-y2    tot
    1  0.012  0.133  0.000  0.000  0.000  0.000  0.000  0.000  0.000  0.144
    2  0.012  0.133  0.000  0.000  0.000  0.000  0.000  0.000  0.000  0.144
tot    0.023  0.266  0.000  0.000  0.000  0.000  0.000  0.000  0.000  0.289
 
band     6 # energy    9.00484691 # occ.  0.00000000
 
ion      s     py     pz     px    dxy    dyz    dz2    dxz  x2-y2    tot
    1  0.000  0.000  0.046  0.114  0.000  0.000  0.000  0.000  0.000  0.160
    2  0.000  0.000  0.053  0.107  0.000  0.000  0.000  0.000  0.000  0.160
tot    0.000  0.000  0.099  0.220  0.000  0.000  0.000  0.000  0.000  0.320
 
band     7 # energy    9.00484739 # occ.  0.00000000
 
ion      s     py     pz     px    dxy    dyz    dz2    dxz  x2-y2    tot
    1  0.000  0.000  0.114  0.046  0.000  0.000  0.000  0.000  0.000  0.160
    2  0.000  0.000  0.107  0.053  0.000  0.000  0.000  0.000  0.000  0.160
tot    0.000  0.000  0.220  0.099  0.000  0.000  0.000  0.000  0.000  0.320
 
band     8 # energy    9.87560917 # occ.  0.00000000
 
ion      s     py     pz     px    dxy    dyz    dz2    dxz  x2-y2    tot
    1  0.286  0.051  0.000  0.000  0.000  0.000  0.000  0.000  0.000  0.337
    2  0.286  0.051  0.000  0.000  0.000  0.000  0.000  0.000  0.000  0.337
tot    0.571  0.103  0.000  0.000  0.000  0.000  0.000  0.000  0.000  0.674
 
band     9 # energy   12.75675633 # occ.  0.00000000
 
ion      s     py     pz     px    dxy    dyz    dz2    dxz  x2-y2    tot
    1  0.007  0.000  0.000  0.000  0.000  0.000  0.000  0.000  0.000  0.008
    2  0.007  0.000  0.000  0.000  0.000  0.000  0.000  0.000  0.000  0.008
tot    0.015  0.001  0.000  0.000  0.000  0.000  0.000  0.000  0.000  0.015
 
band    10 # energy   13.69544334 # occ.  0.00000000
 
ion      s     py     pz     px    dxy    dyz    dz2    dxz  x2-y2    tot
    1  0.000  0.000  0.000  0.000  0.000  0.000  0.000  0.000  0.000  0.000
    2  0.000  0.000  0.000  0.000  0.000  0.000  0.000  0.000  0.000  0.000
tot    0.000  0.000  0.000  0.000  0.000  0.000  0.000  0.000  0.000  0.000
 
band    11 # energy   14.33497654 # occ.  0.00000000
 
ion      s     py     pz     px    dxy    dyz    dz2    dxz  x2-y2    tot
    1  0.088  0.021  0.000  0.000  0.000  0.000  0.000  0.000  0.000  0.109
    2  0.088  0.021  0.000  0.000  0.000  0.000  0.000  0.000  0.000  0.109
tot    0.175  0.042  0.000  0.000  0.000  0.000  0.000  0.000  0.000  0.217
 
band    12 # energy   17.31096992 # occ.  0.00000000
 
ion      s     py     pz     px    dxy    dyz    dz2    dxz  x2-y2    tot
    1  0.000  0.000  0.036  0.002  0.000  0.000  0.000  0.000  0.000  0.038
    2  0.000  0.000  0.032  0.006  0.000  0.000  0.000  0.000  0.000  0.038
tot    0.000  0.000  0.068  0.008  0.000  0.000  0.000  0.000  0.000  0.077
 

 k-point    44 :    0.10000000 0.00000000 0.10000000     weight = 0.00555556

band     1 # energy   -5.95400064 # occ.  2.00000000
 
ion      s     py     pz     px    dxy    dyz    dz2    dxz  x2-y2    tot
    1  0.213  0.002  0.000  0.000  0.000  0.000  0.000  0.000  0.000  0.214
    2  0.213  0.002  0.000  0.000  0.000  0.000  0.000  0.000  0.000  0.214
tot    0.425  0.004  0.000  0.000  0.000  0.000  0.000  0.000  0.000  0.429
 
band     2 # energy    4.89517585 # occ.  2.00000000
 
ion      s     py     pz     px    dxy    dyz    dz2    dxz  x2-y2    tot
    1  0.077  0.162  0.000  0.000  0.000  0.000  0.000  0.000  0.000  0.239
    2  0.077  0.162  0.000  0.000  0.000  0.000  0.000  0.000  0.000  0.239
tot    0.154  0.324  0.000  0.000  0.000  0.000  0.000  0.000  0.000  0.478
 
band     3 # energy    5.25543255 # occ.  2.00000000
 
ion      s     py     pz     px    dxy    dyz    dz2    dxz  x2-y2    tot
    1  0.000  0.000  0.088  0.119  0.000  0.000  0.000  0.000  0.000  0.206
    2  0.000  0.000  0.202  0.004  0.000  0.000  0.000  0.000  0.000  0.206
tot    0.000  0.000  0.290  0.122  0.000  0.000  0.000  0.000  0.000  0.412
 
band     4 # energy    5.25543257 # occ.  2.00000000
 
ion      s     py     pz     px    dxy    dyz    dz2    dxz  x2-y2    tot
    1  0.000  0.000  0.119  0.088  0.000  0.000  0.000  0.000  0.000  0.206
    2  0.000  0.000  0.004  0.202  0.000  0.000  0.000  0.000  0.000  0.206
tot    0.000  0.000  0.122  0.290  0.000  0.000  0.000  0.000  0.000  0.412
 
band     5 # energy    8.01794469 # occ.  0.00000000
 
ion      s     py     pz     px    dxy    dyz    dz2    dxz  x2-y2    tot
    1  0.015  0.128  0.000  0.000  0.000  0.000  0.000  0.000  0.000  0.142
    2  0.015  0.128  0.000  0.000  0.000  0.000  0.000  0.000  0.000  0.142
tot    0.029  0.255  0.000  0.000  0.000  0.000  0.000  0.000  0.000  0.285
 
band     6 # energy    9.18772956 # occ.  0.00000000
 
ion      s     py     pz     px    dxy    dyz    dz2    dxz  x2-y2    tot
    1  0.000  0.000  0.037  0.125  0.000  0.000  0.000  0.000  0.000  0.161
    2  0.000  0.000  0.137  0.024  0.000  0.000  0.000  0.000  0.000  0.161
tot    0.000  0.000  0.174  0.149  0.000  0.000  0.000  0.000  0.000  0.323
 
band     7 # energy    9.18772961 # occ.  0.00000000
 
ion      s     py     pz     px    dxy    dyz    dz2    dxz  x2-y2    tot
    1  0.000  0.000  0.125  0.037  0.000  0.000  0.000  0.000  0.000  0.161
    2  0.000  0.000  0.024  0.137  0.000  0.000  0.000  0.000  0.000  0.161
tot    0.000  0.000  0.149  0.174  0.000  0.000  0.000  0.000  0.000  0.323
 
band     8 # energy   10.03435669 # occ.  0.00000000
 
ion      s     py     pz     px    dxy    dyz    dz2    dxz  x2-y2    tot
    1  0.266  0.062  0.000  0.000  0.000  0.000  0.000  0.000  0.000  0.328
    2  0.266  0.062  0.000  0.000  0.000  0.000  0.000  0.000  0.000  0.328
tot    0.532  0.124  0.000  0.000  0.000  0.000  0.000  0.000  0.000  0.655
 
band     9 # energy   12.57369881 # occ.  0.00000000
 
ion      s     py     pz     px    dxy    dyz    dz2    dxz  x2-y2    tot
    1  0.015  0.000  0.000  0.000  0.000  0.000  0.000  0.000  0.000  0.015
    2  0.015  0.000  0.000  0.000  0.000  0.000  0.000  0.000  0.000  0.015
tot    0.029  0.000  0.000  0.000  0.000  0.000  0.000  0.000  0.000  0.029
 
band    10 # energy   13.74709409 # occ.  0.00000000
 
ion      s     py     pz     px    dxy    dyz    dz2    dxz  x2-y2    tot
    1  0.000  0.000  0.000  0.000  0.000  0.000  0.000  0.000  0.000  0.000
    2  0.000  0.000  0.000  0.000  0.000  0.000  0.000  0.000  0.000  0.000
tot    0.000  0.000  0.000  0.000  0.000  0.000  0.000  0.000  0.000  0.000
 
band    11 # energy   14.51623932 # occ.  0.00000000
 
ion      s     py     pz     px    dxy    dyz    dz2    dxz  x2-y2    tot
    1  0.083  0.027  0.000  0.000  0.000  0.000  0.000  0.000  0.000  0.111
    2  0.083  0.027  0.000  0.000  0.000  0.000  0.000  0.000  0.000  0.111
tot    0.167  0.054  0.000  0.000  0.000  0.000  0.000  0.000  0.000  0.221
 
band    12 # energy   17.38938449 # occ.  0.00000000
 
ion      s     py     pz     px    dxy    dyz    dz2    dxz  x2-y2    tot
    1  0.000  0.000  0.017  0.021  0.000  0.000  0.000  0.000  0.000  0.038
    2  0.000  0.000  0.014  0.024  0.000  0.000  0.000  0.000  0.000  0.038
tot    0.000  0.000  0.031  0.045  0.000  0.000  0.000  0.000  0.000  0.076
 

 k-point    45 :    0.11428571 0.00000000 0.11428571     weight = 0.00555556

band     1 # energy   -5.90058679 # occ.  2.00000000
 
ion      s     py     pz     px    dxy    dyz    dz2    dxz  x2-y2    tot
    1  0.212  0.003  0.000  0.000  0.000  0.000  0.000  0.000  0.000  0.215
    2  0.212  0.003  0.000  0.000  0.000  0.000  0.000  0.000  0.000  0.215
tot    0.425  0.005  0.000  0.000  0.000  0.000  0.000  0.000  0.000  0.430
 
band     2 # energy    4.67282751 # occ.  2.00000000
 
ion      s     py     pz     px    dxy    dyz    dz2    dxz  x2-y2    tot
    1  0.089  0.154  0.000  0.000  0.000  0.000  0.000  0.000  0.000  0.242
    2  0.089  0.154  0.000  0.000  0.000  0.000  0.000  0.000  0.000  0.242
tot    0.177  0.307  0.000  0.000  0.000  0.000  0.000  0.000  0.000  0.484
 
band     3 # energy    5.12488106 # occ.  2.00000000
 
ion      s     py     pz     px    dxy    dyz    dz2    dxz  x2-y2    tot
    1  0.000  0.000  0.056  0.149  0.000  0.000  0.000  0.000  0.000  0.205
    2  0.000  0.000  0.139  0.066  0.000  0.000  0.000  0.000  0.000  0.205
tot    0.000  0.000  0.195  0.215  0.000  0.000  0.000  0.000  0.000  0.410
 
band     4 # energy    5.12488112 # occ.  2.00000000
 
ion      s     py     pz     px    dxy    dyz    dz2    dxz  x2-y2    tot
    1  0.000  0.000  0.149  0.056  0.000  0.000  0.000  0.000  0.000  0.205
    2  0.000  0.000  0.066  0.139  0.000  0.000  0.000  0.000  0.000  0.205
tot    0.000  0.000  0.215  0.195  0.000  0.000  0.000  0.000  0.000  0.410
 
band     5 # energy    7.92096470 # occ.  0.00000000
 
ion      s     py     pz     px    dxy    dyz    dz2    dxz  x2-y2    tot
    1  0.018  0.122  0.000  0.000  0.000  0.000  0.000  0.000  0.000  0.140
    2  0.018  0.122  0.000  0.000  0.000  0.000  0.000  0.000  0.000  0.140
tot    0.036  0.245  0.000  0.000  0.000  0.000  0.000  0.000  0.000  0.280
 
band     6 # energy    9.38339305 # occ.  0.00000000
 
ion      s     py     pz     px    dxy    dyz    dz2    dxz  x2-y2    tot
    1  0.000  0.000  0.076  0.087  0.000  0.000  0.000  0.000  0.000  0.163
    2  0.000  0.000  0.100  0.062  0.000  0.000  0.000  0.000  0.000  0.163
tot    0.000  0.000  0.176  0.149  0.000  0.000  0.000  0.000  0.000  0.325
 
band     7 # energy    9.38339314 # occ.  0.00000000
 
ion      s     py     pz     px    dxy    dyz    dz2    dxz  x2-y2    tot
    1  0.000  0.000  0.087  0.076  0.000  0.000  0.000  0.000  0.000  0.163
    2  0.000  0.000  0.062  0.100  0.000  0.000  0.000  0.000  0.000  0.163
tot    0.000  0.000  0.149  0.176  0.000  0.000  0.000  0.000  0.000  0.325
 
band     8 # energy   10.16818585 # occ.  0.00000000
 
ion      s     py     pz     px    dxy    dyz    dz2    dxz  x2-y2    tot
    1  0.241  0.070  0.000  0.000  0.000  0.000  0.000  0.000  0.000  0.312
    2  0.241  0.070  0.000  0.000  0.000  0.000  0.000  0.000  0.000  0.312
tot    0.483  0.140  0.000  0.000  0.000  0.000  0.000  0.000  0.000  0.623
 
band     9 # energy   12.42102630 # occ.  0.00000000
 
ion      s     py     pz     px    dxy    dyz    dz2    dxz  x2-y2    tot
    1  0.028  0.001  0.000  0.000  0.000  0.000  0.000  0.000  0.000  0.029
    2  0.028  0.001  0.000  0.000  0.000  0.000  0.000  0.000  0.000  0.029
tot    0.055  0.002  0.000  0.000  0.000  0.000  0.000  0.000  0.000  0.057
 
band    10 # energy   13.80638766 # occ.  0.00000000
 
ion      s     py     pz     px    dxy    dyz    dz2    dxz  x2-y2    tot
    1  0.000  0.000  0.000  0.000  0.000  0.000  0.000  0.000  0.000  0.000
    2  0.000  0.000  0.000  0.000  0.000  0.000  0.000  0.000  0.000  0.000
tot    0.000  0.000  0.000  0.000  0.000  0.000  0.000  0.000  0.000  0.000
 
band    11 # energy   14.71764048 # occ.  0.00000000
 
ion      s     py     pz     px    dxy    dyz    dz2    dxz  x2-y2    tot
    1  0.079  0.034  0.000  0.000  0.000  0.000  0.000  0.000  0.000  0.113
    2  0.079  0.034  0.000  0.000  0.000  0.000  0.000  0.000  0.000  0.113
tot    0.158  0.067  0.000  0.000  0.000  0.000  0.000  0.000  0.000  0.225
 
band    12 # energy   17.48155175 # occ.  0.00000000
 
ion      s     py     pz     px    dxy    dyz    dz2    dxz  x2-y2    tot
    1  0.000  0.000  0.031  0.007  0.000  0.000  0.000  0.000  0.000  0.037
    2  0.000  0.000  0.029  0.008  0.000  0.000  0.000  0.000  0.000  0.037
tot    0.000  0.000  0.060  0.015  0.000  0.000  0.000  0.000  0.000  0.075
 

 k-point    46 :    0.12857143 0.00000000 0.12857143     weight = 0.00555556

band     1 # energy   -5.84011224 # occ.  2.00000000
 
ion      s     py     pz     px    dxy    dyz    dz2    dxz  x2-y2    tot
    1  0.212  0.003  0.000  0.000  0.000  0.000  0.000  0.000  0.000  0.215
    2  0.212  0.003  0.000  0.000  0.000  0.000  0.000  0.000  0.000  0.215
tot    0.424  0.006  0.000  0.000  0.000  0.000  0.000  0.000  0.000  0.430
 
band     2 # energy    4.44158504 # occ.  2.00000000
 
ion      s     py     pz     px    dxy    dyz    dz2    dxz  x2-y2    tot
    1  0.099  0.146  0.000  0.000  0.000  0.000  0.000  0.000  0.000  0.245
    2  0.099  0.146  0.000  0.000  0.000  0.000  0.000  0.000  0.000  0.245
tot    0.198  0.292  0.000  0.000  0.000  0.000  0.000  0.000  0.000  0.490
 
band     3 # energy    4.99219040 # occ.  2.00000000
 
ion      s     py     pz     px    dxy    dyz    dz2    dxz  x2-y2    tot
    1  0.000  0.000  0.131  0.073  0.000  0.000  0.000  0.000  0.000  0.204
    2  0.000  0.000  0.056  0.147  0.000  0.000  0.000  0.000  0.000  0.204
tot    0.000  0.000  0.187  0.220  0.000  0.000  0.000  0.000  0.000  0.407
 
band     4 # energy    4.99219046 # occ.  2.00000000
 
ion      s     py     pz     px    dxy    dyz    dz2    dxz  x2-y2    tot
    1  0.000  0.000  0.073  0.131  0.000  0.000  0.000  0.000  0.000  0.204
    2  0.000  0.000  0.147  0.056  0.000  0.000  0.000  0.000  0.000  0.204
tot    0.000  0.000  0.220  0.187  0.000  0.000  0.000  0.000  0.000  0.407
 
band     5 # energy    7.81930544 # occ.  0.00000000
 
ion      s     py     pz     px    dxy    dyz    dz2    dxz  x2-y2    tot
    1  0.021  0.117  0.000  0.000  0.000  0.000  0.000  0.000  0.000  0.138
    2  0.021  0.117  0.000  0.000  0.000  0.000  0.000  0.000  0.000  0.138
tot    0.042  0.234  0.000  0.000  0.000  0.000  0.000  0.000  0.000  0.276
 
band     6 # energy    9.58972410 # occ.  0.00000000
 
ion      s     py     pz     px    dxy    dyz    dz2    dxz  x2-y2    tot
    1  0.000  0.000  0.067  0.097  0.000  0.000  0.000  0.000  0.000  0.164
    2  0.000  0.000  0.069  0.095  0.000  0.000  0.000  0.000  0.000  0.164
tot    0.000  0.000  0.136  0.192  0.000  0.000  0.000  0.000  0.000  0.328
 
band     7 # energy    9.58972420 # occ.  0.00000000
 
ion      s     py     pz     px    dxy    dyz    dz2    dxz  x2-y2    tot
    1  0.000  0.000  0.097  0.067  0.000  0.000  0.000  0.000  0.000  0.164
    2  0.000  0.000  0.095  0.069  0.000  0.000  0.000  0.000  0.000  0.164
tot    0.000  0.000  0.192  0.136  0.000  0.000  0.000  0.000  0.000  0.328
 
band     8 # energy   10.25472227 # occ.  0.00000000
 
ion      s     py     pz     px    dxy    dyz    dz2    dxz  x2-y2    tot
    1  0.210  0.075  0.000  0.000  0.000  0.000  0.000  0.000  0.000  0.285
    2  0.210  0.075  0.000  0.000  0.000  0.000  0.000  0.000  0.000  0.285
tot    0.420  0.150  0.000  0.000  0.000  0.000  0.000  0.000  0.000  0.570
 
band     9 # energy   12.32276951 # occ.  0.00000000
 
ion      s     py     pz     px    dxy    dyz    dz2    dxz  x2-y2    tot
    1  0.048  0.005  0.000  0.000  0.000  0.000  0.000  0.000  0.000  0.053
    2  0.048  0.005  0.000  0.000  0.000  0.000  0.000  0.000  0.000  0.053
tot    0.097  0.010  0.000  0.000  0.000  0.000  0.000  0.000  0.000  0.107
 
band    10 # energy   13.87364205 # occ.  0.00000000
 
ion      s     py     pz     px    dxy    dyz    dz2    dxz  x2-y2    tot
    1  0.000  0.000  0.000  0.000  0.000  0.000  0.000  0.000  0.000  0.000
    2  0.000  0.000  0.000  0.000  0.000  0.000  0.000  0.000  0.000  0.000
tot    0.000  0.000  0.000  0.000  0.000  0.000  0.000  0.000  0.000  0.000
 
band    11 # energy   14.93706846 # occ.  0.00000000
 
ion      s     py     pz     px    dxy    dyz    dz2    dxz  x2-y2    tot
    1  0.075  0.040  0.000  0.000  0.000  0.000  0.000  0.000  0.000  0.115
    2  0.075  0.040  0.000  0.000  0.000  0.000  0.000  0.000  0.000  0.115
tot    0.149  0.081  0.000  0.000  0.000  0.000  0.000  0.000  0.000  0.230
 
band    12 # energy   17.58580622 # occ.  0.00000000
 
ion      s     py     pz     px    dxy    dyz    dz2    dxz  x2-y2    tot
    1  0.000  0.000  0.015  0.022  0.000  0.000  0.000  0.000  0.000  0.037
    2  0.000  0.000  0.006  0.030  0.000  0.000  0.000  0.000  0.000  0.037
tot    0.000  0.000  0.021  0.052  0.000  0.000  0.000  0.000  0.000  0.073
 

 k-point    47 :    0.14285714 0.00000000 0.14285714     weight = 0.00555556

band     1 # energy   -5.77261977 # occ.  2.00000000
 
ion      s     py     pz     px    dxy    dyz    dz2    dxz  x2-y2    tot
    1  0.212  0.004  0.000  0.000  0.000  0.000  0.000  0.000  0.000  0.216
    2  0.212  0.004  0.000  0.000  0.000  0.000  0.000  0.000  0.000  0.216
tot    0.423  0.008  0.000  0.000  0.000  0.000  0.000  0.000  0.000  0.431
 
band     2 # energy    4.20360213 # occ.  2.00000000
 
ion      s     py     pz     px    dxy    dyz    dz2    dxz  x2-y2    tot
    1  0.108  0.139  0.000  0.000  0.000  0.000  0.000  0.000  0.000  0.247
    2  0.108  0.139  0.000  0.000  0.000  0.000  0.000  0.000  0.000  0.247
tot    0.216  0.278  0.000  0.000  0.000  0.000  0.000  0.000  0.000  0.495
 
band     3 # energy    4.85900335 # occ.  2.00000000
 
ion      s     py     pz     px    dxy    dyz    dz2    dxz  x2-y2    tot
    1  0.000  0.000  0.035  0.167  0.000  0.000  0.000  0.000  0.000  0.203
    2  0.000  0.000  0.199  0.004  0.000  0.000  0.000  0.000  0.000  0.203
tot    0.000  0.000  0.234  0.171  0.000  0.000  0.000  0.000  0.000  0.405
 
band     4 # energy    4.85900337 # occ.  2.00000000
 
ion      s     py     pz     px    dxy    dyz    dz2    dxz  x2-y2    tot
    1  0.000  0.000  0.167  0.035  0.000  0.000  0.000  0.000  0.000  0.203
    2  0.000  0.000  0.004  0.199  0.000  0.000  0.000  0.000  0.000  0.203
tot    0.000  0.000  0.171  0.234  0.000  0.000  0.000  0.000  0.000  0.405
 
band     5 # energy    7.71468157 # occ.  0.00000000
 
ion      s     py     pz     px    dxy    dyz    dz2    dxz  x2-y2    tot
    1  0.024  0.112  0.000  0.000  0.000  0.000  0.000  0.000  0.000  0.136
    2  0.024  0.112  0.000  0.000  0.000  0.000  0.000  0.000  0.000  0.136
tot    0.049  0.223  0.000  0.000  0.000  0.000  0.000  0.000  0.000  0.272
 
band     6 # energy    9.80475505 # occ.  0.00000000
 
ion      s     py     pz     px    dxy    dyz    dz2    dxz  x2-y2    tot
    1  0.000  0.000  0.081  0.084  0.000  0.000  0.000  0.000  0.000  0.165
    2  0.000  0.000  0.071  0.093  0.000  0.000  0.000  0.000  0.000  0.165
tot    0.000  0.000  0.152  0.177  0.000  0.000  0.000  0.000  0.000  0.330
 
band     7 # energy    9.80475549 # occ.  0.00000000
 
ion      s     py     pz     px    dxy    dyz    dz2    dxz  x2-y2    tot
    1  0.000  0.000  0.084  0.081  0.000  0.000  0.000  0.000  0.000  0.165
    2  0.000  0.000  0.093  0.071  0.000  0.000  0.000  0.000  0.000  0.165
tot    0.000  0.000  0.177  0.152  0.000  0.000  0.000  0.000  0.000  0.330
 
band     8 # energy   10.27266091 # occ.  0.00000000
 
ion      s     py     pz     px    dxy    dyz    dz2    dxz  x2-y2    tot
    1  0.173  0.074  0.000  0.000  0.000  0.000  0.000  0.000  0.000  0.248
    2  0.173  0.074  0.000  0.000  0.000  0.000  0.000  0.000  0.000  0.248
tot    0.347  0.149  0.000  0.000  0.000  0.000  0.000  0.000  0.000  0.495
 
band     9 # energy   12.30088572 # occ.  0.00000000
 
ion      s     py     pz     px    dxy    dyz    dz2    dxz  x2-y2    tot
    1  0.076  0.014  0.000  0.000  0.000  0.000  0.000  0.000  0.000  0.090
    2  0.076  0.014  0.000  0.000  0.000  0.000  0.000  0.000  0.000  0.090
tot    0.152  0.027  0.000  0.000  0.000  0.000  0.000  0.000  0.000  0.179
 
band    10 # energy   13.94871730 # occ.  0.00000000
 
ion      s     py     pz     px    dxy    dyz    dz2    dxz  x2-y2    tot
    1  0.000  0.000  0.000  0.000  0.000  0.000  0.000  0.000  0.000  0.000
    2  0.000  0.000  0.000  0.000  0.000  0.000  0.000  0.000  0.000  0.000
tot    0.000  0.000  0.000  0.000  0.000  0.000  0.000  0.000  0.000  0.000
 
band    11 # energy   15.17251893 # occ.  0.00000000
 
ion      s     py     pz     px    dxy    dyz    dz2    dxz  x2-y2    tot
    1  0.070  0.047  0.000  0.000  0.000  0.000  0.000  0.000  0.000  0.117
    2  0.070  0.047  0.000  0.000  0.000  0.000  0.000  0.000  0.000  0.117
tot    0.140  0.094  0.000  0.000  0.000  0.000  0.000  0.000  0.000  0.234
 
band    12 # energy   17.70182324 # occ.  0.00000000
 
ion      s     py     pz     px    dxy    dyz    dz2    dxz  x2-y2    tot
    1  0.000  0.000  0.029  0.006  0.000  0.000  0.000  0.000  0.000  0.036
    2  0.000  0.000  0.024  0.012  0.000  0.000  0.000  0.000  0.000  0.036
tot    0.000  0.000  0.053  0.019  0.000  0.000  0.000  0.000  0.000  0.072
 

 k-point    48 :    0.15714286 0.00000000 0.15714286     weight = 0.00555556

band     1 # energy   -5.69813176 # occ.  2.00000000
 
ion      s     py     pz     px    dxy    dyz    dz2    dxz  x2-y2    tot
    1  0.211  0.005  0.000  0.000  0.000  0.000  0.000  0.000  0.000  0.216
    2  0.211  0.005  0.000  0.000  0.000  0.000  0.000  0.000  0.000  0.216
tot    0.422  0.009  0.000  0.000  0.000  0.000  0.000  0.000  0.000  0.432
 
band     2 # energy    3.96049331 # occ.  2.00000000
 
ion      s     py     pz     px    dxy    dyz    dz2    dxz  x2-y2    tot
    1  0.117  0.133  0.000  0.000  0.000  0.000  0.000  0.000  0.000  0.249
    2  0.117  0.133  0.000  0.000  0.000  0.000  0.000  0.000  0.000  0.249
tot    0.233  0.265  0.000  0.000  0.000  0.000  0.000  0.000  0.000  0.499
 
band     3 # energy    4.72670373 # occ.  2.00000000
 
ion      s     py     pz     px    dxy    dyz    dz2    dxz  x2-y2    tot
    1  0.000  0.000  0.100  0.102  0.000  0.000  0.000  0.000  0.000  0.202
    2  0.000  0.000  0.120  0.082  0.000  0.000  0.000  0.000  0.000  0.202
tot    0.000  0.000  0.220  0.184  0.000  0.000  0.000  0.000  0.000  0.404
 
band     4 # energy    4.72670380 # occ.  2.00000000
 
ion      s     py     pz     px    dxy    dyz    dz2    dxz  x2-y2    tot
    1  0.000  0.000  0.102  0.100  0.000  0.000  0.000  0.000  0.000  0.202
    2  0.000  0.000  0.082  0.120  0.000  0.000  0.000  0.000  0.000  0.202
tot    0.000  0.000  0.184  0.220  0.000  0.000  0.000  0.000  0.000  0.404
 
band     5 # energy    7.60866004 # occ.  0.00000000
 
ion      s     py     pz     px    dxy    dyz    dz2    dxz  x2-y2    tot
    1  0.027  0.106  0.000  0.000  0.000  0.000  0.000  0.000  0.000  0.134
    2  0.027  0.106  0.000  0.000  0.000  0.000  0.000  0.000  0.000  0.134
tot    0.055  0.213  0.000  0.000  0.000  0.000  0.000  0.000  0.000  0.267
 
band     6 # energy   10.02712472 # occ.  0.00000000
 
ion      s     py     pz     px    dxy    dyz    dz2    dxz  x2-y2    tot
    1  0.000  0.000  0.041  0.125  0.000  0.000  0.000  0.000  0.000  0.165
    2  0.000  0.000  0.098  0.068  0.000  0.000  0.000  0.000  0.000  0.165
tot    0.000  0.000  0.139  0.192  0.000  0.000  0.000  0.000  0.000  0.331
 
band     7 # energy   10.02712508 # occ.  0.00000000
 
ion      s     py     pz     px    dxy    dyz    dz2    dxz  x2-y2    tot
    1  0.000  0.000  0.125  0.041  0.000  0.000  0.000  0.000  0.000  0.165
    2  0.000  0.000  0.068  0.098  0.000  0.000  0.000  0.000  0.000  0.165
tot    0.000  0.000  0.192  0.139  0.000  0.000  0.000  0.000  0.000  0.331
 
band     8 # energy   10.21427257 # occ.  0.00000000
 
ion      s     py     pz     px    dxy    dyz    dz2    dxz  x2-y2    tot
    1  0.137  0.069  0.000  0.000  0.000  0.000  0.000  0.000  0.000  0.206
    2  0.137  0.069  0.000  0.000  0.000  0.000  0.000  0.000  0.000  0.206
tot    0.274  0.138  0.000  0.000  0.000  0.000  0.000  0.000  0.000  0.412
 
band     9 # energy   12.36478174 # occ.  0.00000000
 
ion      s     py     pz     px    dxy    dyz    dz2    dxz  x2-y2    tot
    1  0.104  0.026  0.000  0.000  0.000  0.000  0.000  0.000  0.000  0.130
    2  0.104  0.026  0.000  0.000  0.000  0.000  0.000  0.000  0.000  0.130
tot    0.208  0.052  0.000  0.000  0.000  0.000  0.000  0.000  0.000  0.260
 
band    10 # energy   14.03167675 # occ.  0.00000000
 
ion      s     py     pz     px    dxy    dyz    dz2    dxz  x2-y2    tot
    1  0.000  0.000  0.000  0.000  0.000  0.000  0.000  0.000  0.000  0.000
    2  0.000  0.000  0.000  0.000  0.000  0.000  0.000  0.000  0.000  0.000
tot    0.000  0.000  0.000  0.000  0.000  0.000  0.000  0.000  0.000  0.000
 
band    11 # energy   15.42214077 # occ.  0.00000000
 
ion      s     py     pz     px    dxy    dyz    dz2    dxz  x2-y2    tot
    1  0.065  0.054  0.000  0.000  0.000  0.000  0.000  0.000  0.000  0.120
    2  0.065  0.054  0.000  0.000  0.000  0.000  0.000  0.000  0.000  0.120
tot    0.131  0.108  0.000  0.000  0.000  0.000  0.000  0.000  0.000  0.239
 
band    12 # energy   17.82926496 # occ.  0.00000000
 
ion      s     py     pz     px    dxy    dyz    dz2    dxz  x2-y2    tot
    1  0.000  0.000  0.023  0.012  0.000  0.000  0.000  0.000  0.000  0.035
    2  0.000  0.000  0.026  0.009  0.000  0.000  0.000  0.000  0.000  0.035
tot    0.000  0.000  0.048  0.021  0.000  0.000  0.000  0.000  0.000  0.070
 

 k-point    49 :    0.17142857 0.00000000 0.17142857     weight = 0.00555556

band     1 # energy   -5.61668456 # occ.  2.00000000
 
ion      s     py     pz     px    dxy    dyz    dz2    dxz  x2-y2    tot
    1  0.211  0.006  0.000  0.000  0.000  0.000  0.000  0.000  0.000  0.216
    2  0.211  0.006  0.000  0.000  0.000  0.000  0.000  0.000  0.000  0.216
tot    0.422  0.011  0.000  0.000  0.000  0.000  0.000  0.000  0.000  0.433
 
band     2 # energy    3.71347324 # occ.  2.00000000
 
ion      s     py     pz     px    dxy    dyz    dz2    dxz  x2-y2    tot
    1  0.124  0.127  0.000  0.000  0.000  0.000  0.000  0.000  0.000  0.251
    2  0.124  0.127  0.000  0.000  0.000  0.000  0.000  0.000  0.000  0.251
tot    0.249  0.253  0.000  0.000  0.000  0.000  0.000  0.000  0.000  0.502
 
band     3 # energy    4.59631893 # occ.  2.00000000
 
ion      s     py     pz     px    dxy    dyz    dz2    dxz  x2-y2    tot
    1  0.000  0.000  0.076  0.125  0.000  0.000  0.000  0.000  0.000  0.201
    2  0.000  0.000  0.111  0.090  0.000  0.000  0.000  0.000  0.000  0.201
tot    0.000  0.000  0.187  0.215  0.000  0.000  0.000  0.000  0.000  0.402
 
band     4 # energy    4.59631900 # occ.  2.00000000
 
ion      s     py     pz     px    dxy    dyz    dz2    dxz  x2-y2    tot
    1  0.000  0.000  0.125  0.076  0.000  0.000  0.000  0.000  0.000  0.201
    2  0.000  0.000  0.090  0.111  0.000  0.000  0.000  0.000  0.000  0.201
tot    0.000  0.000  0.215  0.187  0.000  0.000  0.000  0.000  0.000  0.402
 
band     5 # energy    7.50258174 # occ.  0.00000000
 
ion      s     py     pz     px    dxy    dyz    dz2    dxz  x2-y2    tot
    1  0.030  0.101  0.000  0.000  0.000  0.000  0.000  0.000  0.000  0.131
    2  0.030  0.101  0.000  0.000  0.000  0.000  0.000  0.000  0.000  0.131
tot    0.060  0.203  0.000  0.000  0.000  0.000  0.000  0.000  0.000  0.263
 
band     6 # energy   10.09027738 # occ.  0.00000000
 
ion      s     py     pz     px    dxy    dyz    dz2    dxz  x2-y2    tot
    1  0.107  0.062  0.000  0.000  0.000  0.000  0.000  0.000  0.000  0.169
    2  0.107  0.062  0.000  0.000  0.000  0.000  0.000  0.000  0.000  0.169
tot    0.215  0.124  0.000  0.000  0.000  0.000  0.000  0.000  0.000  0.339
 
band     7 # energy   10.25586875 # occ.  0.00000000
 
ion      s     py     pz     px    dxy    dyz    dz2    dxz  x2-y2    tot
    1  0.000  0.000  0.052  0.114  0.000  0.000  0.000  0.000  0.000  0.166
    2  0.000  0.000  0.123  0.043  0.000  0.000  0.000  0.000  0.000  0.166
tot    0.000  0.000  0.175  0.157  0.000  0.000  0.000  0.000  0.000  0.332
 
band     8 # energy   10.25586970 # occ.  0.00000000
 
ion      s     py     pz     px    dxy    dyz    dz2    dxz  x2-y2    tot
    1  0.000  0.000  0.114  0.052  0.000  0.000  0.000  0.000  0.000  0.166
    2  0.000  0.000  0.043  0.123  0.000  0.000  0.000  0.000  0.000  0.166
tot    0.000  0.000  0.157  0.175  0.000  0.000  0.000  0.000  0.000  0.332
 
band     9 # energy   12.50420812 # occ.  0.00000000
 
ion      s     py     pz     px    dxy    dyz    dz2    dxz  x2-y2    tot
    1  0.126  0.040  0.000  0.000  0.000  0.000  0.000  0.000  0.000  0.167
    2  0.126  0.040  0.000  0.000  0.000  0.000  0.000  0.000  0.000  0.167
tot    0.253  0.080  0.000  0.000  0.000  0.000  0.000  0.000  0.000  0.333
 
band    10 # energy   14.12282834 # occ.  0.00000000
 
ion      s     py     pz     px    dxy    dyz    dz2    dxz  x2-y2    tot
    1  0.000  0.000  0.000  0.000  0.000  0.000  0.000  0.000  0.000  0.000
    2  0.000  0.000  0.000  0.000  0.000  0.000  0.000  0.000  0.000  0.000
tot    0.000  0.000  0.000  0.000  0.000  0.000  0.000  0.000  0.000  0.000
 
band    11 # energy   15.68424454 # occ.  0.00000000
 
ion      s     py     pz     px    dxy    dyz    dz2    dxz  x2-y2    tot
    1  0.061  0.061  0.000  0.000  0.000  0.000  0.000  0.000  0.000  0.122
    2  0.061  0.061  0.000  0.000  0.000  0.000  0.000  0.000  0.000  0.122
tot    0.121  0.123  0.000  0.000  0.000  0.000  0.000  0.000  0.000  0.244
 
band    12 # energy   17.96534661 # occ.  0.00000000
 
ion      s     py     pz     px    dxy    dyz    dz2    dxz  x2-y2    tot
    1  0.000  0.000  0.033  0.001  0.000  0.000  0.000  0.000  0.000  0.034
    2  0.000  0.000  0.033  0.001  0.000  0.000  0.000  0.000  0.000  0.034
tot    0.000  0.000  0.066  0.002  0.000  0.000  0.000  0.000  0.000  0.068
 

 k-point    50 :    0.18571429 0.00000000 0.18571429     weight = 0.00555556

band     1 # energy   -5.52834390 # occ.  2.00000000
 
ion      s     py     pz     px    dxy    dyz    dz2    dxz  x2-y2    tot
    1  0.210  0.007  0.000  0.000  0.000  0.000  0.000  0.000  0.000  0.217
    2  0.210  0.007  0.000  0.000  0.000  0.000  0.000  0.000  0.000  0.217
tot    0.421  0.013  0.000  0.000  0.000  0.000  0.000  0.000  0.000  0.434
 
band     2 # energy    3.46346336 # occ.  2.00000000
 
ion      s     py     pz     px    dxy    dyz    dz2    dxz  x2-y2    tot
    1  0.131  0.121  0.000  0.000  0.000  0.000  0.000  0.000  0.000  0.252
    2  0.131  0.121  0.000  0.000  0.000  0.000  0.000  0.000  0.000  0.252
tot    0.262  0.242  0.000  0.000  0.000  0.000  0.000  0.000  0.000  0.505
 
band     3 # energy    4.46868598 # occ.  2.00000000
 
ion      s     py     pz     px    dxy    dyz    dz2    dxz  x2-y2    tot
    1  0.000  0.000  0.135  0.065  0.000  0.000  0.000  0.000  0.000  0.200
    2  0.000  0.000  0.048  0.153  0.000  0.000  0.000  0.000  0.000  0.200
tot    0.000  0.000  0.183  0.218  0.000  0.000  0.000  0.000  0.000  0.401
 
band     4 # energy    4.46868604 # occ.  2.00000000
 
ion      s     py     pz     px    dxy    dyz    dz2    dxz  x2-y2    tot
    1  0.000  0.000  0.065  0.135  0.000  0.000  0.000  0.000  0.000  0.200
    2  0.000  0.000  0.153  0.048  0.000  0.000  0.000  0.000  0.000  0.200
tot    0.000  0.000  0.218  0.183  0.000  0.000  0.000  0.000  0.000  0.401
 
band     5 # energy    7.39757767 # occ.  0.00000000
 
ion      s     py     pz     px    dxy    dyz    dz2    dxz  x2-y2    tot
    1  0.033  0.096  0.000  0.000  0.000  0.000  0.000  0.000  0.000  0.129
    2  0.033  0.096  0.000  0.000  0.000  0.000  0.000  0.000  0.000  0.129
tot    0.066  0.193  0.000  0.000  0.000  0.000  0.000  0.000  0.000  0.259
 
band     6 # energy    9.92036206 # occ.  0.00000000
 
ion      s     py     pz     px    dxy    dyz    dz2    dxz  x2-y2    tot
    1  0.086  0.055  0.000  0.000  0.000  0.000  0.000  0.000  0.000  0.141
    2  0.086  0.055  0.000  0.000  0.000  0.000  0.000  0.000  0.000  0.141
tot    0.172  0.111  0.000  0.000  0.000  0.000  0.000  0.000  0.000  0.282
 
band     7 # energy   10.48962267 # occ.  0.00000000
 
ion      s     py     pz     px    dxy    dyz    dz2    dxz  x2-y2    tot
    1  0.000  0.000  0.144  0.022  0.000  0.000  0.000  0.000  0.000  0.167
    2  0.000  0.000  0.033  0.133  0.000  0.000  0.000  0.000  0.000  0.167
tot    0.000  0.000  0.177  0.156  0.000  0.000  0.000  0.000  0.000  0.333
 
band     8 # energy   10.48962308 # occ.  0.00000000
 
ion      s     py     pz     px    dxy    dyz    dz2    dxz  x2-y2    tot
    1  0.000  0.000  0.022  0.144  0.000  0.000  0.000  0.000  0.000  0.167
    2  0.000  0.000  0.133  0.033  0.000  0.000  0.000  0.000  0.000  0.167
tot    0.000  0.000  0.156  0.177  0.000  0.000  0.000  0.000  0.000  0.333
 
band     9 # energy   12.69945725 # occ.  0.00000000
 
ion      s     py     pz     px    dxy    dyz    dz2    dxz  x2-y2    tot
    1  0.141  0.054  0.000  0.000  0.000  0.000  0.000  0.000  0.000  0.195
    2  0.141  0.054  0.000  0.000  0.000  0.000  0.000  0.000  0.000  0.195
tot    0.282  0.107  0.000  0.000  0.000  0.000  0.000  0.000  0.000  0.389
 
band    10 # energy   14.22151490 # occ.  0.00000000
 
ion      s     py     pz     px    dxy    dyz    dz2    dxz  x2-y2    tot
    1  0.000  0.000  0.000  0.000  0.000  0.000  0.000  0.000  0.000  0.000
    2  0.000  0.000  0.000  0.000  0.000  0.000  0.000  0.000  0.000  0.000
tot    0.000  0.000  0.000  0.000  0.000  0.000  0.000  0.000  0.000  0.000
 
band    11 # energy   15.95706117 # occ.  0.00000000
 
ion      s     py     pz     px    dxy    dyz    dz2    dxz  x2-y2    tot
    1  0.056  0.068  0.000  0.000  0.000  0.000  0.000  0.000  0.000  0.125
    2  0.056  0.068  0.000  0.000  0.000  0.000  0.000  0.000  0.000  0.125
tot    0.112  0.137  0.000  0.000  0.000  0.000  0.000  0.000  0.000  0.249
 
band    12 # energy   18.11248710 # occ.  0.00000000
 
ion      s     py     pz     px    dxy    dyz    dz2    dxz  x2-y2    tot
    1  0.000  0.000  0.010  0.023  0.000  0.000  0.000  0.000  0.000  0.033
    2  0.000  0.000  0.003  0.031  0.000  0.000  0.000  0.000  0.000  0.033
tot    0.000  0.000  0.013  0.054  0.000  0.000  0.000  0.000  0.000  0.066
 

 k-point    51 :    0.20000000 0.00000000 0.20000000     weight = 0.00555556

band     1 # energy   -5.43312995 # occ.  2.00000000
 
ion      s     py     pz     px    dxy    dyz    dz2    dxz  x2-y2    tot
    1  0.210  0.008  0.000  0.000  0.000  0.000  0.000  0.000  0.000  0.217
    2  0.210  0.008  0.000  0.000  0.000  0.000  0.000  0.000  0.000  0.217
tot    0.420  0.015  0.000  0.000  0.000  0.000  0.000  0.000  0.000  0.435
 
band     2 # energy    3.21118253 # occ.  2.00000000
 
ion      s     py     pz     px    dxy    dyz    dz2    dxz  x2-y2    tot
    1  0.137  0.116  0.000  0.000  0.000  0.000  0.000  0.000  0.000  0.253
    2  0.137  0.116  0.000  0.000  0.000  0.000  0.000  0.000  0.000  0.253
tot    0.275  0.232  0.000  0.000  0.000  0.000  0.000  0.000  0.000  0.507
 
band     3 # energy    4.34444925 # occ.  2.00000000
 
ion      s     py     pz     px    dxy    dyz    dz2    dxz  x2-y2    tot
    1  0.000  0.000  0.048  0.152  0.000  0.000  0.000  0.000  0.000  0.200
    2  0.000  0.000  0.153  0.047  0.000  0.000  0.000  0.000  0.000  0.200
tot    0.000  0.000  0.201  0.199  0.000  0.000  0.000  0.000  0.000  0.400
 
band     4 # energy    4.34444931 # occ.  2.00000000
 
ion      s     py     pz     px    dxy    dyz    dz2    dxz  x2-y2    tot
    1  0.000  0.000  0.152  0.048  0.000  0.000  0.000  0.000  0.000  0.200
    2  0.000  0.000  0.047  0.153  0.000  0.000  0.000  0.000  0.000  0.200
tot    0.000  0.000  0.199  0.201  0.000  0.000  0.000  0.000  0.000  0.400
 
band     5 # energy    7.29470916 # occ.  0.00000000
 
ion      s     py     pz     px    dxy    dyz    dz2    dxz  x2-y2    tot
    1  0.035  0.092  0.000  0.000  0.000  0.000  0.000  0.000  0.000  0.127
    2  0.035  0.092  0.000  0.000  0.000  0.000  0.000  0.000  0.000  0.127
tot    0.071  0.183  0.000  0.000  0.000  0.000  0.000  0.000  0.000  0.254
 
band     6 # energy    9.72313813 # occ.  0.00000000
 
ion      s     py     pz     px    dxy    dyz    dz2    dxz  x2-y2    tot
    1  0.071  0.050  0.000  0.000  0.000  0.000  0.000  0.000  0.000  0.121
    2  0.071  0.050  0.000  0.000  0.000  0.000  0.000  0.000  0.000  0.121
tot    0.143  0.099  0.000  0.000  0.000  0.000  0.000  0.000  0.000  0.242
 
band     7 # energy   10.72808009 # occ.  0.00000000
 
ion      s     py     pz     px    dxy    dyz    dz2    dxz  x2-y2    tot
    1  0.000  0.000  0.009  0.157  0.000  0.000  0.000  0.000  0.000  0.167
    2  0.000  0.000  0.156  0.011  0.000  0.000  0.000  0.000  0.000  0.167
tot    0.000  0.000  0.165  0.168  0.000  0.000  0.000  0.000  0.000  0.334
 
band     8 # energy   10.72808156 # occ.  0.00000000
 
ion      s     py     pz     px    dxy    dyz    dz2    dxz  x2-y2    tot
    1  0.000  0.000  0.157  0.009  0.000  0.000  0.000  0.000  0.000  0.167
    2  0.000  0.000  0.011  0.156  0.000  0.000  0.000  0.000  0.000  0.167
tot    0.000  0.000  0.168  0.165  0.000  0.000  0.000  0.000  0.000  0.334
 
band     9 # energy   12.93314718 # occ.  0.00000000
 
ion      s     py     pz     px    dxy    dyz    dz2    dxz  x2-y2    tot
    1  0.150  0.065  0.000  0.000  0.000  0.000  0.000  0.000  0.000  0.215
    2  0.150  0.065  0.000  0.000  0.000  0.000  0.000  0.000  0.000  0.215
tot    0.299  0.131  0.000  0.000  0.000  0.000  0.000  0.000  0.000  0.430
 
band    10 # energy   14.32807966 # occ.  0.00000000
 
ion      s     py     pz     px    dxy    dyz    dz2    dxz  x2-y2    tot
    1  0.000  0.000  0.000  0.000  0.000  0.000  0.000  0.000  0.000  0.000
    2  0.000  0.000  0.000  0.000  0.000  0.000  0.000  0.000  0.000  0.000
tot    0.000  0.000  0.000  0.000  0.000  0.000  0.000  0.000  0.000  0.000
 
band    11 # energy   16.23903512 # occ.  0.00000000
 
ion      s     py     pz     px    dxy    dyz    dz2    dxz  x2-y2    tot
    1  0.051  0.076  0.000  0.000  0.000  0.000  0.000  0.000  0.000  0.127
    2  0.051  0.076  0.000  0.000  0.000  0.000  0.000  0.000  0.000  0.127
tot    0.103  0.152  0.000  0.000  0.000  0.000  0.000  0.000  0.000  0.254
 
band    12 # energy   18.26800374 # occ.  0.00000000
 
ion      s     py     pz     px    dxy    dyz    dz2    dxz  x2-y2    tot
    1  0.000  0.000  0.015  0.017  0.000  0.000  0.000  0.000  0.000  0.032
    2  0.000  0.000  0.011  0.021  0.000  0.000  0.000  0.000  0.000  0.032
tot    0.000  0.000  0.026  0.038  0.000  0.000  0.000  0.000  0.000  0.065
 

 k-point    52 :    0.21428571 0.00000000 0.21428571     weight = 0.00555556

band     1 # energy   -5.33109383 # occ.  2.00000000
 
ion      s     py     pz     px    dxy    dyz    dz2    dxz  x2-y2    tot
    1  0.209  0.009  0.000  0.000  0.000  0.000  0.000  0.000  0.000  0.218
    2  0.209  0.009  0.000  0.000  0.000  0.000  0.000  0.000  0.000  0.218
tot    0.419  0.018  0.000  0.000  0.000  0.000  0.000  0.000  0.000  0.436
 
band     2 # energy    2.95719151 # occ.  2.00000000
 
ion      s     py     pz     px    dxy    dyz    dz2    dxz  x2-y2    tot
    1  0.143  0.111  0.000  0.000  0.000  0.000  0.000  0.000  0.000  0.254
    2  0.143  0.111  0.000  0.000  0.000  0.000  0.000  0.000  0.000  0.254
tot    0.286  0.222  0.000  0.000  0.000  0.000  0.000  0.000  0.000  0.508
 
band     3 # energy    4.22411403 # occ.  2.00000000
 
ion      s     py     pz     px    dxy    dyz    dz2    dxz  x2-y2    tot
    1  0.000  0.000  0.056  0.144  0.000  0.000  0.000  0.000  0.000  0.199
    2  0.000  0.000  0.153  0.047  0.000  0.000  0.000  0.000  0.000  0.199
tot    0.000  0.000  0.208  0.191  0.000  0.000  0.000  0.000  0.000  0.399
 
band     4 # energy    4.22411408 # occ.  2.00000000
 
ion      s     py     pz     px    dxy    dyz    dz2    dxz  x2-y2    tot
    1  0.000  0.000  0.144  0.056  0.000  0.000  0.000  0.000  0.000  0.199
    2  0.000  0.000  0.047  0.153  0.000  0.000  0.000  0.000  0.000  0.199
tot    0.000  0.000  0.191  0.208  0.000  0.000  0.000  0.000  0.000  0.399
 
band     5 # energy    7.19481176 # occ.  0.00000000
 
ion      s     py     pz     px    dxy    dyz    dz2    dxz  x2-y2    tot
    1  0.038  0.087  0.000  0.000  0.000  0.000  0.000  0.000  0.000  0.125
    2  0.038  0.087  0.000  0.000  0.000  0.000  0.000  0.000  0.000  0.125
tot    0.076  0.175  0.000  0.000  0.000  0.000  0.000  0.000  0.000  0.250
 
band     6 # energy    9.51125473 # occ.  0.00000000
 
ion      s     py     pz     px    dxy    dyz    dz2    dxz  x2-y2    tot
    1  0.062  0.045  0.000  0.000  0.000  0.000  0.000  0.000  0.000  0.107
    2  0.062  0.045  0.000  0.000  0.000  0.000  0.000  0.000  0.000  0.107
tot    0.123  0.090  0.000  0.000  0.000  0.000  0.000  0.000  0.000  0.214
 
band     7 # energy   10.97049693 # occ.  0.00000000
 
ion      s     py     pz     px    dxy    dyz    dz2    dxz  x2-y2    tot
    1  0.000  0.000  0.060  0.107  0.000  0.000  0.000  0.000  0.000  0.167
    2  0.000  0.000  0.107  0.060  0.000  0.000  0.000  0.000  0.000  0.167
tot    0.000  0.000  0.167  0.167  0.000  0.000  0.000  0.000  0.000  0.334
 
band     8 # energy   10.97049773 # occ.  0.00000000
 
ion      s     py     pz     px    dxy    dyz    dz2    dxz  x2-y2    tot
    1  0.000  0.000  0.107  0.060  0.000  0.000  0.000  0.000  0.000  0.167
    2  0.000  0.000  0.060  0.107  0.000  0.000  0.000  0.000  0.000  0.167
tot    0.000  0.000  0.167  0.167  0.000  0.000  0.000  0.000  0.000  0.334
 
band     9 # energy   13.19243200 # occ.  0.00000000
 
ion      s     py     pz     px    dxy    dyz    dz2    dxz  x2-y2    tot
    1  0.154  0.076  0.000  0.000  0.000  0.000  0.000  0.000  0.000  0.230
    2  0.154  0.076  0.000  0.000  0.000  0.000  0.000  0.000  0.000  0.230
tot    0.307  0.152  0.000  0.000  0.000  0.000  0.000  0.000  0.000  0.459
 
band    10 # energy   14.44250003 # occ.  0.00000000
 
ion      s     py     pz     px    dxy    dyz    dz2    dxz  x2-y2    tot
    1  0.000  0.000  0.000  0.000  0.000  0.000  0.000  0.000  0.000  0.000
    2  0.000  0.000  0.000  0.000  0.000  0.000  0.000  0.000  0.000  0.000
tot    0.000  0.000  0.000  0.000  0.000  0.000  0.000  0.000  0.000  0.000
 
band    11 # energy   16.52851387 # occ.  0.00000000
 
ion      s     py     pz     px    dxy    dyz    dz2    dxz  x2-y2    tot
    1  0.047  0.083  0.000  0.000  0.000  0.000  0.000  0.000  0.000  0.130
    2  0.047  0.083  0.000  0.000  0.000  0.000  0.000  0.000  0.000  0.130
tot    0.093  0.167  0.000  0.000  0.000  0.000  0.000  0.000  0.000  0.260
 
band    12 # energy   18.43039559 # occ.  0.00000000
 
ion      s     py     pz     px    dxy    dyz    dz2    dxz  x2-y2    tot
    1  0.000  0.000  0.014  0.017  0.000  0.000  0.000  0.000  0.000  0.031
    2  0.000  0.000  0.014  0.017  0.000  0.000  0.000  0.000  0.000  0.031
tot    0.000  0.000  0.028  0.034  0.000  0.000  0.000  0.000  0.000  0.063
 

 k-point    53 :    0.22857143 0.00000000 0.22857143     weight = 0.00555556

band     1 # energy   -5.22228603 # occ.  2.00000000
 
ion      s     py     pz     px    dxy    dyz    dz2    dxz  x2-y2    tot
    1  0.209  0.010  0.000  0.000  0.000  0.000  0.000  0.000  0.000  0.219
    2  0.209  0.010  0.000  0.000  0.000  0.000  0.000  0.000  0.000  0.219
tot    0.418  0.020  0.000  0.000  0.000  0.000  0.000  0.000  0.000  0.437
 
band     2 # energy    2.70195232 # occ.  2.00000000
 
ion      s     py     pz     px    dxy    dyz    dz2    dxz  x2-y2    tot
    1  0.148  0.107  0.000  0.000  0.000  0.000  0.000  0.000  0.000  0.255
    2  0.148  0.107  0.000  0.000  0.000  0.000  0.000  0.000  0.000  0.255
tot    0.296  0.213  0.000  0.000  0.000  0.000  0.000  0.000  0.000  0.510
 
band     3 # energy    4.10811462 # occ.  2.00000000
 
ion      s     py     pz     px    dxy    dyz    dz2    dxz  x2-y2    tot
    1  0.000  0.000  0.189  0.010  0.000  0.000  0.000  0.000  0.000  0.199
    2  0.000  0.000  0.043  0.156  0.000  0.000  0.000  0.000  0.000  0.199
tot    0.000  0.000  0.232  0.166  0.000  0.000  0.000  0.000  0.000  0.398
 
band     4 # energy    4.10811465 # occ.  2.00000000
 
ion      s     py     pz     px    dxy    dyz    dz2    dxz  x2-y2    tot
    1  0.000  0.000  0.010  0.189  0.000  0.000  0.000  0.000  0.000  0.199
    2  0.000  0.000  0.156  0.043  0.000  0.000  0.000  0.000  0.000  0.199
tot    0.000  0.000  0.166  0.232  0.000  0.000  0.000  0.000  0.000  0.398
 
band     5 # energy    7.09865373 # occ.  0.00000000
 
ion      s     py     pz     px    dxy    dyz    dz2    dxz  x2-y2    tot
    1  0.040  0.083  0.000  0.000  0.000  0.000  0.000  0.000  0.000  0.123
    2  0.040  0.083  0.000  0.000  0.000  0.000  0.000  0.000  0.000  0.123
tot    0.080  0.166  0.000  0.000  0.000  0.000  0.000  0.000  0.000  0.246
 
band     6 # energy    9.29311099 # occ.  0.00000000
 
ion      s     py     pz     px    dxy    dyz    dz2    dxz  x2-y2    tot
    1  0.055  0.042  0.000  0.000  0.000  0.000  0.000  0.000  0.000  0.097
    2  0.055  0.042  0.000  0.000  0.000  0.000  0.000  0.000  0.000  0.097
tot    0.110  0.083  0.000  0.000  0.000  0.000  0.000  0.000  0.000  0.193
 
band     7 # energy   11.21641331 # occ.  0.00000000
 
ion      s     py     pz     px    dxy    dyz    dz2    dxz  x2-y2    tot
    1  0.000  0.000  0.113  0.054  0.000  0.000  0.000  0.000  0.000  0.167
    2  0.000  0.000  0.059  0.108  0.000  0.000  0.000  0.000  0.000  0.167
tot    0.000  0.000  0.172  0.162  0.000  0.000  0.000  0.000  0.000  0.334
 
band     8 # energy   11.21641448 # occ.  0.00000000
 
ion      s     py     pz     px    dxy    dyz    dz2    dxz  x2-y2    tot
    1  0.000  0.000  0.054  0.113  0.000  0.000  0.000  0.000  0.000  0.167
    2  0.000  0.000  0.108  0.059  0.000  0.000  0.000  0.000  0.000  0.167
tot    0.000  0.000  0.162  0.172  0.000  0.000  0.000  0.000  0.000  0.334
 
band     9 # energy   13.46900631 # occ.  0.00000000
 
ion      s     py     pz     px    dxy    dyz    dz2    dxz  x2-y2    tot
    1  0.155  0.085  0.000  0.000  0.000  0.000  0.000  0.000  0.000  0.240
    2  0.155  0.085  0.000  0.000  0.000  0.000  0.000  0.000  0.000  0.240
tot    0.310  0.171  0.000  0.000  0.000  0.000  0.000  0.000  0.000  0.481
 
band    10 # energy   14.56476740 # occ.  0.00000000
 
ion      s     py     pz     px    dxy    dyz    dz2    dxz  x2-y2    tot
    1  0.000  0.000  0.000  0.000  0.000  0.000  0.000  0.000  0.000  0.000
    2  0.000  0.000  0.000  0.000  0.000  0.000  0.000  0.000  0.000  0.000
tot    0.000  0.000  0.000  0.000  0.000  0.000  0.000  0.000  0.000  0.000
 
band    11 # energy   16.82382146 # occ.  0.00000000
 
ion      s     py     pz     px    dxy    dyz    dz2    dxz  x2-y2    tot
    1  0.042  0.091  0.000  0.000  0.000  0.000  0.000  0.000  0.000  0.133
    2  0.042  0.091  0.000  0.000  0.000  0.000  0.000  0.000  0.000  0.133
tot    0.084  0.182  0.000  0.000  0.000  0.000  0.000  0.000  0.000  0.266
 
band    12 # energy   18.60188336 # occ.  0.00000000
 
ion      s     py     pz     px    dxy    dyz    dz2    dxz  x2-y2    tot
    1  0.000  0.000  0.030  0.000  0.000  0.000  0.000  0.000  0.000  0.030
    2  0.000  0.000  0.029  0.001  0.000  0.000  0.000  0.000  0.000  0.030
tot    0.000  0.000  0.059  0.001  0.000  0.000  0.000  0.000  0.000  0.061
 

 k-point    54 :    0.24285714 0.00000000 0.24285714     weight = 0.00555556

band     1 # energy   -5.10676574 # occ.  2.00000000
 
ion      s     py     pz     px    dxy    dyz    dz2    dxz  x2-y2    tot
    1  0.208  0.011  0.000  0.000  0.000  0.000  0.000  0.000  0.000  0.219
    2  0.208  0.011  0.000  0.000  0.000  0.000  0.000  0.000  0.000  0.219
tot    0.416  0.022  0.000  0.000  0.000  0.000  0.000  0.000  0.000  0.439
 
band     2 # energy    2.44583242 # occ.  2.00000000
 
ion      s     py     pz     px    dxy    dyz    dz2    dxz  x2-y2    tot
    1  0.153  0.102  0.000  0.000  0.000  0.000  0.000  0.000  0.000  0.255
    2  0.153  0.102  0.000  0.000  0.000  0.000  0.000  0.000  0.000  0.255
tot    0.306  0.205  0.000  0.000  0.000  0.000  0.000  0.000  0.000  0.510
 
band     3 # energy    3.99676848 # occ.  2.00000000
 
ion      s     py     pz     px    dxy    dyz    dz2    dxz  x2-y2    tot
    1  0.000  0.000  0.111  0.088  0.000  0.000  0.000  0.000  0.000  0.199
    2  0.000  0.000  0.098  0.101  0.000  0.000  0.000  0.000  0.000  0.199
tot    0.000  0.000  0.209  0.189  0.000  0.000  0.000  0.000  0.000  0.398
 
band     4 # energy    3.99676854 # occ.  2.00000000
 
ion      s     py     pz     px    dxy    dyz    dz2    dxz  x2-y2    tot
    1  0.000  0.000  0.088  0.111  0.000  0.000  0.000  0.000  0.000  0.199
    2  0.000  0.000  0.101  0.098  0.000  0.000  0.000  0.000  0.000  0.199
tot    0.000  0.000  0.189  0.209  0.000  0.000  0.000  0.000  0.000  0.398
 
band     5 # energy    7.00682172 # occ.  0.00000000
 
ion      s     py     pz     px    dxy    dyz    dz2    dxz  x2-y2    tot
    1  0.042  0.079  0.000  0.000  0.000  0.000  0.000  0.000  0.000  0.121
    2  0.042  0.079  0.000  0.000  0.000  0.000  0.000  0.000  0.000  0.121
tot    0.084  0.158  0.000  0.000  0.000  0.000  0.000  0.000  0.000  0.242
 
band     6 # energy    9.07408010 # occ.  0.00000000
 
ion      s     py     pz     px    dxy    dyz    dz2    dxz  x2-y2    tot
    1  0.050  0.039  0.000  0.000  0.000  0.000  0.000  0.000  0.000  0.089
    2  0.050  0.039  0.000  0.000  0.000  0.000  0.000  0.000  0.000  0.089
tot    0.101  0.078  0.000  0.000  0.000  0.000  0.000  0.000  0.000  0.179
 
band     7 # energy   11.46539295 # occ.  0.00000000
 
ion      s     py     pz     px    dxy    dyz    dz2    dxz  x2-y2    tot
    1  0.000  0.000  0.138  0.029  0.000  0.000  0.000  0.000  0.000  0.167
    2  0.000  0.000  0.027  0.140  0.000  0.000  0.000  0.000  0.000  0.167
tot    0.000  0.000  0.164  0.170  0.000  0.000  0.000  0.000  0.000  0.334
 
band     8 # energy   11.46539856 # occ.  0.00000000
 
ion      s     py     pz     px    dxy    dyz    dz2    dxz  x2-y2    tot
    1  0.000  0.000  0.029  0.138  0.000  0.000  0.000  0.000  0.000  0.167
    2  0.000  0.000  0.141  0.027  0.000  0.000  0.000  0.000  0.000  0.167
tot    0.000  0.000  0.170  0.164  0.000  0.000  0.000  0.000  0.000  0.334
 
band     9 # energy   13.75738685 # occ.  0.00000000
 
ion      s     py     pz     px    dxy    dyz    dz2    dxz  x2-y2    tot
    1  0.155  0.094  0.000  0.000  0.000  0.000  0.000  0.000  0.000  0.249
    2  0.155  0.094  0.000  0.000  0.000  0.000  0.000  0.000  0.000  0.249
tot    0.309  0.188  0.000  0.000  0.000  0.000  0.000  0.000  0.000  0.497
 
band    10 # energy   14.69476016 # occ.  0.00000000
 
ion      s     py     pz     px    dxy    dyz    dz2    dxz  x2-y2    tot
    1  0.000  0.000  0.000  0.000  0.000  0.000  0.000  0.000  0.000  0.000
    2  0.000  0.000  0.000  0.000  0.000  0.000  0.000  0.000  0.000  0.000
tot    0.000  0.000  0.000  0.000  0.000  0.000  0.000  0.000  0.000  0.000
 
band    11 # energy   17.12302469 # occ.  0.00000000
 
ion      s     py     pz     px    dxy    dyz    dz2    dxz  x2-y2    tot
    1  0.037  0.099  0.000  0.000  0.000  0.000  0.000  0.000  0.000  0.136
    2  0.037  0.099  0.000  0.000  0.000  0.000  0.000  0.000  0.000  0.136
tot    0.074  0.199  0.000  0.000  0.000  0.000  0.000  0.000  0.000  0.273
 
band    12 # energy   18.76588593 # occ.  0.00000000
 
ion      s     py     pz     px    dxy    dyz    dz2    dxz  x2-y2    tot
    1  0.000  0.000  0.008  0.022  0.000  0.000  0.000  0.000  0.000  0.030
    2  0.000  0.000  0.011  0.019  0.000  0.000  0.000  0.000  0.000  0.030
tot    0.000  0.000  0.019  0.041  0.000  0.000  0.000  0.000  0.000  0.059
 

 k-point    55 :    0.25714286 0.00000000 0.25714286     weight = 0.00555556

band     1 # energy   -4.98459368 # occ.  2.00000000
 
ion      s     py     pz     px    dxy    dyz    dz2    dxz  x2-y2    tot
    1  0.208  0.013  0.000  0.000  0.000  0.000  0.000  0.000  0.000  0.220
    2  0.208  0.013  0.000  0.000  0.000  0.000  0.000  0.000  0.000  0.220
tot    0.415  0.025  0.000  0.000  0.000  0.000  0.000  0.000  0.000  0.440
 
band     2 # energy    2.18919175 # occ.  2.00000000
 
ion      s     py     pz     px    dxy    dyz    dz2    dxz  x2-y2    tot
    1  0.157  0.098  0.000  0.000  0.000  0.000  0.000  0.000  0.000  0.255
    2  0.157  0.098  0.000  0.000  0.000  0.000  0.000  0.000  0.000  0.255
tot    0.314  0.197  0.000  0.000  0.000  0.000  0.000  0.000  0.000  0.511
 
band     3 # energy    3.89043583 # occ.  2.00000000
 
ion      s     py     pz     px    dxy    dyz    dz2    dxz  x2-y2    tot
    1  0.000  0.000  0.100  0.098  0.000  0.000  0.000  0.000  0.000  0.199
    2  0.000  0.000  0.109  0.090  0.000  0.000  0.000  0.000  0.000  0.199
tot    0.000  0.000  0.209  0.188  0.000  0.000  0.000  0.000  0.000  0.397
 
band     4 # energy    3.89043591 # occ.  2.00000000
 
ion      s     py     pz     px    dxy    dyz    dz2    dxz  x2-y2    tot
    1  0.000  0.000  0.098  0.100  0.000  0.000  0.000  0.000  0.000  0.199
    2  0.000  0.000  0.090  0.109  0.000  0.000  0.000  0.000  0.000  0.199
tot    0.000  0.000  0.188  0.209  0.000  0.000  0.000  0.000  0.000  0.397
 
band     5 # energy    6.92003057 # occ.  0.00000000
 
ion      s     py     pz     px    dxy    dyz    dz2    dxz  x2-y2    tot
    1  0.044  0.075  0.000  0.000  0.000  0.000  0.000  0.000  0.000  0.119
    2  0.044  0.075  0.000  0.000  0.000  0.000  0.000  0.000  0.000  0.119
tot    0.087  0.150  0.000  0.000  0.000  0.000  0.000  0.000  0.000  0.238
 
band     6 # energy    8.85783215 # occ.  0.00000000
 
ion      s     py     pz     px    dxy    dyz    dz2    dxz  x2-y2    tot
    1  0.047  0.037  0.000  0.000  0.000  0.000  0.000  0.000  0.000  0.084
    2  0.047  0.037  0.000  0.000  0.000  0.000  0.000  0.000  0.000  0.084
tot    0.095  0.074  0.000  0.000  0.000  0.000  0.000  0.000  0.000  0.168
 
band     7 # energy   11.71723224 # occ.  0.00000000
 
ion      s     py     pz     px    dxy    dyz    dz2    dxz  x2-y2    tot
    1  0.000  0.000  0.010  0.157  0.000  0.000  0.000  0.000  0.000  0.167
    2  0.000  0.000  0.149  0.018  0.000  0.000  0.000  0.000  0.000  0.167
tot    0.000  0.000  0.158  0.176  0.000  0.000  0.000  0.000  0.000  0.334
 
band     8 # energy   11.71723330 # occ.  0.00000000
 
ion      s     py     pz     px    dxy    dyz    dz2    dxz  x2-y2    tot
    1  0.000  0.000  0.157  0.010  0.000  0.000  0.000  0.000  0.000  0.167
    2  0.000  0.000  0.018  0.148  0.000  0.000  0.000  0.000  0.000  0.167
tot    0.000  0.000  0.176  0.158  0.000  0.000  0.000  0.000  0.000  0.334
 
band     9 # energy   14.05390336 # occ.  0.00000000
 
ion      s     py     pz     px    dxy    dyz    dz2    dxz  x2-y2    tot
    1  0.153  0.102  0.000  0.000  0.000  0.000  0.000  0.000  0.000  0.255
    2  0.153  0.102  0.000  0.000  0.000  0.000  0.000  0.000  0.000  0.255
tot    0.306  0.204  0.000  0.000  0.000  0.000  0.000  0.000  0.000  0.510
 
band    10 # energy   14.83268669 # occ.  0.00000000
 
ion      s     py     pz     px    dxy    dyz    dz2    dxz  x2-y2    tot
    1  0.000  0.000  0.000  0.000  0.000  0.000  0.000  0.000  0.000  0.000
    2  0.000  0.000  0.000  0.000  0.000  0.000  0.000  0.000  0.000  0.000
tot    0.000  0.000  0.000  0.000  0.000  0.000  0.000  0.000  0.000  0.000
 
band    11 # energy   17.42407532 # occ.  0.00000000
 
ion      s     py     pz     px    dxy    dyz    dz2    dxz  x2-y2    tot
    1  0.032  0.108  0.000  0.000  0.000  0.000  0.000  0.000  0.000  0.140
    2  0.032  0.108  0.000  0.000  0.000  0.000  0.000  0.000  0.000  0.140
tot    0.064  0.216  0.000  0.000  0.000  0.000  0.000  0.000  0.000  0.280
 
band    12 # energy   18.93345053 # occ.  0.00000000
 
ion      s     py     pz     px    dxy    dyz    dz2    dxz  x2-y2    tot
    1  0.000  0.000  0.021  0.008  0.000  0.000  0.000  0.000  0.000  0.029
    2  0.000  0.000  0.021  0.008  0.000  0.000  0.000  0.000  0.000  0.029
tot    0.000  0.000  0.041  0.017  0.000  0.000  0.000  0.000  0.000  0.058
 

 k-point    56 :    0.27142857 0.00000000 0.27142857     weight = 0.00555556

band     1 # energy   -4.85586206 # occ.  2.00000000
 
ion      s     py     pz     px    dxy    dyz    dz2    dxz  x2-y2    tot
    1  0.207  0.014  0.000  0.000  0.000  0.000  0.000  0.000  0.000  0.221
    2  0.207  0.014  0.000  0.000  0.000  0.000  0.000  0.000  0.000  0.221
tot    0.414  0.028  0.000  0.000  0.000  0.000  0.000  0.000  0.000  0.442
 
band     2 # energy    1.93233537 # occ.  2.00000000
 
ion      s     py     pz     px    dxy    dyz    dz2    dxz  x2-y2    tot
    1  0.161  0.094  0.000  0.000  0.000  0.000  0.000  0.000  0.000  0.255
    2  0.161  0.094  0.000  0.000  0.000  0.000  0.000  0.000  0.000  0.255
tot    0.322  0.189  0.000  0.000  0.000  0.000  0.000  0.000  0.000  0.510
 
band     3 # energy    3.78929526 # occ.  2.00000000
 
ion      s     py     pz     px    dxy    dyz    dz2    dxz  x2-y2    tot
    1  0.000  0.000  0.034  0.164  0.000  0.000  0.000  0.000  0.000  0.198
    2  0.000  0.000  0.138  0.060  0.000  0.000  0.000  0.000  0.000  0.198
tot    0.000  0.000  0.172  0.224  0.000  0.000  0.000  0.000  0.000  0.397
 
band     4 # energy    3.78929530 # occ.  2.00000000
 
ion      s     py     pz     px    dxy    dyz    dz2    dxz  x2-y2    tot
    1  0.000  0.000  0.164  0.034  0.000  0.000  0.000  0.000  0.000  0.198
    2  0.000  0.000  0.060  0.138  0.000  0.000  0.000  0.000  0.000  0.198
tot    0.000  0.000  0.224  0.172  0.000  0.000  0.000  0.000  0.000  0.397
 
band     5 # energy    6.83877333 # occ.  0.00000000
 
ion      s     py     pz     px    dxy    dyz    dz2    dxz  x2-y2    tot
    1  0.045  0.071  0.000  0.000  0.000  0.000  0.000  0.000  0.000  0.117
    2  0.045  0.071  0.000  0.000  0.000  0.000  0.000  0.000  0.000  0.117
tot    0.091  0.143  0.000  0.000  0.000  0.000  0.000  0.000  0.000  0.234
 
band     6 # energy    8.64675224 # occ.  0.00000000
 
ion      s     py     pz     px    dxy    dyz    dz2    dxz  x2-y2    tot
    1  0.046  0.035  0.000  0.000  0.000  0.000  0.000  0.000  0.000  0.081
    2  0.046  0.035  0.000  0.000  0.000  0.000  0.000  0.000  0.000  0.081
tot    0.091  0.070  0.000  0.000  0.000  0.000  0.000  0.000  0.000  0.161
 
band     7 # energy   11.97157055 # occ.  0.00000000
 
ion      s     py     pz     px    dxy    dyz    dz2    dxz  x2-y2    tot
    1  0.000  0.000  0.124  0.043  0.000  0.000  0.000  0.000  0.000  0.167
    2  0.000  0.000  0.046  0.120  0.000  0.000  0.000  0.000  0.000  0.167
tot    0.000  0.000  0.170  0.163  0.000  0.000  0.000  0.000  0.000  0.333
 
band     8 # energy   11.97157379 # occ.  0.00000000
 
ion      s     py     pz     px    dxy    dyz    dz2    dxz  x2-y2    tot
    1  0.000  0.000  0.043  0.124  0.000  0.000  0.000  0.000  0.000  0.167
    2  0.000  0.000  0.121  0.046  0.000  0.000  0.000  0.000  0.000  0.167
tot    0.000  0.000  0.163  0.170  0.000  0.000  0.000  0.000  0.000  0.333
 
band     9 # energy   14.35589522 # occ.  0.00000000
 
ion      s     py     pz     px    dxy    dyz    dz2    dxz  x2-y2    tot
    1  0.151  0.109  0.000  0.000  0.000  0.000  0.000  0.000  0.000  0.260
    2  0.151  0.109  0.000  0.000  0.000  0.000  0.000  0.000  0.000  0.260
tot    0.301  0.219  0.000  0.000  0.000  0.000  0.000  0.000  0.000  0.520
 
band    10 # energy   14.97842723 # occ.  0.00000000
 
ion      s     py     pz     px    dxy    dyz    dz2    dxz  x2-y2    tot
    1  0.000  0.000  0.000  0.000  0.000  0.000  0.000  0.000  0.000  0.000
    2  0.000  0.000  0.000  0.000  0.000  0.000  0.000  0.000  0.000  0.000
tot    0.000  0.000  0.000  0.000  0.000  0.000  0.000  0.000  0.000  0.000
 
band    11 # energy   17.72458385 # occ.  0.00000000
 
ion      s     py     pz     px    dxy    dyz    dz2    dxz  x2-y2    tot
    1  0.027  0.117  0.000  0.000  0.000  0.000  0.000  0.000  0.000  0.144
    2  0.027  0.117  0.000  0.000  0.000  0.000  0.000  0.000  0.000  0.144
tot    0.054  0.234  0.000  0.000  0.000  0.000  0.000  0.000  0.000  0.288
 
band    12 # energy   19.08482052 # occ.  0.00000000
 
ion      s     py     pz     px    dxy    dyz    dz2    dxz  x2-y2    tot
    1  0.000  0.000  0.007  0.022  0.000  0.000  0.000  0.000  0.000  0.029
    2  0.000  0.000  0.008  0.021  0.000  0.000  0.000  0.000  0.000  0.029
tot    0.000  0.000  0.015  0.043  0.000  0.000  0.000  0.000  0.000  0.058
 

 k-point    57 :    0.28571429 0.00000000 0.28571429     weight = 0.00555556

band     1 # energy   -4.72062352 # occ.  2.00000000
 
ion      s     py     pz     px    dxy    dyz    dz2    dxz  x2-y2    tot
    1  0.206  0.015  0.000  0.000  0.000  0.000  0.000  0.000  0.000  0.222
    2  0.206  0.015  0.000  0.000  0.000  0.000  0.000  0.000  0.000  0.222
tot    0.413  0.031  0.000  0.000  0.000  0.000  0.000  0.000  0.000  0.443
 
band     2 # energy    1.67554663 # occ.  2.00000000
 
ion      s     py     pz     px    dxy    dyz    dz2    dxz  x2-y2    tot
    1  0.164  0.091  0.000  0.000  0.000  0.000  0.000  0.000  0.000  0.255
    2  0.164  0.091  0.000  0.000  0.000  0.000  0.000  0.000  0.000  0.255
tot    0.329  0.181  0.000  0.000  0.000  0.000  0.000  0.000  0.000  0.510
 
band     3 # energy    3.69356616 # occ.  2.00000000
 
ion      s     py     pz     px    dxy    dyz    dz2    dxz  x2-y2    tot
    1  0.000  0.000  0.118  0.080  0.000  0.000  0.000  0.000  0.000  0.198
    2  0.000  0.000  0.086  0.112  0.000  0.000  0.000  0.000  0.000  0.198
tot    0.000  0.000  0.204  0.192  0.000  0.000  0.000  0.000  0.000  0.396
 
band     4 # energy    3.69356622 # occ.  2.00000000
 
ion      s     py     pz     px    dxy    dyz    dz2    dxz  x2-y2    tot
    1  0.000  0.000  0.080  0.118  0.000  0.000  0.000  0.000  0.000  0.198
    2  0.000  0.000  0.112  0.086  0.000  0.000  0.000  0.000  0.000  0.198
tot    0.000  0.000  0.192  0.204  0.000  0.000  0.000  0.000  0.000  0.396
 
band     5 # energy    6.76334067 # occ.  0.00000000
 
ion      s     py     pz     px    dxy    dyz    dz2    dxz  x2-y2    tot
    1  0.047  0.068  0.000  0.000  0.000  0.000  0.000  0.000  0.000  0.115
    2  0.047  0.068  0.000  0.000  0.000  0.000  0.000  0.000  0.000  0.115
tot    0.094  0.136  0.000  0.000  0.000  0.000  0.000  0.000  0.000  0.230
 
band     6 # energy    8.44247027 # occ.  0.00000000
 
ion      s     py     pz     px    dxy    dyz    dz2    dxz  x2-y2    tot
    1  0.044  0.034  0.000  0.000  0.000  0.000  0.000  0.000  0.000  0.078
    2  0.044  0.034  0.000  0.000  0.000  0.000  0.000  0.000  0.000  0.078
tot    0.089  0.067  0.000  0.000  0.000  0.000  0.000  0.000  0.000  0.156
 
band     7 # energy   12.22820092 # occ.  0.00000000
 
ion      s     py     pz     px    dxy    dyz    dz2    dxz  x2-y2    tot
    1  0.000  0.000  0.124  0.042  0.000  0.000  0.000  0.000  0.000  0.166
    2  0.000  0.000  0.066  0.100  0.000  0.000  0.000  0.000  0.000  0.166
tot    0.000  0.000  0.191  0.142  0.000  0.000  0.000  0.000  0.000  0.333
 
band     8 # energy   12.22821367 # occ.  0.00000000
 
ion      s     py     pz     px    dxy    dyz    dz2    dxz  x2-y2    tot
    1  0.000  0.000  0.042  0.125  0.000  0.000  0.000  0.000  0.000  0.166
    2  0.000  0.000  0.100  0.066  0.000  0.000  0.000  0.000  0.000  0.166
tot    0.000  0.000  0.142  0.191  0.000  0.000  0.000  0.000  0.000  0.333
 
band     9 # energy   14.66135867 # occ.  0.00000000
 
ion      s     py     pz     px    dxy    dyz    dz2    dxz  x2-y2    tot
    1  0.148  0.117  0.000  0.000  0.000  0.000  0.000  0.000  0.000  0.264
    2  0.148  0.117  0.000  0.000  0.000  0.000  0.000  0.000  0.000  0.264
tot    0.295  0.233  0.000  0.000  0.000  0.000  0.000  0.000  0.000  0.528
 
band    10 # energy   15.13196989 # occ.  0.00000000
 
ion      s     py     pz     px    dxy    dyz    dz2    dxz  x2-y2    tot
    1  0.000  0.000  0.000  0.000  0.000  0.000  0.000  0.000  0.000  0.000
    2  0.000  0.000  0.000  0.000  0.000  0.000  0.000  0.000  0.000  0.000
tot    0.000  0.000  0.000  0.000  0.000  0.000  0.000  0.000  0.000  0.000
 
band    11 # energy   18.02150842 # occ.  0.00000000
 
ion      s     py     pz     px    dxy    dyz    dz2    dxz  x2-y2    tot
    1  0.022  0.127  0.000  0.000  0.000  0.000  0.000  0.000  0.000  0.149
    2  0.022  0.127  0.000  0.000  0.000  0.000  0.000  0.000  0.000  0.149
tot    0.044  0.254  0.000  0.000  0.000  0.000  0.000  0.000  0.000  0.298
 
band    12 # energy   19.21720732 # occ.  0.00000000
 
ion      s     py     pz     px    dxy    dyz    dz2    dxz  x2-y2    tot
    1  0.000  0.000  0.008  0.022  0.000  0.000  0.000  0.000  0.000  0.030
    2  0.000  0.000  0.008  0.022  0.000  0.000  0.000  0.000  0.000  0.030
tot    0.000  0.000  0.017  0.043  0.000  0.000  0.000  0.000  0.000  0.060
 

 k-point    58 :    0.30000000 0.00000000 0.30000000     weight = 0.00555556

band     1 # energy   -4.57895663 # occ.  2.00000000
 
ion      s     py     pz     px    dxy    dyz    dz2    dxz  x2-y2    tot
    1  0.206  0.017  0.000  0.000  0.000  0.000  0.000  0.000  0.000  0.223
    2  0.206  0.017  0.000  0.000  0.000  0.000  0.000  0.000  0.000  0.223
tot    0.411  0.034  0.000  0.000  0.000  0.000  0.000  0.000  0.000  0.445
 
band     2 # energy    1.41910293 # occ.  2.00000000
 
ion      s     py     pz     px    dxy    dyz    dz2    dxz  x2-y2    tot
    1  0.168  0.087  0.000  0.000  0.000  0.000  0.000  0.000  0.000  0.255
    2  0.168  0.087  0.000  0.000  0.000  0.000  0.000  0.000  0.000  0.255
tot    0.335  0.174  0.000  0.000  0.000  0.000  0.000  0.000  0.000  0.509
 
band     3 # energy    3.60341972 # occ.  2.00000000
 
ion      s     py     pz     px    dxy    dyz    dz2    dxz  x2-y2    tot
    1  0.000  0.000  0.081  0.117  0.000  0.000  0.000  0.000  0.000  0.198
    2  0.000  0.000  0.122  0.076  0.000  0.000  0.000  0.000  0.000  0.198
tot    0.000  0.000  0.203  0.193  0.000  0.000  0.000  0.000  0.000  0.396
 
band     4 # energy    3.60341978 # occ.  2.00000000
 
ion      s     py     pz     px    dxy    dyz    dz2    dxz  x2-y2    tot
    1  0.000  0.000  0.117  0.081  0.000  0.000  0.000  0.000  0.000  0.198
    2  0.000  0.000  0.076  0.122  0.000  0.000  0.000  0.000  0.000  0.198
tot    0.000  0.000  0.193  0.203  0.000  0.000  0.000  0.000  0.000  0.396
 
band     5 # energy    6.69420525 # occ.  0.00000000
 
ion      s     py     pz     px    dxy    dyz    dz2    dxz  x2-y2    tot
    1  0.048  0.065  0.000  0.000  0.000  0.000  0.000  0.000  0.000  0.113
    2  0.048  0.065  0.000  0.000  0.000  0.000  0.000  0.000  0.000  0.113
tot    0.096  0.129  0.000  0.000  0.000  0.000  0.000  0.000  0.000  0.226
 
band     6 # energy    8.24618176 # occ.  0.00000000
 
ion      s     py     pz     px    dxy    dyz    dz2    dxz  x2-y2    tot
    1  0.044  0.032  0.000  0.000  0.000  0.000  0.000  0.000  0.000  0.076
    2  0.044  0.032  0.000  0.000  0.000  0.000  0.000  0.000  0.000  0.076
tot    0.087  0.065  0.000  0.000  0.000  0.000  0.000  0.000  0.000  0.152
 
band     7 # energy   12.48697023 # occ.  0.00000000
 
ion      s     py     pz     px    dxy    dyz    dz2    dxz  x2-y2    tot
    1  0.000  0.000  0.092  0.074  0.000  0.000  0.000  0.000  0.000  0.166
    2  0.000  0.000  0.104  0.062  0.000  0.000  0.000  0.000  0.000  0.166
tot    0.000  0.000  0.196  0.136  0.000  0.000  0.000  0.000  0.000  0.332
 
band     8 # energy   12.48697862 # occ.  0.00000000
 
ion      s     py     pz     px    dxy    dyz    dz2    dxz  x2-y2    tot
    1  0.000  0.000  0.074  0.092  0.000  0.000  0.000  0.000  0.000  0.166
    2  0.000  0.000  0.062  0.104  0.000  0.000  0.000  0.000  0.000  0.166
tot    0.000  0.000  0.136  0.196  0.000  0.000  0.000  0.000  0.000  0.332
 
band     9 # energy   14.96872791 # occ.  0.00000000
 
ion      s     py     pz     px    dxy    dyz    dz2    dxz  x2-y2    tot
    1  0.144  0.123  0.000  0.000  0.000  0.000  0.000  0.000  0.000  0.267
    2  0.144  0.123  0.000  0.000  0.000  0.000  0.000  0.000  0.000  0.267
tot    0.288  0.247  0.000  0.000  0.000  0.000  0.000  0.000  0.000  0.535
 
band    10 # energy   15.29330093 # occ.  0.00000000
 
ion      s     py     pz     px    dxy    dyz    dz2    dxz  x2-y2    tot
    1  0.000  0.000  0.000  0.000  0.000  0.000  0.000  0.000  0.000  0.000
    2  0.000  0.000  0.000  0.000  0.000  0.000  0.000  0.000  0.000  0.000
tot    0.000  0.000  0.000  0.000  0.000  0.000  0.000  0.000  0.000  0.000
 
band    11 # energy   18.31109503 # occ.  0.00000000
 
ion      s     py     pz     px    dxy    dyz    dz2    dxz  x2-y2    tot
    1  0.017  0.137  0.000  0.000  0.000  0.000  0.000  0.000  0.000  0.155
    2  0.017  0.137  0.000  0.000  0.000  0.000  0.000  0.000  0.000  0.155
tot    0.035  0.275  0.000  0.000  0.000  0.000  0.000  0.000  0.000  0.309
 
band    12 # energy   19.31410671 # occ.  0.00000000
 
ion      s     py     pz     px    dxy    dyz    dz2    dxz  x2-y2    tot
    1  0.000  0.000  0.019  0.013  0.000  0.000  0.000  0.000  0.000  0.033
    2  0.000  0.000  0.030  0.002  0.000  0.000  0.000  0.000  0.000  0.033
tot    0.000  0.000  0.049  0.016  0.000  0.000  0.000  0.000  0.000  0.065
 

 k-point    59 :    0.31428571 0.00000000 0.31428571     weight = 0.00555556

band     1 # energy   -4.43094739 # occ.  2.00000000
 
ion      s     py     pz     px    dxy    dyz    dz2    dxz  x2-y2    tot
    1  0.205  0.019  0.000  0.000  0.000  0.000  0.000  0.000  0.000  0.224
    2  0.205  0.019  0.000  0.000  0.000  0.000  0.000  0.000  0.000  0.224
tot    0.410  0.037  0.000  0.000  0.000  0.000  0.000  0.000  0.000  0.447
 
band     2 # energy    1.16327786 # occ.  2.00000000
 
ion      s     py     pz     px    dxy    dyz    dz2    dxz  x2-y2    tot
    1  0.171  0.083  0.000  0.000  0.000  0.000  0.000  0.000  0.000  0.254
    2  0.171  0.083  0.000  0.000  0.000  0.000  0.000  0.000  0.000  0.254
tot    0.341  0.167  0.000  0.000  0.000  0.000  0.000  0.000  0.000  0.508
 
band     3 # energy    3.51900187 # occ.  2.00000000
 
ion      s     py     pz     px    dxy    dyz    dz2    dxz  x2-y2    tot
    1  0.000  0.000  0.095  0.103  0.000  0.000  0.000  0.000  0.000  0.198
    2  0.000  0.000  0.106  0.092  0.000  0.000  0.000  0.000  0.000  0.198
tot    0.000  0.000  0.201  0.195  0.000  0.000  0.000  0.000  0.000  0.396
 
band     4 # energy    3.51900193 # occ.  2.00000000
 
ion      s     py     pz     px    dxy    dyz    dz2    dxz  x2-y2    tot
    1  0.000  0.000  0.103  0.095  0.000  0.000  0.000  0.000  0.000  0.198
    2  0.000  0.000  0.092  0.106  0.000  0.000  0.000  0.000  0.000  0.198
tot    0.000  0.000  0.195  0.201  0.000  0.000  0.000  0.000  0.000  0.396
 
band     5 # energy    6.63171963 # occ.  0.00000000
 
ion      s     py     pz     px    dxy    dyz    dz2    dxz  x2-y2    tot
    1  0.049  0.062  0.000  0.000  0.000  0.000  0.000  0.000  0.000  0.111
    2  0.049  0.062  0.000  0.000  0.000  0.000  0.000  0.000  0.000  0.111
tot    0.099  0.123  0.000  0.000  0.000  0.000  0.000  0.000  0.000  0.222
 
band     6 # energy    8.05884611 # occ.  0.00000000
 
ion      s     py     pz     px    dxy    dyz    dz2    dxz  x2-y2    tot
    1  0.043  0.032  0.000  0.000  0.000  0.000  0.000  0.000  0.000  0.075
    2  0.043  0.032  0.000  0.000  0.000  0.000  0.000  0.000  0.000  0.075
tot    0.087  0.063  0.000  0.000  0.000  0.000  0.000  0.000  0.000  0.150
 
band     7 # energy   12.74777724 # occ.  0.00000000
 
ion      s     py     pz     px    dxy    dyz    dz2    dxz  x2-y2    tot
    1  0.000  0.000  0.123  0.043  0.000  0.000  0.000  0.000  0.000  0.166
    2  0.000  0.000  0.071  0.094  0.000  0.000  0.000  0.000  0.000  0.166
tot    0.000  0.000  0.194  0.137  0.000  0.000  0.000  0.000  0.000  0.331
 
band     8 # energy   12.74778359 # occ.  0.00000000
 
ion      s     py     pz     px    dxy    dyz    dz2    dxz  x2-y2    tot
    1  0.000  0.000  0.043  0.123  0.000  0.000  0.000  0.000  0.000  0.166
    2  0.000  0.000  0.094  0.071  0.000  0.000  0.000  0.000  0.000  0.166
tot    0.000  0.000  0.137  0.194  0.000  0.000  0.000  0.000  0.000  0.331
 
band     9 # energy   15.27678538 # occ.  0.00000000
 
ion      s     py     pz     px    dxy    dyz    dz2    dxz  x2-y2    tot
    1  0.140  0.130  0.000  0.000  0.000  0.000  0.000  0.000  0.000  0.270
    2  0.140  0.130  0.000  0.000  0.000  0.000  0.000  0.000  0.000  0.270
tot    0.280  0.260  0.000  0.000  0.000  0.000  0.000  0.000  0.000  0.540
 
band    10 # energy   15.46240881 # occ.  0.00000000
 
ion      s     py     pz     px    dxy    dyz    dz2    dxz  x2-y2    tot
    1  0.000  0.000  0.000  0.000  0.000  0.000  0.000  0.000  0.000  0.000
    2  0.000  0.000  0.000  0.000  0.000  0.000  0.000  0.000  0.000  0.000
tot    0.000  0.000  0.000  0.000  0.000  0.000  0.000  0.000  0.000  0.000
 
band    11 # energy   18.58940683 # occ.  0.00000000
 
ion      s     py     pz     px    dxy    dyz    dz2    dxz  x2-y2    tot
    1  0.013  0.149  0.000  0.000  0.000  0.000  0.000  0.000  0.000  0.161
    2  0.012  0.149  0.000  0.000  0.000  0.000  0.000  0.000  0.000  0.161
tot    0.025  0.298  0.000  0.000  0.000  0.000  0.000  0.000  0.000  0.323
 
band    12 # energy   19.35960533 # occ.  0.00000000
 
ion      s     py     pz     px    dxy    dyz    dz2    dxz  x2-y2    tot
    1  0.000  0.000  0.013  0.025  0.000  0.000  0.000  0.000  0.000  0.037
    2  0.000  0.000  0.037  0.000  0.000  0.000  0.000  0.000  0.000  0.037
tot    0.000  0.000  0.050  0.025  0.000  0.000  0.000  0.000  0.000  0.075
 

 k-point    60 :    0.32857143 0.00000000 0.32857143     weight = 0.00555556

band     1 # energy   -4.27668893 # occ.  2.00000000
 
ion      s     py     pz     px    dxy    dyz    dz2    dxz  x2-y2    tot
    1  0.204  0.020  0.000  0.000  0.000  0.000  0.000  0.000  0.000  0.224
    2  0.204  0.020  0.000  0.000  0.000  0.000  0.000  0.000  0.000  0.224
tot    0.408  0.041  0.000  0.000  0.000  0.000  0.000  0.000  0.000  0.449
 
band     2 # energy    0.90832242 # occ.  2.00000000
 
ion      s     py     pz     px    dxy    dyz    dz2    dxz  x2-y2    tot
    1  0.173  0.080  0.000  0.000  0.000  0.000  0.000  0.000  0.000  0.253
    2  0.173  0.080  0.000  0.000  0.000  0.000  0.000  0.000  0.000  0.253
tot    0.346  0.160  0.000  0.000  0.000  0.000  0.000  0.000  0.000  0.507
 
band     3 # energy    3.44043660 # occ.  2.00000000
 
ion      s     py     pz     px    dxy    dyz    dz2    dxz  x2-y2    tot
    1  0.000  0.000  0.049  0.149  0.000  0.000  0.000  0.000  0.000  0.198
    2  0.000  0.000  0.145  0.053  0.000  0.000  0.000  0.000  0.000  0.198
tot    0.000  0.000  0.194  0.202  0.000  0.000  0.000  0.000  0.000  0.396
 
band     4 # energy    3.44043666 # occ.  2.00000000
 
ion      s     py     pz     px    dxy    dyz    dz2    dxz  x2-y2    tot
    1  0.000  0.000  0.149  0.049  0.000  0.000  0.000  0.000  0.000  0.198
    2  0.000  0.000  0.053  0.145  0.000  0.000  0.000  0.000  0.000  0.198
tot    0.000  0.000  0.202  0.194  0.000  0.000  0.000  0.000  0.000  0.396
 
band     5 # energy    6.57620085 # occ.  0.00000000
 
ion      s     py     pz     px    dxy    dyz    dz2    dxz  x2-y2    tot
    1  0.050  0.059  0.000  0.000  0.000  0.000  0.000  0.000  0.000  0.109
    2  0.050  0.059  0.000  0.000  0.000  0.000  0.000  0.000  0.000  0.109
tot    0.101  0.117  0.000  0.000  0.000  0.000  0.000  0.000  0.000  0.218
 
band     6 # energy    7.88079749 # occ.  0.00000000
 
ion      s     py     pz     px    dxy    dyz    dz2    dxz  x2-y2    tot
    1  0.044  0.031  0.000  0.000  0.000  0.000  0.000  0.000  0.000  0.074
    2  0.044  0.031  0.000  0.000  0.000  0.000  0.000  0.000  0.000  0.074
tot    0.087  0.062  0.000  0.000  0.000  0.000  0.000  0.000  0.000  0.149
 
band     7 # energy   13.01044457 # occ.  0.00000000
 
ion      s     py     pz     px    dxy    dyz    dz2    dxz  x2-y2    tot
    1  0.000  0.000  0.080  0.085  0.000  0.000  0.000  0.000  0.000  0.165
    2  0.000  0.000  0.112  0.053  0.000  0.000  0.000  0.000  0.000  0.165
tot    0.000  0.000  0.192  0.138  0.000  0.000  0.000  0.000  0.000  0.331
 
band     8 # energy   13.01045466 # occ.  0.00000000
 
ion      s     py     pz     px    dxy    dyz    dz2    dxz  x2-y2    tot
    1  0.000  0.000  0.085  0.080  0.000  0.000  0.000  0.000  0.000  0.165
    2  0.000  0.000  0.053  0.112  0.000  0.000  0.000  0.000  0.000  0.165
tot    0.000  0.000  0.139  0.192  0.000  0.000  0.000  0.000  0.000  0.331
 
band     9 # energy   15.58425409 # occ.  0.00000000
 
ion      s     py     pz     px    dxy    dyz    dz2    dxz  x2-y2    tot
    1  0.136  0.137  0.000  0.000  0.000  0.000  0.000  0.000  0.000  0.272
    2  0.136  0.137  0.000  0.000  0.000  0.000  0.000  0.000  0.000  0.272
tot    0.271  0.273  0.000  0.000  0.000  0.000  0.000  0.000  0.000  0.545
 
band    10 # energy   15.63927316 # occ.  0.00000000
 
ion      s     py     pz     px    dxy    dyz    dz2    dxz  x2-y2    tot
    1  0.000  0.000  0.000  0.000  0.000  0.000  0.000  0.000  0.000  0.000
    2  0.000  0.000  0.000  0.000  0.000  0.000  0.000  0.000  0.000  0.000
tot    0.000  0.000  0.000  0.000  0.000  0.000  0.000  0.000  0.000  0.000
 
band    11 # energy   18.85756136 # occ.  0.00000000
 
ion      s     py     pz     px    dxy    dyz    dz2    dxz  x2-y2    tot
    1  0.008  0.158  0.000  0.000  0.000  0.000  0.000  0.000  0.000  0.167
    2  0.008  0.159  0.000  0.001  0.000  0.000  0.000  0.000  0.000  0.167
tot    0.016  0.316  0.001  0.001  0.000  0.000  0.000  0.000  0.000  0.334
 
band    12 # energy   19.34060508 # occ.  0.00000000
 
ion      s     py     pz     px    dxy    dyz    dz2    dxz  x2-y2    tot
    1  0.000  0.000  0.019  0.025  0.000  0.000  0.000  0.000  0.000  0.044
    2  0.000  0.000  0.035  0.009  0.000  0.000  0.000  0.000  0.000  0.044
tot    0.000  0.000  0.054  0.034  0.000  0.000  0.000  0.000  0.000  0.088
 

 k-point    61 :    0.34285714 0.00000000 0.34285714     weight = 0.00555556

band     1 # energy   -4.11628190 # occ.  2.00000000
 
ion      s     py     pz     px    dxy    dyz    dz2    dxz  x2-y2    tot
    1  0.203  0.022  0.000  0.000  0.000  0.000  0.000  0.000  0.000  0.225
    2  0.203  0.022  0.000  0.000  0.000  0.000  0.000  0.000  0.000  0.225
tot    0.407  0.044  0.000  0.000  0.000  0.000  0.000  0.000  0.000  0.451
 
band     2 # energy    0.65452639 # occ.  2.00000000
 
ion      s     py     pz     px    dxy    dyz    dz2    dxz  x2-y2    tot
    1  0.176  0.077  0.000  0.000  0.000  0.000  0.000  0.000  0.000  0.252
    2  0.176  0.077  0.000  0.000  0.000  0.000  0.000  0.000  0.000  0.252
tot    0.351  0.154  0.000  0.000  0.000  0.000  0.000  0.000  0.000  0.505
 
band     3 # energy    3.36783049 # occ.  2.00000000
 
ion      s     py     pz     px    dxy    dyz    dz2    dxz  x2-y2    tot
    1  0.000  0.000  0.102  0.095  0.000  0.000  0.000  0.000  0.000  0.198
    2  0.000  0.000  0.096  0.102  0.000  0.000  0.000  0.000  0.000  0.198
tot    0.000  0.000  0.198  0.198  0.000  0.000  0.000  0.000  0.000  0.396
 
band     4 # energy    3.36783055 # occ.  2.00000000
 
ion      s     py     pz     px    dxy    dyz    dz2    dxz  x2-y2    tot
    1  0.000  0.000  0.095  0.102  0.000  0.000  0.000  0.000  0.000  0.198
    2  0.000  0.000  0.102  0.096  0.000  0.000  0.000  0.000  0.000  0.198
tot    0.000  0.000  0.198  0.198  0.000  0.000  0.000  0.000  0.000  0.396
 
band     5 # energy    6.52793729 # occ.  0.00000000
 
ion      s     py     pz     px    dxy    dyz    dz2    dxz  x2-y2    tot
    1  0.051  0.056  0.000  0.000  0.000  0.000  0.000  0.000  0.000  0.107
    2  0.051  0.056  0.000  0.000  0.000  0.000  0.000  0.000  0.000  0.107
tot    0.102  0.112  0.000  0.000  0.000  0.000  0.000  0.000  0.000  0.214
 
band     6 # energy    7.71258661 # occ.  0.00000000
 
ion      s     py     pz     px    dxy    dyz    dz2    dxz  x2-y2    tot
    1  0.044  0.030  0.000  0.000  0.000  0.000  0.000  0.000  0.000  0.074
    2  0.044  0.030  0.000  0.000  0.000  0.000  0.000  0.000  0.000  0.074
tot    0.088  0.061  0.000  0.000  0.000  0.000  0.000  0.000  0.000  0.148
 
band     7 # energy   13.27489316 # occ.  0.00000000
 
ion      s     py     pz     px    dxy    dyz    dz2    dxz  x2-y2    tot
    1  0.000  0.000  0.059  0.106  0.000  0.000  0.000  0.000  0.000  0.165
    2  0.000  0.000  0.075  0.090  0.000  0.000  0.000  0.000  0.000  0.165
tot    0.000  0.000  0.134  0.196  0.000  0.000  0.000  0.000  0.000  0.330
 
band     8 # energy   13.27489409 # occ.  0.00000000
 
ion      s     py     pz     px    dxy    dyz    dz2    dxz  x2-y2    tot
    1  0.000  0.000  0.106  0.059  0.000  0.000  0.000  0.000  0.000  0.165
    2  0.000  0.000  0.090  0.075  0.000  0.000  0.000  0.000  0.000  0.165
tot    0.000  0.000  0.196  0.134  0.000  0.000  0.000  0.000  0.000  0.330
 
band     9 # energy   15.82387442 # occ.  0.00000000
 
ion      s     py     pz     px    dxy    dyz    dz2    dxz  x2-y2    tot
    1  0.000  0.000  0.000  0.000  0.000  0.000  0.000  0.000  0.000  0.000
    2  0.000  0.000  0.000  0.000  0.000  0.000  0.000  0.000  0.000  0.000
tot    0.000  0.000  0.000  0.000  0.000  0.000  0.000  0.000  0.000  0.000
 
band    10 # energy   15.89024329 # occ.  0.00000000
 
ion      s     py     pz     px    dxy    dyz    dz2    dxz  x2-y2    tot
    1  0.131  0.143  0.000  0.000  0.000  0.000  0.000  0.000  0.000  0.274
    2  0.131  0.143  0.000  0.000  0.000  0.000  0.000  0.000  0.000  0.274
tot    0.262  0.286  0.000  0.000  0.000  0.000  0.000  0.000  0.000  0.548
 
band    11 # energy   19.11252559 # occ.  0.00000000
 
ion      s     py     pz     px    dxy    dyz    dz2    dxz  x2-y2    tot
    1  0.004  0.152  0.002  0.003  0.000  0.000  0.000  0.000  0.000  0.161
    2  0.003  0.156  0.002  0.003  0.000  0.000  0.000  0.000  0.000  0.165
tot    0.008  0.308  0.004  0.006  0.000  0.000  0.000  0.000  0.000  0.326
 
band    12 # energy   19.25248736 # occ.  0.00000000
 
ion      s     py     pz     px    dxy    dyz    dz2    dxz  x2-y2    tot
    1  0.000  0.000  0.023  0.029  0.000  0.000  0.000  0.000  0.000  0.052
    2  0.000  0.000  0.031  0.021  0.000  0.000  0.000  0.000  0.000  0.052
tot    0.000  0.000  0.054  0.050  0.000  0.000  0.000  0.000  0.000  0.104
 

 k-point    62 :    0.35714286 0.00000000 0.35714286     weight = 0.00555556

band     1 # energy   -3.94985334 # occ.  2.00000000
 
ion      s     py     pz     px    dxy    dyz    dz2    dxz  x2-y2    tot
    1  0.203  0.024  0.000  0.000  0.000  0.000  0.000  0.000  0.000  0.226
    2  0.203  0.024  0.000  0.000  0.000  0.000  0.000  0.000  0.000  0.226
tot    0.405  0.048  0.000  0.000  0.000  0.000  0.000  0.000  0.000  0.453
 
band     2 # energy    0.40216429 # occ.  2.00000000
 
ion      s     py     pz     px    dxy    dyz    dz2    dxz  x2-y2    tot
    1  0.178  0.074  0.000  0.000  0.000  0.000  0.000  0.000  0.000  0.251
    2  0.178  0.074  0.000  0.000  0.000  0.000  0.000  0.000  0.000  0.251
tot    0.356  0.147  0.000  0.000  0.000  0.000  0.000  0.000  0.000  0.503
 
band     3 # energy    3.30127524 # occ.  2.00000000
 
ion      s     py     pz     px    dxy    dyz    dz2    dxz  x2-y2    tot
    1  0.000  0.000  0.098  0.100  0.000  0.000  0.000  0.000  0.000  0.198
    2  0.000  0.000  0.100  0.098  0.000  0.000  0.000  0.000  0.000  0.198
tot    0.000  0.000  0.198  0.198  0.000  0.000  0.000  0.000  0.000  0.395
 
band     4 # energy    3.30127530 # occ.  2.00000000
 
ion      s     py     pz     px    dxy    dyz    dz2    dxz  x2-y2    tot
    1  0.000  0.000  0.100  0.098  0.000  0.000  0.000  0.000  0.000  0.198
    2  0.000  0.000  0.098  0.100  0.000  0.000  0.000  0.000  0.000  0.198
tot    0.000  0.000  0.198  0.198  0.000  0.000  0.000  0.000  0.000  0.395
 
band     5 # energy    6.48719575 # occ.  0.00000000
 
ion      s     py     pz     px    dxy    dyz    dz2    dxz  x2-y2    tot
    1  0.052  0.053  0.000  0.000  0.000  0.000  0.000  0.000  0.000  0.105
    2  0.052  0.053  0.000  0.000  0.000  0.000  0.000  0.000  0.000  0.105
tot    0.104  0.106  0.000  0.000  0.000  0.000  0.000  0.000  0.000  0.210
 
band     6 # energy    7.55449702 # occ.  0.00000000
 
ion      s     py     pz     px    dxy    dyz    dz2    dxz  x2-y2    tot
    1  0.044  0.030  0.000  0.000  0.000  0.000  0.000  0.000  0.000  0.074
    2  0.044  0.030  0.000  0.000  0.000  0.000  0.000  0.000  0.000  0.074
tot    0.089  0.060  0.000  0.000  0.000  0.000  0.000  0.000  0.000  0.149
 
band     7 # energy   13.54100771 # occ.  0.00000000
 
ion      s     py     pz     px    dxy    dyz    dz2    dxz  x2-y2    tot
    1  0.000  0.000  0.035  0.130  0.000  0.000  0.000  0.000  0.000  0.165
    2  0.000  0.000  0.142  0.023  0.000  0.000  0.000  0.000  0.000  0.165
tot    0.000  0.000  0.176  0.153  0.000  0.000  0.000  0.000  0.000  0.330
 
band     8 # energy   13.54100998 # occ.  0.00000000
 
ion      s     py     pz     px    dxy    dyz    dz2    dxz  x2-y2    tot
    1  0.000  0.000  0.130  0.035  0.000  0.000  0.000  0.000  0.000  0.165
    2  0.000  0.000  0.023  0.142  0.000  0.000  0.000  0.000  0.000  0.165
tot    0.000  0.000  0.153  0.176  0.000  0.000  0.000  0.000  0.000  0.330
 
band     9 # energy   16.01619993 # occ.  0.00000000
 
ion      s     py     pz     px    dxy    dyz    dz2    dxz  x2-y2    tot
    1  0.000  0.000  0.000  0.000  0.000  0.000  0.000  0.000  0.000  0.000
    2  0.000  0.000  0.000  0.000  0.000  0.000  0.000  0.000  0.000  0.000
tot    0.000  0.000  0.000  0.000  0.000  0.000  0.000  0.000  0.000  0.000
 
band    10 # energy   16.19386606 # occ.  0.00000000
 
ion      s     py     pz     px    dxy    dyz    dz2    dxz  x2-y2    tot
    1  0.126  0.149  0.000  0.000  0.000  0.000  0.000  0.000  0.000  0.275
    2  0.126  0.149  0.000  0.000  0.000  0.000  0.000  0.000  0.000  0.275
tot    0.252  0.299  0.000  0.000  0.000  0.000  0.000  0.000  0.000  0.551
 
band    11 # energy   19.10357297 # occ.  0.00000000
 
ion      s     py     pz     px    dxy    dyz    dz2    dxz  x2-y2    tot
    1  0.000  0.000  0.041  0.019  0.000  0.000  0.000  0.000  0.000  0.060
    2  0.000  0.000  0.023  0.036  0.000  0.000  0.000  0.000  0.000  0.060
tot    0.000  0.000  0.064  0.055  0.000  0.000  0.000  0.000  0.000  0.119
 
band    12 # energy   19.12463464 # occ.  0.00000000
 
ion      s     py     pz     px    dxy    dyz    dz2    dxz  x2-y2    tot
    1  0.000  0.016  0.018  0.037  0.000  0.000  0.000  0.000  0.000  0.071
    2  0.000  0.016  0.034  0.021  0.000  0.000  0.000  0.000  0.000  0.071
tot    0.000  0.032  0.052  0.059  0.000  0.000  0.000  0.000  0.000  0.143
 

 k-point    63 :    0.37142857 0.00000000 0.37142857     weight = 0.00555556

band     1 # energy   -3.77750330 # occ.  2.00000000
 
ion      s     py     pz     px    dxy    dyz    dz2    dxz  x2-y2    tot
    1  0.202  0.026  0.000  0.000  0.000  0.000  0.000  0.000  0.000  0.228
    2  0.202  0.026  0.000  0.000  0.000  0.000  0.000  0.000  0.000  0.228
tot    0.404  0.051  0.000  0.000  0.000  0.000  0.000  0.000  0.000  0.455
 
band     2 # energy    0.15150835 # occ.  2.00000000
 
ion      s     py     pz     px    dxy    dyz    dz2    dxz  x2-y2    tot
    1  0.180  0.070  0.000  0.000  0.000  0.000  0.000  0.000  0.000  0.250
    2  0.180  0.070  0.000  0.000  0.000  0.000  0.000  0.000  0.000  0.250
tot    0.360  0.141  0.000  0.000  0.000  0.000  0.000  0.000  0.000  0.501
 
band     3 # energy    3.24084664 # occ.  2.00000000
 
ion      s     py     pz     px    dxy    dyz    dz2    dxz  x2-y2    tot
    1  0.000  0.000  0.099  0.099  0.000  0.000  0.000  0.000  0.000  0.198
    2  0.000  0.000  0.099  0.099  0.000  0.000  0.000  0.000  0.000  0.198
tot    0.000  0.000  0.198  0.198  0.000  0.000  0.000  0.000  0.000  0.395
 
band     4 # energy    3.24084671 # occ.  2.00000000
 
ion      s     py     pz     px    dxy    dyz    dz2    dxz  x2-y2    tot
    1  0.000  0.000  0.099  0.099  0.000  0.000  0.000  0.000  0.000  0.198
    2  0.000  0.000  0.099  0.099  0.000  0.000  0.000  0.000  0.000  0.198
tot    0.000  0.000  0.198  0.198  0.000  0.000  0.000  0.000  0.000  0.395
 
band     5 # energy    6.45415895 # occ.  0.00000000
 
ion      s     py     pz     px    dxy    dyz    dz2    dxz  x2-y2    tot
    1  0.052  0.051  0.000  0.000  0.000  0.000  0.000  0.000  0.000  0.103
    2  0.052  0.051  0.000  0.000  0.000  0.000  0.000  0.000  0.000  0.103
tot    0.105  0.101  0.000  0.000  0.000  0.000  0.000  0.000  0.000  0.206
 
band     6 # energy    7.40655890 # occ.  0.00000000
 
ion      s     py     pz     px    dxy    dyz    dz2    dxz  x2-y2    tot
    1  0.045  0.030  0.000  0.000  0.000  0.000  0.000  0.000  0.000  0.075
    2  0.045  0.030  0.000  0.000  0.000  0.000  0.000  0.000  0.000  0.075
tot    0.090  0.060  0.000  0.000  0.000  0.000  0.000  0.000  0.000  0.150
 
band     7 # energy   13.80856159 # occ.  0.00000000
 
ion      s     py     pz     px    dxy    dyz    dz2    dxz  x2-y2    tot
    1  0.000  0.000  0.107  0.058  0.000  0.000  0.000  0.000  0.000  0.165
    2  0.000  0.000  0.084  0.080  0.000  0.000  0.000  0.000  0.000  0.165
tot    0.000  0.000  0.191  0.139  0.000  0.000  0.000  0.000  0.000  0.330
 
band     8 # energy   13.80856175 # occ.  0.00000000
 
ion      s     py     pz     px    dxy    dyz    dz2    dxz  x2-y2    tot
    1  0.000  0.000  0.058  0.107  0.000  0.000  0.000  0.000  0.000  0.165
    2  0.000  0.000  0.080  0.084  0.000  0.000  0.000  0.000  0.000  0.165
tot    0.000  0.000  0.139  0.191  0.000  0.000  0.000  0.000  0.000  0.330
 
band     9 # energy   16.21622625 # occ.  0.00000000
 
ion      s     py     pz     px    dxy    dyz    dz2    dxz  x2-y2    tot
    1  0.000  0.000  0.000  0.000  0.000  0.000  0.000  0.000  0.000  0.000
    2  0.000  0.000  0.000  0.000  0.000  0.000  0.000  0.000  0.000  0.000
tot    0.000  0.000  0.000  0.000  0.000  0.000  0.000  0.000  0.000  0.000
 
band    10 # energy   16.49423661 # occ.  0.00000000
 
ion      s     py     pz     px    dxy    dyz    dz2    dxz  x2-y2    tot
    1  0.121  0.156  0.000  0.000  0.000  0.000  0.000  0.000  0.000  0.276
    2  0.121  0.155  0.000  0.000  0.000  0.000  0.000  0.000  0.000  0.276
tot    0.241  0.311  0.000  0.000  0.000  0.000  0.000  0.000  0.000  0.552
 
band    11 # energy   18.90697564 # occ.  0.00000000
 
ion      s     py     pz     px    dxy    dyz    dz2    dxz  x2-y2    tot
    1  0.000  0.000  0.001  0.065  0.000  0.000  0.000  0.000  0.000  0.066
    2  0.000  0.000  0.059  0.007  0.000  0.000  0.000  0.000  0.000  0.066
tot    0.000  0.000  0.060  0.072  0.000  0.000  0.000  0.000  0.000  0.133
 
band    12 # energy   18.93322446 # occ.  0.00000000
 
ion      s     py     pz     px    dxy    dyz    dz2    dxz  x2-y2    tot
    1  0.000  0.007  0.059  0.001  0.000  0.000  0.000  0.000  0.000  0.067
    2  0.000  0.006  0.006  0.057  0.000  0.000  0.000  0.000  0.000  0.070
tot    0.000  0.013  0.065  0.059  0.000  0.000  0.000  0.000  0.000  0.137
 

 k-point    64 :    0.38571429 0.00000000 0.38571429     weight = 0.00555556

band     1 # energy   -3.59934568 # occ.  2.00000000
 
ion      s     py     pz     px    dxy    dyz    dz2    dxz  x2-y2    tot
    1  0.201  0.028  0.000  0.000  0.000  0.000  0.000  0.000  0.000  0.229
    2  0.201  0.028  0.000  0.000  0.000  0.000  0.000  0.000  0.000  0.229
tot    0.402  0.055  0.000  0.000  0.000  0.000  0.000  0.000  0.000  0.457
 
band     2 # energy   -0.09716119 # occ.  2.00000000
 
ion      s     py     pz     px    dxy    dyz    dz2    dxz  x2-y2    tot
    1  0.182  0.067  0.000  0.000  0.000  0.000  0.000  0.000  0.000  0.249
    2  0.182  0.067  0.000  0.000  0.000  0.000  0.000  0.000  0.000  0.249
tot    0.364  0.135  0.000  0.000  0.000  0.000  0.000  0.000  0.000  0.499
 
band     3 # energy    3.18661930 # occ.  2.00000000
 
ion      s     py     pz     px    dxy    dyz    dz2    dxz  x2-y2    tot
    1  0.000  0.000  0.099  0.099  0.000  0.000  0.000  0.000  0.000  0.198
    2  0.000  0.000  0.099  0.099  0.000  0.000  0.000  0.000  0.000  0.198
tot    0.000  0.000  0.198  0.198  0.000  0.000  0.000  0.000  0.000  0.395
 
band     4 # energy    3.18661936 # occ.  2.00000000
 
ion      s     py     pz     px    dxy    dyz    dz2    dxz  x2-y2    tot
    1  0.000  0.000  0.099  0.099  0.000  0.000  0.000  0.000  0.000  0.198
    2  0.000  0.000  0.099  0.099  0.000  0.000  0.000  0.000  0.000  0.198
tot    0.000  0.000  0.198  0.198  0.000  0.000  0.000  0.000  0.000  0.395
 
band     5 # energy    6.42917701 # occ.  0.00000000
 
ion      s     py     pz     px    dxy    dyz    dz2    dxz  x2-y2    tot
    1  0.053  0.048  0.000  0.000  0.000  0.000  0.000  0.000  0.000  0.101
    2  0.053  0.048  0.000  0.000  0.000  0.000  0.000  0.000  0.000  0.101
tot    0.106  0.097  0.000  0.000  0.000  0.000  0.000  0.000  0.000  0.203
 
band     6 # energy    7.26917317 # occ.  0.00000000
 
ion      s     py     pz     px    dxy    dyz    dz2    dxz  x2-y2    tot
    1  0.046  0.030  0.000  0.000  0.000  0.000  0.000  0.000  0.000  0.076
    2  0.046  0.030  0.000  0.000  0.000  0.000  0.000  0.000  0.000  0.076
tot    0.092  0.060  0.000  0.000  0.000  0.000  0.000  0.000  0.000  0.151
 
band     7 # energy   14.07749854 # occ.  0.00000000
 
ion      s     py     pz     px    dxy    dyz    dz2    dxz  x2-y2    tot
    1  0.000  0.000  0.114  0.051  0.000  0.000  0.000  0.000  0.000  0.165
    2  0.000  0.000  0.090  0.075  0.000  0.000  0.000  0.000  0.000  0.165
tot    0.000  0.000  0.204  0.126  0.000  0.000  0.000  0.000  0.000  0.330
 
band     8 # energy   14.07749907 # occ.  0.00000000
 
ion      s     py     pz     px    dxy    dyz    dz2    dxz  x2-y2    tot
    1  0.000  0.000  0.051  0.114  0.000  0.000  0.000  0.000  0.000  0.165
    2  0.000  0.000  0.075  0.090  0.000  0.000  0.000  0.000  0.000  0.165
tot    0.000  0.000  0.126  0.204  0.000  0.000  0.000  0.000  0.000  0.330
 
band     9 # energy   16.42393483 # occ.  0.00000000
 
ion      s     py     pz     px    dxy    dyz    dz2    dxz  x2-y2    tot
    1  0.000  0.000  0.000  0.000  0.000  0.000  0.000  0.000  0.000  0.000
    2  0.000  0.000  0.000  0.000  0.000  0.000  0.000  0.000  0.000  0.000
tot    0.000  0.000  0.000  0.000  0.000  0.000  0.000  0.000  0.000  0.000
 
band    10 # energy   16.79066096 # occ.  0.00000000
 
ion      s     py     pz     px    dxy    dyz    dz2    dxz  x2-y2    tot
    1  0.115  0.162  0.000  0.000  0.000  0.000  0.000  0.000  0.000  0.277
    2  0.115  0.161  0.000  0.000  0.000  0.000  0.000  0.000  0.000  0.276
tot    0.230  0.323  0.000  0.000  0.000  0.000  0.000  0.000  0.000  0.553
 
band    11 # energy   18.67765076 # occ.  0.00000000
 
ion      s     py     pz     px    dxy    dyz    dz2    dxz  x2-y2    tot
    1  0.000  0.000  0.031  0.040  0.000  0.000  0.000  0.000  0.000  0.071
    2  0.000  0.000  0.030  0.041  0.000  0.000  0.000  0.000  0.000  0.071
tot    0.000  0.000  0.061  0.081  0.000  0.000  0.000  0.000  0.000  0.143
 
band    12 # energy   18.71376027 # occ.  0.00000000
 
ion      s     py     pz     px    dxy    dyz    dz2    dxz  x2-y2    tot
    1  0.000  0.008  0.039  0.030  0.000  0.000  0.000  0.000  0.000  0.077
    2  0.000  0.008  0.040  0.030  0.000  0.000  0.000  0.000  0.000  0.077
tot    0.000  0.016  0.079  0.060  0.000  0.000  0.000  0.000  0.000  0.155
 

 k-point    65 :    0.40000000 0.00000000 0.40000000     weight = 0.00555556

band     1 # energy   -3.41551731 # occ.  2.00000000
 
ion      s     py     pz     px    dxy    dyz    dz2    dxz  x2-y2    tot
    1  0.200  0.030  0.000  0.000  0.000  0.000  0.000  0.000  0.000  0.230
    2  0.200  0.030  0.000  0.000  0.000  0.000  0.000  0.000  0.000  0.230
tot    0.400  0.059  0.000  0.000  0.000  0.000  0.000  0.000  0.000  0.460
 
band     2 # energy   -0.34358230 # occ.  2.00000000
 
ion      s     py     pz     px    dxy    dyz    dz2    dxz  x2-y2    tot
    1  0.184  0.064  0.000  0.000  0.000  0.000  0.000  0.000  0.000  0.248
    2  0.184  0.064  0.000  0.000  0.000  0.000  0.000  0.000  0.000  0.248
tot    0.367  0.129  0.000  0.000  0.000  0.000  0.000  0.000  0.000  0.496
 
band     3 # energy    3.13865025 # occ.  2.00000000
 
ion      s     py     pz     px    dxy    dyz    dz2    dxz  x2-y2    tot
    1  0.000  0.000  0.193  0.004  0.000  0.000  0.000  0.000  0.000  0.198
    2  0.000  0.000  0.001  0.197  0.000  0.000  0.000  0.000  0.000  0.198
tot    0.000  0.000  0.194  0.201  0.000  0.000  0.000  0.000  0.000  0.395
 
band     4 # energy    3.13865031 # occ.  2.00000000
 
ion      s     py     pz     px    dxy    dyz    dz2    dxz  x2-y2    tot
    1  0.000  0.000  0.004  0.193  0.000  0.000  0.000  0.000  0.000  0.198
    2  0.000  0.000  0.197  0.001  0.000  0.000  0.000  0.000  0.000  0.198
tot    0.000  0.000  0.201  0.194  0.000  0.000  0.000  0.000  0.000  0.395
 
band     5 # energy    6.41237768 # occ.  0.00000000
 
ion      s     py     pz     px    dxy    dyz    dz2    dxz  x2-y2    tot
    1  0.053  0.046  0.000  0.000  0.000  0.000  0.000  0.000  0.000  0.099
    2  0.053  0.046  0.000  0.000  0.000  0.000  0.000  0.000  0.000  0.099
tot    0.106  0.092  0.000  0.000  0.000  0.000  0.000  0.000  0.000  0.199
 
band     6 # energy    7.14222866 # occ.  0.00000000
 
ion      s     py     pz     px    dxy    dyz    dz2    dxz  x2-y2    tot
    1  0.047  0.030  0.000  0.000  0.000  0.000  0.000  0.000  0.000  0.077
    2  0.047  0.030  0.000  0.000  0.000  0.000  0.000  0.000  0.000  0.077
tot    0.093  0.060  0.000  0.000  0.000  0.000  0.000  0.000  0.000  0.153
 
band     7 # energy   14.34733428 # occ.  0.00000000
 
ion      s     py     pz     px    dxy    dyz    dz2    dxz  x2-y2    tot
    1  0.000  0.000  0.063  0.103  0.000  0.000  0.000  0.000  0.000  0.166
    2  0.000  0.000  0.104  0.062  0.000  0.000  0.000  0.000  0.000  0.166
tot    0.000  0.000  0.167  0.165  0.000  0.000  0.000  0.000  0.000  0.332
 
band     8 # energy   14.34740149 # occ.  0.00000000
 
ion      s     py     pz     px    dxy    dyz    dz2    dxz  x2-y2    tot
    1  0.000  0.000  0.103  0.063  0.000  0.000  0.000  0.000  0.000  0.166
    2  0.000  0.000  0.062  0.104  0.000  0.000  0.000  0.000  0.000  0.166
tot    0.000  0.000  0.165  0.167  0.000  0.000  0.000  0.000  0.000  0.332
 
band     9 # energy   16.63865323 # occ.  0.00000000
 
ion      s     py     pz     px    dxy    dyz    dz2    dxz  x2-y2    tot
    1  0.000  0.000  0.000  0.000  0.000  0.000  0.000  0.000  0.000  0.000
    2  0.000  0.000  0.000  0.000  0.000  0.000  0.000  0.000  0.000  0.000
tot    0.000  0.000  0.000  0.000  0.000  0.000  0.000  0.000  0.000  0.000
 
band    10 # energy   17.08226664 # occ.  0.00000000
 
ion      s     py     pz     px    dxy    dyz    dz2    dxz  x2-y2    tot
    1  0.109  0.167  0.000  0.000  0.000  0.000  0.000  0.000  0.000  0.276
    2  0.109  0.169  0.000  0.000  0.000  0.000  0.000  0.000  0.000  0.278
tot    0.218  0.335  0.000  0.000  0.000  0.000  0.000  0.000  0.000  0.554
 
band    11 # energy   18.42649273 # occ.  0.00000000
 
ion      s     py     pz     px    dxy    dyz    dz2    dxz  x2-y2    tot
    1  0.000  0.000  0.073  0.002  0.000  0.000  0.000  0.000  0.000  0.075
    2  0.000  0.000  0.020  0.054  0.000  0.000  0.000  0.000  0.000  0.075
tot    0.000  0.000  0.094  0.056  0.000  0.000  0.000  0.000  0.000  0.150
 
band    12 # energy   18.43155807 # occ.  0.00000000
 
ion      s     py     pz     px    dxy    dyz    dz2    dxz  x2-y2    tot
    1  0.000  0.001  0.002  0.073  0.000  0.000  0.000  0.000  0.000  0.075
    2  0.000  0.001  0.054  0.020  0.000  0.000  0.000  0.000  0.000  0.075
tot    0.000  0.002  0.056  0.093  0.000  0.000  0.000  0.000  0.000  0.150
 

 k-point    66 :    0.41428571 0.00000000 0.41428571     weight = 0.00555556

band     1 # energy   -3.22615601 # occ.  2.00000000
 
ion      s     py     pz     px    dxy    dyz    dz2    dxz  x2-y2    tot
    1  0.199  0.032  0.000  0.000  0.000  0.000  0.000  0.000  0.000  0.231
    2  0.199  0.032  0.000  0.000  0.000  0.000  0.000  0.000  0.000  0.231
tot    0.399  0.063  0.000  0.000  0.000  0.000  0.000  0.000  0.000  0.462
 
band     2 # energy   -0.58747631 # occ.  2.00000000
 
ion      s     py     pz     px    dxy    dyz    dz2    dxz  x2-y2    tot
    1  0.185  0.062  0.000  0.000  0.000  0.000  0.000  0.000  0.000  0.247
    2  0.185  0.062  0.000  0.000  0.000  0.000  0.000  0.000  0.000  0.247
tot    0.371  0.123  0.000  0.000  0.000  0.000  0.000  0.000  0.000  0.494
 
band     3 # energy    3.09698232 # occ.  2.00000000
 
ion      s     py     pz     px    dxy    dyz    dz2    dxz  x2-y2    tot
    1  0.000  0.000  0.099  0.098  0.000  0.000  0.000  0.000  0.000  0.198
    2  0.000  0.000  0.098  0.100  0.000  0.000  0.000  0.000  0.000  0.198
tot    0.000  0.000  0.197  0.198  0.000  0.000  0.000  0.000  0.000  0.395
 
band     4 # energy    3.09698239 # occ.  2.00000000
 
ion      s     py     pz     px    dxy    dyz    dz2    dxz  x2-y2    tot
    1  0.000  0.000  0.098  0.099  0.000  0.000  0.000  0.000  0.000  0.198
    2  0.000  0.000  0.100  0.098  0.000  0.000  0.000  0.000  0.000  0.198
tot    0.000  0.000  0.198  0.197  0.000  0.000  0.000  0.000  0.000  0.395
 
band     5 # energy    6.40404683 # occ.  0.00000000
 
ion      s     py     pz     px    dxy    dyz    dz2    dxz  x2-y2    tot
    1  0.053  0.044  0.000  0.000  0.000  0.000  0.000  0.000  0.000  0.097
    2  0.053  0.044  0.000  0.000  0.000  0.000  0.000  0.000  0.000  0.097
tot    0.107  0.088  0.000  0.000  0.000  0.000  0.000  0.000  0.000  0.195
 
band     6 # energy    7.02573933 # occ.  0.00000000
 
ion      s     py     pz     px    dxy    dyz    dz2    dxz  x2-y2    tot
    1  0.047  0.030  0.000  0.000  0.000  0.000  0.000  0.000  0.000  0.078
    2  0.047  0.030  0.000  0.000  0.000  0.000  0.000  0.000  0.000  0.078
tot    0.095  0.061  0.000  0.000  0.000  0.000  0.000  0.000  0.000  0.155
 
band     7 # energy   14.61787057 # occ.  0.00000000
 
ion      s     py     pz     px    dxy    dyz    dz2    dxz  x2-y2    tot
    1  0.000  0.000  0.159  0.009  0.000  0.000  0.000  0.000  0.000  0.168
    2  0.000  0.000  0.032  0.136  0.000  0.000  0.000  0.000  0.000  0.168
tot    0.000  0.000  0.190  0.145  0.000  0.000  0.000  0.000  0.000  0.335
 
band     8 # energy   14.61787195 # occ.  0.00000000
 
ion      s     py     pz     px    dxy    dyz    dz2    dxz  x2-y2    tot
    1  0.000  0.000  0.009  0.159  0.000  0.000  0.000  0.000  0.000  0.168
    2  0.000  0.000  0.136  0.032  0.000  0.000  0.000  0.000  0.000  0.168
tot    0.000  0.000  0.145  0.190  0.000  0.000  0.000  0.000  0.000  0.335
 
band     9 # energy   16.86162693 # occ.  0.00000000
 
ion      s     py     pz     px    dxy    dyz    dz2    dxz  x2-y2    tot
    1  0.000  0.000  0.000  0.000  0.000  0.000  0.000  0.000  0.000  0.000
    2  0.000  0.000  0.000  0.000  0.000  0.000  0.000  0.000  0.000  0.000
tot    0.000  0.000  0.000  0.000  0.000  0.000  0.000  0.000  0.000  0.000
 
band    10 # energy   17.36823408 # occ.  0.00000000
 
ion      s     py     pz     px    dxy    dyz    dz2    dxz  x2-y2    tot
    1  0.103  0.174  0.000  0.000  0.000  0.000  0.000  0.000  0.000  0.277
    2  0.103  0.174  0.000  0.000  0.000  0.000  0.000  0.000  0.000  0.277
tot    0.206  0.348  0.000  0.000  0.000  0.000  0.000  0.000  0.000  0.553
 
band    11 # energy   18.16232245 # occ.  0.00000000
 
ion      s     py     pz     px    dxy    dyz    dz2    dxz  x2-y2    tot
    1  0.000  0.000  0.009  0.067  0.000  0.000  0.000  0.000  0.000  0.076
    2  0.000  0.000  0.044  0.032  0.000  0.000  0.000  0.000  0.000  0.076
tot    0.000  0.000  0.053  0.100  0.000  0.000  0.000  0.000  0.000  0.153
 
band    12 # energy   18.16234709 # occ.  0.00000000
 
ion      s     py     pz     px    dxy    dyz    dz2    dxz  x2-y2    tot
    1  0.000  0.000  0.068  0.009  0.000  0.000  0.000  0.000  0.000  0.076
    2  0.000  0.000  0.032  0.044  0.000  0.000  0.000  0.000  0.000  0.076
tot    0.000  0.000  0.100  0.053  0.000  0.000  0.000  0.000  0.000  0.153
 

 k-point    67 :    0.42857143 0.00000000 0.42857143     weight = 0.00555556

band     1 # energy   -3.03141403 # occ.  2.00000000
 
ion      s     py     pz     px    dxy    dyz    dz2    dxz  x2-y2    tot
    1  0.198  0.034  0.000  0.000  0.000  0.000  0.000  0.000  0.000  0.232
    2  0.198  0.034  0.000  0.000  0.000  0.000  0.000  0.000  0.000  0.232
tot    0.397  0.068  0.000  0.000  0.000  0.000  0.000  0.000  0.000  0.464
 
band     2 # energy   -0.82857043 # occ.  2.00000000
 
ion      s     py     pz     px    dxy    dyz    dz2    dxz  x2-y2    tot
    1  0.187  0.059  0.000  0.000  0.000  0.000  0.000  0.000  0.000  0.246
    2  0.187  0.059  0.000  0.000  0.000  0.000  0.000  0.000  0.000  0.246
tot    0.374  0.117  0.000  0.000  0.000  0.000  0.000  0.000  0.000  0.491
 
band     3 # energy    3.06165970 # occ.  2.00000000
 
ion      s     py     pz     px    dxy    dyz    dz2    dxz  x2-y2    tot
    1  0.000  0.000  0.097  0.100  0.000  0.000  0.000  0.000  0.000  0.198
    2  0.000  0.000  0.100  0.098  0.000  0.000  0.000  0.000  0.000  0.198
tot    0.000  0.000  0.197  0.198  0.000  0.000  0.000  0.000  0.000  0.395
 
band     4 # energy    3.06165976 # occ.  2.00000000
 
ion      s     py     pz     px    dxy    dyz    dz2    dxz  x2-y2    tot
    1  0.000  0.000  0.100  0.097  0.000  0.000  0.000  0.000  0.000  0.198
    2  0.000  0.000  0.098  0.100  0.000  0.000  0.000  0.000  0.000  0.198
tot    0.000  0.000  0.198  0.197  0.000  0.000  0.000  0.000  0.000  0.395
 
band     5 # energy    6.40433101 # occ.  0.00000000
 
ion      s     py     pz     px    dxy    dyz    dz2    dxz  x2-y2    tot
    1  0.053  0.042  0.000  0.000  0.000  0.000  0.000  0.000  0.000  0.096
    2  0.053  0.042  0.000  0.000  0.000  0.000  0.000  0.000  0.000  0.096
tot    0.107  0.085  0.000  0.000  0.000  0.000  0.000  0.000  0.000  0.191
 
band     6 # energy    6.91961793 # occ.  0.00000000
 
ion      s     py     pz     px    dxy    dyz    dz2    dxz  x2-y2    tot
    1  0.048  0.031  0.000  0.000  0.000  0.000  0.000  0.000  0.000  0.079
    2  0.048  0.031  0.000  0.000  0.000  0.000  0.000  0.000  0.000  0.079
tot    0.096  0.062  0.000  0.000  0.000  0.000  0.000  0.000  0.000  0.158
 
band     7 # energy   14.88770193 # occ.  0.00000000
 
ion      s     py     pz     px    dxy    dyz    dz2    dxz  x2-y2    tot
    1  0.000  0.000  0.164  0.006  0.000  0.000  0.000  0.000  0.000  0.170
    2  0.000  0.000  0.003  0.167  0.000  0.000  0.000  0.000  0.000  0.170
tot    0.000  0.000  0.167  0.173  0.000  0.000  0.000  0.000  0.000  0.341
 
band     8 # energy   14.88773590 # occ.  0.00000000
 
ion      s     py     pz     px    dxy    dyz    dz2    dxz  x2-y2    tot
    1  0.000  0.000  0.006  0.164  0.000  0.000  0.000  0.000  0.000  0.170
    2  0.000  0.000  0.167  0.003  0.000  0.000  0.000  0.000  0.000  0.170
tot    0.000  0.000  0.173  0.167  0.000  0.000  0.000  0.000  0.000  0.341
 
band     9 # energy   17.09237656 # occ.  0.00000000
 
ion      s     py     pz     px    dxy    dyz    dz2    dxz  x2-y2    tot
    1  0.000  0.000  0.000  0.000  0.000  0.000  0.000  0.000  0.000  0.000
    2  0.000  0.000  0.000  0.000  0.000  0.000  0.000  0.000  0.000  0.000
tot    0.000  0.000  0.000  0.000  0.000  0.000  0.000  0.000  0.000  0.000
 
band    10 # energy   17.64775380 # occ.  0.00000000
 
ion      s     py     pz     px    dxy    dyz    dz2    dxz  x2-y2    tot
    1  0.096  0.181  0.000  0.000  0.000  0.000  0.000  0.000  0.000  0.277
    2  0.096  0.179  0.000  0.000  0.000  0.000  0.000  0.000  0.000  0.275
tot    0.192  0.360  0.000  0.000  0.000  0.000  0.000  0.000  0.000  0.552
 
band    11 # energy   17.89231743 # occ.  0.00000000
 
ion      s     py     pz     px    dxy    dyz    dz2    dxz  x2-y2    tot
    1  0.000  0.000  0.004  0.072  0.000  0.000  0.000  0.000  0.000  0.076
    2  0.000  0.000  0.056  0.020  0.000  0.000  0.000  0.000  0.000  0.076
tot    0.000  0.000  0.060  0.092  0.000  0.000  0.000  0.000  0.000  0.152
 
band    12 # energy   17.89559427 # occ.  0.00000000
 
ion      s     py     pz     px    dxy    dyz    dz2    dxz  x2-y2    tot
    1  0.000  0.000  0.072  0.004  0.000  0.000  0.000  0.000  0.000  0.076
    2  0.000  0.000  0.020  0.056  0.000  0.000  0.000  0.000  0.000  0.076
tot    0.000  0.000  0.092  0.060  0.000  0.000  0.000  0.000  0.000  0.152
 

 k-point    68 :    0.44285714 0.00000000 0.44285714     weight = 0.00555556

band     1 # energy   -2.83147570 # occ.  2.00000000
 
ion      s     py     pz     px    dxy    dyz    dz2    dxz  x2-y2    tot
    1  0.197  0.036  0.000  0.000  0.000  0.000  0.000  0.000  0.000  0.233
    2  0.197  0.036  0.000  0.000  0.000  0.000  0.000  0.000  0.000  0.233
tot    0.395  0.072  0.000  0.000  0.000  0.000  0.000  0.000  0.000  0.467
 
band     2 # energy   -1.06660405 # occ.  2.00000000
 
ion      s     py     pz     px    dxy    dyz    dz2    dxz  x2-y2    tot
    1  0.188  0.056  0.000  0.000  0.000  0.000  0.000  0.000  0.000  0.244
    2  0.188  0.056  0.000  0.000  0.000  0.000  0.000  0.000  0.000  0.244
tot    0.377  0.112  0.000  0.000  0.000  0.000  0.000  0.000  0.000  0.488
 
band     3 # energy    3.03270672 # occ.  2.00000000
 
ion      s     py     pz     px    dxy    dyz    dz2    dxz  x2-y2    tot
    1  0.000  0.000  0.099  0.099  0.000  0.000  0.000  0.000  0.000  0.198
    2  0.000  0.000  0.099  0.099  0.000  0.000  0.000  0.000  0.000  0.198
tot    0.000  0.000  0.198  0.198  0.000  0.000  0.000  0.000  0.000  0.395
 
band     4 # energy    3.03270678 # occ.  2.00000000
 
ion      s     py     pz     px    dxy    dyz    dz2    dxz  x2-y2    tot
    1  0.000  0.000  0.099  0.099  0.000  0.000  0.000  0.000  0.000  0.198
    2  0.000  0.000  0.099  0.099  0.000  0.000  0.000  0.000  0.000  0.198
tot    0.000  0.000  0.198  0.198  0.000  0.000  0.000  0.000  0.000  0.395
 
band     5 # energy    6.41340523 # occ.  0.00000000
 
ion      s     py     pz     px    dxy    dyz    dz2    dxz  x2-y2    tot
    1  0.053  0.041  0.000  0.000  0.000  0.000  0.000  0.000  0.000  0.094
    2  0.053  0.041  0.000  0.000  0.000  0.000  0.000  0.000  0.000  0.094
tot    0.106  0.081  0.000  0.000  0.000  0.000  0.000  0.000  0.000  0.188
 
band     6 # energy    6.82372122 # occ.  0.00000000
 
ion      s     py     pz     px    dxy    dyz    dz2    dxz  x2-y2    tot
    1  0.049  0.031  0.000  0.000  0.000  0.000  0.000  0.000  0.000  0.080
    2  0.049  0.031  0.000  0.000  0.000  0.000  0.000  0.000  0.000  0.080
tot    0.098  0.063  0.000  0.000  0.000  0.000  0.000  0.000  0.000  0.161
 
band     7 # energy   15.15503990 # occ.  0.00000000
 
ion      s     py     pz     px    dxy    dyz    dz2    dxz  x2-y2    tot
    1  0.000  0.000  0.117  0.058  0.000  0.000  0.000  0.000  0.000  0.175
    2  0.000  0.000  0.095  0.080  0.000  0.000  0.000  0.000  0.000  0.175
tot    0.000  0.000  0.213  0.137  0.000  0.000  0.000  0.000  0.000  0.350
 
band     8 # energy   15.15504217 # occ.  0.00000000
 
ion      s     py     pz     px    dxy    dyz    dz2    dxz  x2-y2    tot
    1  0.000  0.000  0.058  0.117  0.000  0.000  0.000  0.000  0.000  0.175
    2  0.000  0.000  0.080  0.095  0.000  0.000  0.000  0.000  0.000  0.175
tot    0.000  0.000  0.137  0.213  0.000  0.000  0.000  0.000  0.000  0.350
 
band     9 # energy   17.33037263 # occ.  0.00000000
 
ion      s     py     pz     px    dxy    dyz    dz2    dxz  x2-y2    tot
    1  0.000  0.000  0.000  0.000  0.000  0.000  0.000  0.000  0.000  0.000
    2  0.000  0.000  0.000  0.000  0.000  0.000  0.000  0.000  0.000  0.000
tot    0.000  0.000  0.000  0.000  0.000  0.000  0.000  0.000  0.000  0.000
 
band    10 # energy   17.61880303 # occ.  0.00000000
 
ion      s     py     pz     px    dxy    dyz    dz2    dxz  x2-y2    tot
    1  0.000  0.000  0.009  0.065  0.000  0.000  0.000  0.000  0.000  0.073
    2  0.000  0.000  0.028  0.045  0.000  0.000  0.000  0.000  0.000  0.073
tot    0.000  0.000  0.036  0.110  0.000  0.000  0.000  0.000  0.000  0.146
 
band    11 # energy   17.61885061 # occ.  0.00000000
 
ion      s     py     pz     px    dxy    dyz    dz2    dxz  x2-y2    tot
    1  0.000  0.000  0.065  0.009  0.000  0.000  0.000  0.000  0.000  0.073
    2  0.000  0.000  0.046  0.028  0.000  0.000  0.000  0.000  0.000  0.073
tot    0.000  0.000  0.110  0.036  0.000  0.000  0.000  0.000  0.000  0.147
 
band    12 # energy   17.91950848 # occ.  0.00000000
 
ion      s     py     pz     px    dxy    dyz    dz2    dxz  x2-y2    tot
    1  0.089  0.185  0.000  0.000  0.000  0.000  0.000  0.000  0.000  0.274
    2  0.089  0.187  0.000  0.000  0.000  0.000  0.000  0.000  0.000  0.276
tot    0.178  0.372  0.000  0.000  0.000  0.000  0.000  0.000  0.000  0.550
 

 k-point    69 :    0.45714286 0.00000000 0.45714286     weight = 0.00555556

band     1 # energy   -2.62648248 # occ.  2.00000000
 
ion      s     py     pz     px    dxy    dyz    dz2    dxz  x2-y2    tot
    1  0.196  0.038  0.000  0.000  0.000  0.000  0.000  0.000  0.000  0.235
    2  0.196  0.038  0.000  0.000  0.000  0.000  0.000  0.000  0.000  0.235
tot    0.393  0.077  0.000  0.000  0.000  0.000  0.000  0.000  0.000  0.469
 
band     2 # energy   -1.30130881 # occ.  2.00000000
 
ion      s     py     pz     px    dxy    dyz    dz2    dxz  x2-y2    tot
    1  0.190  0.053  0.000  0.000  0.000  0.000  0.000  0.000  0.000  0.243
    2  0.190  0.053  0.000  0.000  0.000  0.000  0.000  0.000  0.000  0.243
tot    0.379  0.106  0.000  0.000  0.000  0.000  0.000  0.000  0.000  0.486
 
band     3 # energy    3.01015884 # occ.  2.00000000
 
ion      s     py     pz     px    dxy    dyz    dz2    dxz  x2-y2    tot
    1  0.000  0.000  0.099  0.099  0.000  0.000  0.000  0.000  0.000  0.198
    2  0.000  0.000  0.099  0.099  0.000  0.000  0.000  0.000  0.000  0.198
tot    0.000  0.000  0.198  0.198  0.000  0.000  0.000  0.000  0.000  0.395
 
band     4 # energy    3.01015891 # occ.  2.00000000
 
ion      s     py     pz     px    dxy    dyz    dz2    dxz  x2-y2    tot
    1  0.000  0.000  0.099  0.099  0.000  0.000  0.000  0.000  0.000  0.198
    2  0.000  0.000  0.099  0.099  0.000  0.000  0.000  0.000  0.000  0.198
tot    0.000  0.000  0.198  0.198  0.000  0.000  0.000  0.000  0.000  0.395
 
band     5 # energy    6.43130998 # occ.  0.00000000
 
ion      s     py     pz     px    dxy    dyz    dz2    dxz  x2-y2    tot
    1  0.053  0.039  0.000  0.000  0.000  0.000  0.000  0.000  0.000  0.092
    2  0.053  0.039  0.000  0.000  0.000  0.000  0.000  0.000  0.000  0.092
tot    0.106  0.078  0.000  0.000  0.000  0.000  0.000  0.000  0.000  0.184
 
band     6 # energy    6.73796130 # occ.  0.00000000
 
ion      s     py     pz     px    dxy    dyz    dz2    dxz  x2-y2    tot
    1  0.050  0.032  0.000  0.000  0.000  0.000  0.000  0.000  0.000  0.082
    2  0.050  0.032  0.000  0.000  0.000  0.000  0.000  0.000  0.000  0.082
tot    0.100  0.064  0.000  0.000  0.000  0.000  0.000  0.000  0.000  0.164
 
band     7 # energy   15.41592766 # occ.  0.00000000
 
ion      s     py     pz     px    dxy    dyz    dz2    dxz  x2-y2    tot
    1  0.000  0.000  0.038  0.146  0.000  0.000  0.000  0.000  0.000  0.183
    2  0.000  0.000  0.147  0.036  0.000  0.000  0.000  0.000  0.000  0.183
tot    0.000  0.000  0.185  0.182  0.000  0.000  0.000  0.000  0.000  0.367
 
band     8 # energy   15.41593702 # occ.  0.00000000
 
ion      s     py     pz     px    dxy    dyz    dz2    dxz  x2-y2    tot
    1  0.000  0.000  0.146  0.038  0.000  0.000  0.000  0.000  0.000  0.183
    2  0.000  0.000  0.036  0.147  0.000  0.000  0.000  0.000  0.000  0.183
tot    0.000  0.000  0.182  0.185  0.000  0.000  0.000  0.000  0.000  0.367
 
band     9 # energy   17.35225213 # occ.  0.00000000
 
ion      s     py     pz     px    dxy    dyz    dz2    dxz  x2-y2    tot
    1  0.000  0.000  0.027  0.039  0.000  0.000  0.000  0.000  0.000  0.066
    2  0.000  0.000  0.035  0.031  0.000  0.000  0.000  0.000  0.000  0.066
tot    0.000  0.000  0.063  0.070  0.000  0.000  0.000  0.000  0.000  0.133
 
band    10 # energy   17.35225560 # occ.  0.00000000
 
ion      s     py     pz     px    dxy    dyz    dz2    dxz  x2-y2    tot
    1  0.000  0.000  0.039  0.027  0.000  0.000  0.000  0.000  0.000  0.066
    2  0.000  0.000  0.031  0.035  0.000  0.000  0.000  0.000  0.000  0.066
tot    0.000  0.000  0.070  0.063  0.000  0.000  0.000  0.000  0.000  0.133
 
band    11 # energy   17.57602395 # occ.  0.00000000
 
ion      s     py     pz     px    dxy    dyz    dz2    dxz  x2-y2    tot
    1  0.000  0.000  0.000  0.000  0.000  0.000  0.000  0.000  0.000  0.000
    2  0.000  0.000  0.000  0.000  0.000  0.000  0.000  0.000  0.000  0.000
tot    0.000  0.000  0.000  0.000  0.000  0.000  0.000  0.000  0.000  0.000
 
band    12 # energy   18.18219902 # occ.  0.00000000
 
ion      s     py     pz     px    dxy    dyz    dz2    dxz  x2-y2    tot
    1  0.082  0.193  0.000  0.000  0.000  0.000  0.000  0.000  0.000  0.275
    2  0.082  0.191  0.000  0.000  0.000  0.000  0.000  0.000  0.000  0.273
tot    0.164  0.384  0.000  0.000  0.000  0.000  0.000  0.000  0.000  0.548
 

 k-point    70 :    0.47142857 0.00000000 0.47142857     weight = 0.00555556

band     1 # energy   -2.41661810 # occ.  2.00000000
 
ion      s     py     pz     px    dxy    dyz    dz2    dxz  x2-y2    tot
    1  0.195  0.041  0.000  0.000  0.000  0.000  0.000  0.000  0.000  0.236
    2  0.195  0.041  0.000  0.000  0.000  0.000  0.000  0.000  0.000  0.236
tot    0.391  0.081  0.000  0.000  0.000  0.000  0.000  0.000  0.000  0.472
 
band     2 # energy   -1.53244010 # occ.  2.00000000
 
ion      s     py     pz     px    dxy    dyz    dz2    dxz  x2-y2    tot
    1  0.191  0.051  0.000  0.000  0.000  0.000  0.000  0.000  0.000  0.241
    2  0.191  0.051  0.000  0.000  0.000  0.000  0.000  0.000  0.000  0.241
tot    0.382  0.101  0.000  0.000  0.000  0.000  0.000  0.000  0.000  0.483
 
band     3 # energy    2.99404675 # occ.  2.00000000
 
ion      s     py     pz     px    dxy    dyz    dz2    dxz  x2-y2    tot
    1  0.000  0.000  0.099  0.099  0.000  0.000  0.000  0.000  0.000  0.198
    2  0.000  0.000  0.099  0.099  0.000  0.000  0.000  0.000  0.000  0.198
tot    0.000  0.000  0.198  0.198  0.000  0.000  0.000  0.000  0.000  0.395
 
band     4 # energy    2.99404682 # occ.  2.00000000
 
ion      s     py     pz     px    dxy    dyz    dz2    dxz  x2-y2    tot
    1  0.000  0.000  0.099  0.099  0.000  0.000  0.000  0.000  0.000  0.198
    2  0.000  0.000  0.099  0.099  0.000  0.000  0.000  0.000  0.000  0.198
tot    0.000  0.000  0.198  0.198  0.000  0.000  0.000  0.000  0.000  0.395
 
band     5 # energy    6.45853728 # occ.  0.00000000
 
ion      s     py     pz     px    dxy    dyz    dz2    dxz  x2-y2    tot
    1  0.053  0.037  0.000  0.000  0.000  0.000  0.000  0.000  0.000  0.090
    2  0.053  0.037  0.000  0.000  0.000  0.000  0.000  0.000  0.000  0.090
tot    0.105  0.075  0.000  0.000  0.000  0.000  0.000  0.000  0.000  0.180
 
band     6 # energy    6.66245138 # occ.  0.00000000
 
ion      s     py     pz     px    dxy    dyz    dz2    dxz  x2-y2    tot
    1  0.050  0.033  0.000  0.000  0.000  0.000  0.000  0.000  0.000  0.083
    2  0.050  0.033  0.000  0.000  0.000  0.000  0.000  0.000  0.000  0.083
tot    0.101  0.066  0.000  0.000  0.000  0.000  0.000  0.000  0.000  0.167
 
band     7 # energy   15.66076588 # occ.  0.00000000
 
ion      s     py     pz     px    dxy    dyz    dz2    dxz  x2-y2    tot
    1  0.000  0.000  0.122  0.076  0.000  0.000  0.000  0.000  0.000  0.198
    2  0.000  0.000  0.060  0.138  0.000  0.000  0.000  0.000  0.000  0.198
tot    0.000  0.000  0.182  0.214  0.000  0.000  0.000  0.000  0.000  0.396
 
band     8 # energy   15.66079374 # occ.  0.00000000
 
ion      s     py     pz     px    dxy    dyz    dz2    dxz  x2-y2    tot
    1  0.000  0.000  0.076  0.122  0.000  0.000  0.000  0.000  0.000  0.198
    2  0.000  0.000  0.138  0.060  0.000  0.000  0.000  0.000  0.000  0.198
tot    0.000  0.000  0.214  0.182  0.000  0.000  0.000  0.000  0.000  0.396
 
band     9 # energy   17.10241365 # occ.  0.00000000
 
ion      s     py     pz     px    dxy    dyz    dz2    dxz  x2-y2    tot
    1  0.000  0.000  0.028  0.025  0.000  0.000  0.000  0.000  0.000  0.053
    2  0.000  0.000  0.015  0.037  0.000  0.000  0.000  0.000  0.000  0.053
tot    0.000  0.000  0.043  0.062  0.000  0.000  0.000  0.000  0.000  0.105
 
band    10 # energy   17.10241963 # occ.  0.00000000
 
ion      s     py     pz     px    dxy    dyz    dz2    dxz  x2-y2    tot
    1  0.000  0.000  0.025  0.028  0.000  0.000  0.000  0.000  0.000  0.053
    2  0.000  0.000  0.037  0.015  0.000  0.000  0.000  0.000  0.000  0.053
tot    0.000  0.000  0.062  0.043  0.000  0.000  0.000  0.000  0.000  0.105
 
band    11 # energy   17.82922362 # occ.  0.00000000
 
ion      s     py     pz     px    dxy    dyz    dz2    dxz  x2-y2    tot
    1  0.000  0.000  0.000  0.000  0.000  0.000  0.000  0.000  0.000  0.000
    2  0.000  0.000  0.000  0.000  0.000  0.000  0.000  0.000  0.000  0.000
tot    0.000  0.000  0.000  0.000  0.000  0.000  0.000  0.000  0.000  0.000
 
band    12 # energy   18.43468765 # occ.  0.00000000
 
ion      s     py     pz     px    dxy    dyz    dz2    dxz  x2-y2    tot
    1  0.075  0.197  0.000  0.000  0.000  0.000  0.000  0.000  0.000  0.272
    2  0.074  0.199  0.000  0.000  0.000  0.000  0.000  0.000  0.000  0.272
tot    0.148  0.396  0.000  0.000  0.000  0.000  0.000  0.000  0.000  0.544
 

 k-point    71 :    0.48571429 0.00000000 0.48571429     weight = 0.00555556

band     1 # energy   -2.20207374 # occ.  2.00000000
 
ion      s     py     pz     px    dxy    dyz    dz2    dxz  x2-y2    tot
    1  0.194  0.043  0.000  0.000  0.000  0.000  0.000  0.000  0.000  0.237
    2  0.194  0.043  0.000  0.000  0.000  0.000  0.000  0.000  0.000  0.237
tot    0.389  0.086  0.000  0.000  0.000  0.000  0.000  0.000  0.000  0.475
 
band     2 # energy   -1.75975802 # occ.  2.00000000
 
ion      s     py     pz     px    dxy    dyz    dz2    dxz  x2-y2    tot
    1  0.192  0.048  0.000  0.000  0.000  0.000  0.000  0.000  0.000  0.240
    2  0.192  0.048  0.000  0.000  0.000  0.000  0.000  0.000  0.000  0.240
tot    0.384  0.096  0.000  0.000  0.000  0.000  0.000  0.000  0.000  0.480
 
band     3 # energy    2.98437437 # occ.  2.00000000
 
ion      s     py     pz     px    dxy    dyz    dz2    dxz  x2-y2    tot
    1  0.000  0.000  0.099  0.099  0.000  0.000  0.000  0.000  0.000  0.198
    2  0.000  0.000  0.099  0.099  0.000  0.000  0.000  0.000  0.000  0.198
tot    0.000  0.000  0.198  0.198  0.000  0.000  0.000  0.000  0.000  0.395
 
band     4 # energy    2.98437443 # occ.  2.00000000
 
ion      s     py     pz     px    dxy    dyz    dz2    dxz  x2-y2    tot
    1  0.000  0.000  0.099  0.099  0.000  0.000  0.000  0.000  0.000  0.198
    2  0.000  0.000  0.099  0.099  0.000  0.000  0.000  0.000  0.000  0.198
tot    0.000  0.000  0.198  0.198  0.000  0.000  0.000  0.000  0.000  0.395
 
band     5 # energy    6.49510174 # occ.  0.00000000
 
ion      s     py     pz     px    dxy    dyz    dz2    dxz  x2-y2    tot
    1  0.052  0.036  0.000  0.000  0.000  0.000  0.000  0.000  0.000  0.088
    2  0.052  0.036  0.000  0.000  0.000  0.000  0.000  0.000  0.000  0.088
tot    0.105  0.072  0.000  0.000  0.000  0.000  0.000  0.000  0.000  0.177
 
band     6 # energy    6.59690184 # occ.  0.00000000
 
ion      s     py     pz     px    dxy    dyz    dz2    dxz  x2-y2    tot
    1  0.051  0.034  0.000  0.000  0.000  0.000  0.000  0.000  0.000  0.085
    2  0.051  0.034  0.000  0.000  0.000  0.000  0.000  0.000  0.000  0.085
tot    0.102  0.068  0.000  0.000  0.000  0.000  0.000  0.000  0.000  0.170
 
band     7 # energy   15.86246663 # occ.  0.00000000
 
ion      s     py     pz     px    dxy    dyz    dz2    dxz  x2-y2    tot
    1  0.000  0.000  0.133  0.089  0.000  0.000  0.000  0.000  0.000  0.222
    2  0.000  0.000  0.109  0.113  0.000  0.000  0.000  0.000  0.000  0.222
tot    0.000  0.000  0.242  0.201  0.000  0.000  0.000  0.000  0.000  0.443
 
band     8 # energy   15.86252096 # occ.  0.00000000
 
ion      s     py     pz     px    dxy    dyz    dz2    dxz  x2-y2    tot
    1  0.000  0.000  0.088  0.133  0.000  0.000  0.000  0.000  0.000  0.222
    2  0.000  0.000  0.113  0.109  0.000  0.000  0.000  0.000  0.000  0.222
tot    0.000  0.000  0.201  0.242  0.000  0.000  0.000  0.000  0.000  0.443
 
band     9 # energy   16.89733739 # occ.  0.00000000
 
ion      s     py     pz     px    dxy    dyz    dz2    dxz  x2-y2    tot
    1  0.000  0.000  0.011  0.018  0.000  0.000  0.000  0.000  0.000  0.029
    2  0.000  0.000  0.012  0.018  0.000  0.000  0.000  0.000  0.000  0.029
tot    0.000  0.000  0.022  0.036  0.000  0.000  0.000  0.000  0.000  0.059
 
band    10 # energy   16.89735153 # occ.  0.00000000
 
ion      s     py     pz     px    dxy    dyz    dz2    dxz  x2-y2    tot
    1  0.000  0.000  0.018  0.011  0.000  0.000  0.000  0.000  0.000  0.029
    2  0.000  0.000  0.018  0.012  0.000  0.000  0.000  0.000  0.000  0.029
tot    0.000  0.000  0.036  0.022  0.000  0.000  0.000  0.000  0.000  0.058
 
band    11 # energy   18.09061146 # occ.  0.00000000
 
ion      s     py     pz     px    dxy    dyz    dz2    dxz  x2-y2    tot
    1  0.000  0.000  0.000  0.000  0.000  0.000  0.000  0.000  0.000  0.000
    2  0.000  0.000  0.000  0.000  0.000  0.000  0.000  0.000  0.000  0.000
tot    0.000  0.000  0.000  0.000  0.000  0.000  0.000  0.000  0.000  0.000
 
band    12 # energy   18.63796664 # occ.  0.00000000
 
ion      s     py     pz     px    dxy    dyz    dz2    dxz  x2-y2    tot
    1  0.006  0.020  0.000  0.000  0.000  0.000  0.000  0.000  0.000  0.027
    2  0.007  0.019  0.000  0.000  0.000  0.000  0.000  0.000  0.000  0.026
tot    0.013  0.039  0.000  0.000  0.000  0.000  0.000  0.000  0.000  0.052
 

 k-point    72 :    0.50000000 0.00000000 0.50000000     weight = 0.00555556

band     1 # energy   -1.98304968 # occ.  2.00000000
 
ion      s     py     pz     px    dxy    dyz    dz2    dxz  x2-y2    tot
    1  0.196  0.045  0.000  0.000  0.000  0.000  0.000  0.000  0.000  0.241
    2  0.191  0.046  0.000  0.000  0.000  0.000  0.000  0.000  0.000  0.237
tot    0.387  0.091  0.000  0.000  0.000  0.000  0.000  0.000  0.000  0.477
 
band     2 # energy   -1.98304968 # occ.  2.00000000
 
ion      s     py     pz     px    dxy    dyz    dz2    dxz  x2-y2    tot
    1  0.191  0.046  0.000  0.000  0.000  0.000  0.000  0.000  0.000  0.237
    2  0.196  0.045  0.000  0.000  0.000  0.000  0.000  0.000  0.000  0.241
tot    0.387  0.091  0.000  0.000  0.000  0.000  0.000  0.000  0.000  0.477
 
band     3 # energy    2.98114952 # occ.  2.00000000
 
ion      s     py     pz     px    dxy    dyz    dz2    dxz  x2-y2    tot
    1  0.000  0.000  0.099  0.099  0.000  0.000  0.000  0.000  0.000  0.198
    2  0.000  0.000  0.099  0.099  0.000  0.000  0.000  0.000  0.000  0.198
tot    0.000  0.000  0.198  0.198  0.000  0.000  0.000  0.000  0.000  0.395
 
band     4 # energy    2.98114958 # occ.  2.00000000
 
ion      s     py     pz     px    dxy    dyz    dz2    dxz  x2-y2    tot
    1  0.000  0.000  0.099  0.099  0.000  0.000  0.000  0.000  0.000  0.198
    2  0.000  0.000  0.099  0.099  0.000  0.000  0.000  0.000  0.000  0.198
tot    0.000  0.000  0.198  0.198  0.000  0.000  0.000  0.000  0.000  0.395
 
band     5 # energy    6.54117028 # occ.  0.00000000
 
ion      s     py     pz     px    dxy    dyz    dz2    dxz  x2-y2    tot
    1  0.055  0.032  0.000  0.000  0.000  0.000  0.000  0.000  0.000  0.088
    2  0.048  0.037  0.000  0.000  0.000  0.000  0.000  0.000  0.000  0.085
tot    0.104  0.070  0.000  0.000  0.000  0.000  0.000  0.000  0.000  0.173
 
band     6 # energy    6.54117028 # occ.  0.00000000
 
ion      s     py     pz     px    dxy    dyz    dz2    dxz  x2-y2    tot
    1  0.048  0.037  0.000  0.000  0.000  0.000  0.000  0.000  0.000  0.085
    2  0.055  0.032  0.000  0.000  0.000  0.000  0.000  0.000  0.000  0.088
tot    0.104  0.070  0.000  0.000  0.000  0.000  0.000  0.000  0.000  0.173
 
band     7 # energy   15.95082415 # occ.  0.00000000
 
ion      s     py     pz     px    dxy    dyz    dz2    dxz  x2-y2    tot
    1  0.000  0.000  0.095  0.145  0.000  0.000  0.000  0.000  0.000  0.240
    2  0.000  0.000  0.145  0.095  0.000  0.000  0.000  0.000  0.000  0.240
tot    0.000  0.000  0.240  0.240  0.000  0.000  0.000  0.000  0.000  0.480
 
band     8 # energy   15.95083300 # occ.  0.00000000
 
ion      s     py     pz     px    dxy    dyz    dz2    dxz  x2-y2    tot
    1  0.000  0.000  0.145  0.095  0.000  0.000  0.000  0.000  0.000  0.240
    2  0.000  0.000  0.095  0.145  0.000  0.000  0.000  0.000  0.000  0.240
tot    0.000  0.000  0.240  0.240  0.000  0.000  0.000  0.000  0.000  0.480
 
band     9 # energy   16.80779646 # occ.  0.00000000
 
ion      s     py     pz     px    dxy    dyz    dz2    dxz  x2-y2    tot
    1  0.000  0.000  0.010  0.002  0.000  0.000  0.000  0.000  0.000  0.011
    2  0.000  0.000  0.002  0.010  0.000  0.000  0.000  0.000  0.000  0.011
tot    0.000  0.000  0.011  0.011  0.000  0.000  0.000  0.000  0.000  0.023
 
band    10 # energy   16.80781121 # occ.  0.00000000
 
ion      s     py     pz     px    dxy    dyz    dz2    dxz  x2-y2    tot
    1  0.000  0.000  0.002  0.010  0.000  0.000  0.000  0.000  0.000  0.011
    2  0.000  0.000  0.010  0.002  0.000  0.000  0.000  0.000  0.000  0.011
tot    0.000  0.000  0.011  0.011  0.000  0.000  0.000  0.000  0.000  0.023
 
band    11 # energy   18.35829222 # occ.  0.00000000
 
ion      s     py     pz     px    dxy    dyz    dz2    dxz  x2-y2    tot
    1  0.000  0.000  0.000  0.000  0.000  0.000  0.000  0.000  0.000  0.000
    2  0.000  0.000  0.000  0.000  0.000  0.000  0.000  0.000  0.000  0.000
tot    0.000  0.000  0.000  0.000  0.000  0.000  0.000  0.000  0.000  0.000
 
band    12 # energy   18.35830053 # occ.  0.00000000
 
ion      s     py     pz     px    dxy    dyz    dz2    dxz  x2-y2    tot
    1  0.000  0.000  0.000  0.000  0.000  0.000  0.000  0.000  0.000  0.000
    2  0.000  0.000  0.000  0.000  0.000  0.000  0.000  0.000  0.000  0.000
tot    0.000  0.000  0.000  0.000  0.000  0.000  0.000  0.000  0.000  0.000
 

 k-point    73 :    0.50000000 0.00000000 0.50000000     weight = 0.00555556

band     1 # energy   -1.98304968 # occ.  2.00000000
 
ion      s     py     pz     px    dxy    dyz    dz2    dxz  x2-y2    tot
    1  0.194  0.045  0.000  0.000  0.000  0.000  0.000  0.000  0.000  0.239
    2  0.192  0.046  0.000  0.000  0.000  0.000  0.000  0.000  0.000  0.238
tot    0.387  0.091  0.000  0.000  0.000  0.000  0.000  0.000  0.000  0.477
 
band     2 # energy   -1.98304968 # occ.  2.00000000
 
ion      s     py     pz     px    dxy    dyz    dz2    dxz  x2-y2    tot
    1  0.192  0.046  0.000  0.000  0.000  0.000  0.000  0.000  0.000  0.238
    2  0.194  0.045  0.000  0.000  0.000  0.000  0.000  0.000  0.000  0.239
tot    0.387  0.091  0.000  0.000  0.000  0.000  0.000  0.000  0.000  0.477
 
band     3 # energy    2.98114952 # occ.  2.00000000
 
ion      s     py     pz     px    dxy    dyz    dz2    dxz  x2-y2    tot
    1  0.000  0.000  0.099  0.099  0.000  0.000  0.000  0.000  0.000  0.198
    2  0.000  0.000  0.099  0.099  0.000  0.000  0.000  0.000  0.000  0.198
tot    0.000  0.000  0.198  0.198  0.000  0.000  0.000  0.000  0.000  0.395
 
band     4 # energy    2.98114958 # occ.  2.00000000
 
ion      s     py     pz     px    dxy    dyz    dz2    dxz  x2-y2    tot
    1  0.000  0.000  0.099  0.099  0.000  0.000  0.000  0.000  0.000  0.198
    2  0.000  0.000  0.099  0.099  0.000  0.000  0.000  0.000  0.000  0.198
tot    0.000  0.000  0.198  0.198  0.000  0.000  0.000  0.000  0.000  0.395
 
band     5 # energy    6.54117028 # occ.  0.00000000
 
ion      s     py     pz     px    dxy    dyz    dz2    dxz  x2-y2    tot
    1  0.049  0.037  0.000  0.000  0.000  0.000  0.000  0.000  0.000  0.086
    2  0.054  0.033  0.000  0.000  0.000  0.000  0.000  0.000  0.000  0.088
tot    0.104  0.070  0.000  0.000  0.000  0.000  0.000  0.000  0.000  0.173
 
band     6 # energy    6.54117028 # occ.  0.00000000
 
ion      s     py     pz     px    dxy    dyz    dz2    dxz  x2-y2    tot
    1  0.054  0.033  0.000  0.000  0.000  0.000  0.000  0.000  0.000  0.088
    2  0.049  0.037  0.000  0.000  0.000  0.000  0.000  0.000  0.000  0.086
tot    0.104  0.070  0.000  0.000  0.000  0.000  0.000  0.000  0.000  0.173
 
band     7 # energy   15.95082570 # occ.  0.00000000
 
ion      s     py     pz     px    dxy    dyz    dz2    dxz  x2-y2    tot
    1  0.000  0.000  0.126  0.114  0.000  0.000  0.000  0.000  0.000  0.240
    2  0.000  0.000  0.114  0.126  0.000  0.000  0.000  0.000  0.000  0.240
tot    0.000  0.000  0.240  0.240  0.000  0.000  0.000  0.000  0.000  0.480
 
band     8 # energy   15.95083793 # occ.  0.00000000
 
ion      s     py     pz     px    dxy    dyz    dz2    dxz  x2-y2    tot
    1  0.000  0.000  0.114  0.126  0.000  0.000  0.000  0.000  0.000  0.240
    2  0.000  0.000  0.126  0.114  0.000  0.000  0.000  0.000  0.000  0.240
tot    0.000  0.000  0.240  0.240  0.000  0.000  0.000  0.000  0.000  0.480
 
band     9 # energy   16.80780249 # occ.  0.00000000
 
ion      s     py     pz     px    dxy    dyz    dz2    dxz  x2-y2    tot
    1  0.000  0.000  0.002  0.010  0.000  0.000  0.000  0.000  0.000  0.011
    2  0.000  0.000  0.010  0.002  0.000  0.000  0.000  0.000  0.000  0.011
tot    0.000  0.000  0.011  0.011  0.000  0.000  0.000  0.000  0.000  0.023
 
band    10 # energy   16.80782746 # occ.  0.00000000
 
ion      s     py     pz     px    dxy    dyz    dz2    dxz  x2-y2    tot
    1  0.000  0.000  0.010  0.002  0.000  0.000  0.000  0.000  0.000  0.011
    2  0.000  0.000  0.002  0.010  0.000  0.000  0.000  0.000  0.000  0.011
tot    0.000  0.000  0.011  0.011  0.000  0.000  0.000  0.000  0.000  0.023
 
band    11 # energy   18.35868518 # occ.  0.00000000
 
ion      s     py     pz     px    dxy    dyz    dz2    dxz  x2-y2    tot
    1  0.000  0.000  0.000  0.000  0.000  0.000  0.000  0.000  0.000  0.000
    2  0.000  0.000  0.000  0.000  0.000  0.000  0.000  0.000  0.000  0.000
tot    0.000  0.000  0.000  0.000  0.000  0.000  0.000  0.000  0.000  0.000
 
band    12 # energy   18.39837391 # occ.  0.00000000
 
ion      s     py     pz     px    dxy    dyz    dz2    dxz  x2-y2    tot
    1  0.004  0.013  0.000  0.000  0.000  0.000  0.000  0.000  0.000  0.018
    2  0.004  0.015  0.000  0.000  0.000  0.000  0.000  0.000  0.000  0.019
tot    0.008  0.028  0.000  0.000  0.000  0.000  0.000  0.000  0.000  0.036
 

 k-point    74 :    0.50000000 0.00714286 0.50714286     weight = 0.00555556

band     1 # energy   -1.98274890 # occ.  2.00000000
 
ion      s     py     pz     px    dxy    dyz    dz2    dxz  x2-y2    tot
    1  0.195  0.045  0.000  0.000  0.000  0.000  0.000  0.000  0.000  0.240
    2  0.192  0.046  0.000  0.000  0.000  0.000  0.000  0.000  0.000  0.238
tot    0.387  0.091  0.000  0.000  0.000  0.000  0.000  0.000  0.000  0.478
 
band     2 # energy   -1.98274890 # occ.  2.00000000
 
ion      s     py     pz     px    dxy    dyz    dz2    dxz  x2-y2    tot
    1  0.192  0.046  0.000  0.000  0.000  0.000  0.000  0.000  0.000  0.238
    2  0.195  0.045  0.000  0.000  0.000  0.000  0.000  0.000  0.000  0.240
tot    0.387  0.091  0.000  0.000  0.000  0.000  0.000  0.000  0.000  0.478
 
band     3 # energy    2.97840023 # occ.  2.00000000
 
ion      s     py     pz     px    dxy    dyz    dz2    dxz  x2-y2    tot
    1  0.000  0.000  0.099  0.099  0.000  0.000  0.000  0.000  0.000  0.197
    2  0.000  0.000  0.099  0.099  0.000  0.000  0.000  0.000  0.000  0.197
tot    0.000  0.000  0.197  0.197  0.000  0.000  0.000  0.000  0.000  0.395
 
band     4 # energy    2.97840029 # occ.  2.00000000
 
ion      s     py     pz     px    dxy    dyz    dz2    dxz  x2-y2    tot
    1  0.000  0.000  0.099  0.099  0.000  0.000  0.000  0.000  0.000  0.197
    2  0.000  0.000  0.099  0.099  0.000  0.000  0.000  0.000  0.000  0.197
tot    0.000  0.000  0.197  0.197  0.000  0.000  0.000  0.000  0.000  0.395
 
band     5 # energy    6.54616658 # occ.  0.00000000
 
ion      s     py     pz     px    dxy    dyz    dz2    dxz  x2-y2    tot
    1  0.059  0.030  0.000  0.000  0.000  0.000  0.000  0.000  0.000  0.089
    2  0.044  0.040  0.000  0.000  0.000  0.000  0.000  0.000  0.000  0.084
tot    0.103  0.070  0.000  0.000  0.000  0.000  0.000  0.000  0.000  0.174
 
band     6 # energy    6.54616658 # occ.  0.00000000
 
ion      s     py     pz     px    dxy    dyz    dz2    dxz  x2-y2    tot
    1  0.044  0.040  0.000  0.000  0.000  0.000  0.000  0.000  0.000  0.084
    2  0.059  0.030  0.000  0.000  0.000  0.000  0.000  0.000  0.000  0.089
tot    0.103  0.070  0.000  0.000  0.000  0.000  0.000  0.000  0.000  0.174
 
band     7 # energy   15.94284336 # occ.  0.00000000
 
ion      s     py     pz     px    dxy    dyz    dz2    dxz  x2-y2    tot
    1  0.000  0.000  0.050  0.189  0.000  0.000  0.000  0.000  0.000  0.240
    2  0.000  0.000  0.188  0.051  0.000  0.000  0.000  0.000  0.000  0.239
tot    0.000  0.000  0.238  0.240  0.000  0.000  0.000  0.000  0.000  0.479
 
band     8 # energy   15.94287461 # occ.  0.00000000
 
ion      s     py     pz     px    dxy    dyz    dz2    dxz  x2-y2    tot
    1  0.000  0.000  0.188  0.051  0.000  0.000  0.000  0.000  0.000  0.239
    2  0.000  0.000  0.050  0.189  0.000  0.000  0.000  0.000  0.000  0.240
tot    0.000  0.000  0.238  0.240  0.000  0.000  0.000  0.000  0.000  0.479
 
band     9 # energy   16.79505458 # occ.  0.00000000
 
ion      s     py     pz     px    dxy    dyz    dz2    dxz  x2-y2    tot
    1  0.000  0.001  0.004  0.007  0.000  0.000  0.000  0.000  0.000  0.012
    2  0.000  0.001  0.009  0.003  0.000  0.000  0.000  0.000  0.000  0.013
tot    0.000  0.002  0.013  0.010  0.000  0.000  0.000  0.000  0.000  0.025
 
band    10 # energy   16.79508512 # occ.  0.00000000
 
ion      s     py     pz     px    dxy    dyz    dz2    dxz  x2-y2    tot
    1  0.000  0.001  0.009  0.003  0.000  0.000  0.000  0.000  0.000  0.013
    2  0.000  0.001  0.004  0.006  0.000  0.000  0.000  0.000  0.000  0.012
tot    0.000  0.002  0.013  0.010  0.000  0.000  0.000  0.000  0.000  0.025
 
band    11 # energy   18.36923939 # occ.  0.00000000
 
ion      s     py     pz     px    dxy    dyz    dz2    dxz  x2-y2    tot
    1  0.000  0.000  0.000  0.000  0.000  0.000  0.000  0.000  0.000  0.000
    2  0.000  0.000  0.000  0.001  0.000  0.000  0.000  0.000  0.000  0.001
tot    0.000  0.000  0.000  0.001  0.000  0.000  0.000  0.000  0.000  0.001
 
band    12 # energy   18.37077689 # occ.  0.00000000
 
ion      s     py     pz     px    dxy    dyz    dz2    dxz  x2-y2    tot
    1  0.000  0.000  0.000  0.000  0.000  0.000  0.000  0.000  0.000  0.001
    2  0.000  0.001  0.000  0.000  0.000  0.000  0.000  0.000  0.000  0.002
tot    0.000  0.001  0.000  0.001  0.000  0.000  0.000  0.000  0.000  0.003
 

 k-point    75 :    0.50000000 0.01428571 0.51428571     weight = 0.00555556

band     1 # energy   -1.98184842 # occ.  2.00000000
 
ion      s     py     pz     px    dxy    dyz    dz2    dxz  x2-y2    tot
    1  0.196  0.045  0.000  0.000  0.000  0.000  0.000  0.000  0.000  0.241
    2  0.191  0.046  0.000  0.000  0.000  0.000  0.000  0.000  0.000  0.237
tot    0.387  0.091  0.000  0.000  0.000  0.000  0.000  0.000  0.000  0.478
 
band     2 # energy   -1.98184842 # occ.  2.00000000
 
ion      s     py     pz     px    dxy    dyz    dz2    dxz  x2-y2    tot
    1  0.191  0.046  0.000  0.000  0.000  0.000  0.000  0.000  0.000  0.237
    2  0.196  0.045  0.000  0.000  0.000  0.000  0.000  0.000  0.000  0.241
tot    0.387  0.091  0.000  0.000  0.000  0.000  0.000  0.000  0.000  0.478
 
band     3 # energy    2.97020827 # occ.  2.00000000
 
ion      s     py     pz     px    dxy    dyz    dz2    dxz  x2-y2    tot
    1  0.000  0.000  0.098  0.098  0.000  0.000  0.000  0.000  0.000  0.197
    2  0.000  0.000  0.098  0.098  0.000  0.000  0.000  0.000  0.000  0.197
tot    0.000  0.001  0.197  0.197  0.000  0.000  0.000  0.000  0.000  0.394
 
band     4 # energy    2.97020833 # occ.  2.00000000
 
ion      s     py     pz     px    dxy    dyz    dz2    dxz  x2-y2    tot
    1  0.000  0.000  0.098  0.098  0.000  0.000  0.000  0.000  0.000  0.197
    2  0.000  0.000  0.098  0.098  0.000  0.000  0.000  0.000  0.000  0.197
tot    0.000  0.001  0.197  0.197  0.000  0.000  0.000  0.000  0.000  0.394
 
band     5 # energy    6.56110113 # occ.  0.00000000
 
ion      s     py     pz     px    dxy    dyz    dz2    dxz  x2-y2    tot
    1  0.052  0.034  0.000  0.001  0.000  0.000  0.000  0.000  0.000  0.087
    2  0.051  0.035  0.000  0.001  0.000  0.000  0.000  0.000  0.000  0.087
tot    0.103  0.069  0.001  0.001  0.000  0.000  0.000  0.000  0.000  0.174
 
band     6 # energy    6.56110113 # occ.  0.00000000
 
ion      s     py     pz     px    dxy    dyz    dz2    dxz  x2-y2    tot
    1  0.051  0.035  0.000  0.001  0.000  0.000  0.000  0.000  0.000  0.087
    2  0.052  0.034  0.000  0.001  0.000  0.000  0.000  0.000  0.000  0.087
tot    0.103  0.069  0.001  0.001  0.000  0.000  0.000  0.000  0.000  0.174
 
band     7 # energy   15.91825496 # occ.  0.00000000
 
ion      s     py     pz     px    dxy    dyz    dz2    dxz  x2-y2    tot
    1  0.000  0.001  0.175  0.059  0.000  0.000  0.000  0.000  0.000  0.235
    2  0.001  0.000  0.057  0.182  0.000  0.000  0.000  0.000  0.000  0.239
tot    0.001  0.001  0.232  0.240  0.000  0.000  0.000  0.000  0.000  0.475
 
band     8 # energy   15.91830636 # occ.  0.00000000
 
ion      s     py     pz     px    dxy    dyz    dz2    dxz  x2-y2    tot
    1  0.001  0.000  0.057  0.182  0.000  0.000  0.000  0.000  0.000  0.240
    2  0.000  0.001  0.175  0.059  0.000  0.000  0.000  0.000  0.000  0.235
tot    0.001  0.001  0.232  0.240  0.000  0.000  0.000  0.000  0.000  0.475
 
band     9 # energy   16.75989232 # occ.  0.00000000
 
ion      s     py     pz     px    dxy    dyz    dz2    dxz  x2-y2    tot
    1  0.001  0.003  0.008  0.003  0.000  0.000  0.000  0.000  0.000  0.014
    2  0.001  0.003  0.010  0.003  0.000  0.000  0.000  0.000  0.000  0.016
tot    0.002  0.006  0.018  0.006  0.000  0.000  0.000  0.000  0.000  0.031
 
band    10 # energy   16.75998415 # occ.  0.00000000
 
ion      s     py     pz     px    dxy    dyz    dz2    dxz  x2-y2    tot
    1  0.001  0.003  0.010  0.003  0.000  0.000  0.000  0.000  0.000  0.017
    2  0.001  0.003  0.008  0.003  0.000  0.000  0.000  0.000  0.000  0.015
tot    0.002  0.006  0.018  0.006  0.000  0.000  0.000  0.000  0.000  0.031
 
band    11 # energy   18.39852743 # occ.  0.00000000
 
ion      s     py     pz     px    dxy    dyz    dz2    dxz  x2-y2    tot
    1  0.000  0.003  0.001  0.000  0.000  0.000  0.000  0.000  0.000  0.005
    2  0.001  0.000  0.000  0.002  0.000  0.000  0.000  0.000  0.000  0.003
tot    0.001  0.003  0.001  0.002  0.000  0.000  0.000  0.000  0.000  0.008
 
band    12 # energy   18.40194296 # occ.  0.00000000
 
ion      s     py     pz     px    dxy    dyz    dz2    dxz  x2-y2    tot
    1  0.000  0.001  0.000  0.002  0.000  0.000  0.000  0.000  0.000  0.004
    2  0.000  0.001  0.001  0.000  0.000  0.000  0.000  0.000  0.000  0.003
tot    0.001  0.003  0.001  0.002  0.000  0.000  0.000  0.000  0.000  0.007
 

 k-point    76 :    0.50000000 0.02142857 0.52142857     weight = 0.00555556

band     1 # energy   -1.98035343 # occ.  2.00000000
 
ion      s     py     pz     px    dxy    dyz    dz2    dxz  x2-y2    tot
    1  0.193  0.045  0.000  0.000  0.000  0.000  0.000  0.000  0.000  0.239
    2  0.193  0.045  0.000  0.000  0.000  0.000  0.000  0.000  0.000  0.239
tot    0.387  0.091  0.000  0.000  0.000  0.000  0.000  0.000  0.000  0.478
 
band     2 # energy   -1.98035342 # occ.  2.00000000
 
ion      s     py     pz     px    dxy    dyz    dz2    dxz  x2-y2    tot
    1  0.193  0.045  0.000  0.000  0.000  0.000  0.000  0.000  0.000  0.239
    2  0.193  0.045  0.000  0.000  0.000  0.000  0.000  0.000  0.000  0.239
tot    0.387  0.091  0.000  0.000  0.000  0.000  0.000  0.000  0.000  0.478
 
band     3 # energy    2.95674169 # occ.  2.00000000
 
ion      s     py     pz     px    dxy    dyz    dz2    dxz  x2-y2    tot
    1  0.000  0.001  0.098  0.098  0.000  0.000  0.000  0.000  0.000  0.196
    2  0.000  0.001  0.098  0.098  0.000  0.000  0.000  0.000  0.000  0.196
tot    0.001  0.001  0.195  0.195  0.000  0.000  0.000  0.000  0.000  0.393
 
band     4 # energy    2.95674175 # occ.  2.00000000
 
ion      s     py     pz     px    dxy    dyz    dz2    dxz  x2-y2    tot
    1  0.000  0.001  0.098  0.098  0.000  0.000  0.000  0.000  0.000  0.196
    2  0.000  0.001  0.098  0.098  0.000  0.000  0.000  0.000  0.000  0.196
tot    0.001  0.001  0.195  0.195  0.000  0.000  0.000  0.000  0.000  0.393
 
band     5 # energy    6.58597542 # occ.  0.00000000
 
ion      s     py     pz     px    dxy    dyz    dz2    dxz  x2-y2    tot
    1  0.051  0.034  0.001  0.001  0.000  0.000  0.000  0.000  0.000  0.088
    2  0.051  0.034  0.001  0.001  0.000  0.000  0.000  0.000  0.000  0.088
tot    0.102  0.069  0.002  0.003  0.000  0.000  0.000  0.000  0.000  0.176
 
band     6 # energy    6.58597542 # occ.  0.00000000
 
ion      s     py     pz     px    dxy    dyz    dz2    dxz  x2-y2    tot
    1  0.051  0.034  0.001  0.001  0.000  0.000  0.000  0.000  0.000  0.088
    2  0.051  0.034  0.001  0.001  0.000  0.000  0.000  0.000  0.000  0.088
tot    0.102  0.069  0.002  0.003  0.000  0.000  0.000  0.000  0.000  0.176
 
band     7 # energy   15.87534478 # occ.  0.00000000
 
ion      s     py     pz     px    dxy    dyz    dz2    dxz  x2-y2    tot
    1  0.001  0.001  0.090  0.142  0.000  0.000  0.000  0.000  0.000  0.235
    2  0.001  0.002  0.131  0.097  0.000  0.000  0.000  0.000  0.000  0.232
tot    0.002  0.003  0.222  0.239  0.000  0.000  0.000  0.000  0.000  0.466
 
band     8 # energy   15.87534597 # occ.  0.00000000
 
ion      s     py     pz     px    dxy    dyz    dz2    dxz  x2-y2    tot
    1  0.001  0.002  0.131  0.097  0.000  0.000  0.000  0.000  0.000  0.232
    2  0.001  0.001  0.090  0.142  0.000  0.000  0.000  0.000  0.000  0.235
tot    0.002  0.003  0.222  0.239  0.000  0.000  0.000  0.000  0.000  0.466
 
band     9 # energy   16.71011882 # occ.  0.00000000
 
ion      s     py     pz     px    dxy    dyz    dz2    dxz  x2-y2    tot
    1  0.002  0.003  0.007  0.001  0.000  0.000  0.000  0.000  0.000  0.013
    2  0.001  0.008  0.020  0.000  0.000  0.000  0.000  0.000  0.000  0.029
tot    0.003  0.011  0.026  0.002  0.000  0.000  0.000  0.000  0.000  0.042
 
band    10 # energy   16.71012037 # occ.  0.00000000
 
ion      s     py     pz     px    dxy    dyz    dz2    dxz  x2-y2    tot
    1  0.001  0.008  0.020  0.000  0.000  0.000  0.000  0.000  0.000  0.029
    2  0.002  0.003  0.007  0.001  0.000  0.000  0.000  0.000  0.000  0.013
tot    0.003  0.011  0.026  0.002  0.000  0.000  0.000  0.000  0.000  0.042
 
band    11 # energy   18.43768959 # occ.  0.00000000
 
ion      s     py     pz     px    dxy    dyz    dz2    dxz  x2-y2    tot
    1  0.003  0.001  0.000  0.003  0.000  0.000  0.000  0.000  0.000  0.008
    2  0.000  0.012  0.003  0.000  0.000  0.000  0.000  0.000  0.000  0.015
tot    0.004  0.013  0.003  0.004  0.000  0.000  0.000  0.000  0.000  0.023
 
band    12 # energy   18.43926901 # occ.  0.00000000
 
ion      s     py     pz     px    dxy    dyz    dz2    dxz  x2-y2    tot
    1  0.000  0.011  0.003  0.000  0.000  0.000  0.000  0.000  0.000  0.014
    2  0.003  0.000  0.000  0.003  0.000  0.000  0.000  0.000  0.000  0.007
tot    0.003  0.011  0.003  0.004  0.000  0.000  0.000  0.000  0.000  0.021
 

 k-point    77 :    0.50000000 0.02857143 0.52857143     weight = 0.00555556

band     1 # energy   -1.97827345 # occ.  2.00000000
 
ion      s     py     pz     px    dxy    dyz    dz2    dxz  x2-y2    tot
    1  0.194  0.045  0.000  0.000  0.000  0.000  0.000  0.000  0.000  0.240
    2  0.193  0.045  0.000  0.000  0.000  0.000  0.000  0.000  0.000  0.238
tot    0.387  0.090  0.000  0.000  0.000  0.000  0.000  0.000  0.000  0.478
 
band     2 # energy   -1.97827345 # occ.  2.00000000
 
ion      s     py     pz     px    dxy    dyz    dz2    dxz  x2-y2    tot
    1  0.193  0.045  0.000  0.000  0.000  0.000  0.000  0.000  0.000  0.238
    2  0.194  0.045  0.000  0.000  0.000  0.000  0.000  0.000  0.000  0.240
tot    0.387  0.090  0.000  0.000  0.000  0.000  0.000  0.000  0.000  0.478
 
band     3 # energy    2.93825225 # occ.  2.00000000
 
ion      s     py     pz     px    dxy    dyz    dz2    dxz  x2-y2    tot
    1  0.000  0.001  0.097  0.097  0.000  0.000  0.000  0.000  0.000  0.195
    2  0.000  0.001  0.097  0.097  0.000  0.000  0.000  0.000  0.000  0.195
tot    0.001  0.003  0.194  0.194  0.000  0.000  0.000  0.000  0.000  0.391
 
band     4 # energy    2.93825231 # occ.  2.00000000
 
ion      s     py     pz     px    dxy    dyz    dz2    dxz  x2-y2    tot
    1  0.000  0.001  0.097  0.097  0.000  0.000  0.000  0.000  0.000  0.195
    2  0.000  0.001  0.097  0.097  0.000  0.000  0.000  0.000  0.000  0.195
tot    0.001  0.003  0.194  0.194  0.000  0.000  0.000  0.000  0.000  0.391
 
band     5 # energy    6.62021054 # occ.  0.00000000
 
ion      s     py     pz     px    dxy    dyz    dz2    dxz  x2-y2    tot
    1  0.051  0.034  0.002  0.002  0.000  0.000  0.000  0.000  0.000  0.089
    2  0.051  0.034  0.002  0.002  0.000  0.000  0.000  0.000  0.000  0.089
tot    0.102  0.068  0.003  0.004  0.000  0.000  0.000  0.000  0.000  0.177
 
band     6 # energy    6.62021055 # occ.  0.00000000
 
ion      s     py     pz     px    dxy    dyz    dz2    dxz  x2-y2    tot
    1  0.051  0.034  0.002  0.002  0.000  0.000  0.000  0.000  0.000  0.089
    2  0.051  0.034  0.002  0.002  0.000  0.000  0.000  0.000  0.000  0.089
tot    0.102  0.068  0.003  0.004  0.000  0.000  0.000  0.000  0.000  0.177
 
band     7 # energy   15.81193706 # occ.  0.00000000
 
ion      s     py     pz     px    dxy    dyz    dz2    dxz  x2-y2    tot
    1  0.004  0.000  0.014  0.220  0.000  0.000  0.000  0.000  0.000  0.238
    2  0.000  0.006  0.193  0.016  0.000  0.000  0.000  0.000  0.000  0.214
tot    0.005  0.006  0.207  0.236  0.000  0.000  0.000  0.000  0.000  0.453
 
band     8 # energy   15.81194621 # occ.  0.00000000
 
ion      s     py     pz     px    dxy    dyz    dz2    dxz  x2-y2    tot
    1  0.000  0.006  0.193  0.016  0.000  0.000  0.000  0.000  0.000  0.214
    2  0.004  0.000  0.014  0.220  0.000  0.000  0.000  0.000  0.000  0.238
tot    0.005  0.006  0.207  0.236  0.000  0.000  0.000  0.000  0.000  0.453
 
band     9 # energy   16.65499857 # occ.  0.00000000
 
ion      s     py     pz     px    dxy    dyz    dz2    dxz  x2-y2    tot
    1  0.000  0.015  0.036  0.000  0.000  0.000  0.000  0.000  0.000  0.051
    2  0.004  0.001  0.003  0.000  0.000  0.000  0.000  0.000  0.000  0.008
tot    0.004  0.016  0.039  0.000  0.000  0.000  0.000  0.000  0.000  0.059
 
band    10 # energy   16.65500522 # occ.  0.00000000
 
ion      s     py     pz     px    dxy    dyz    dz2    dxz  x2-y2    tot
    1  0.004  0.001  0.003  0.000  0.000  0.000  0.000  0.000  0.000  0.008
    2  0.000  0.015  0.036  0.000  0.000  0.000  0.000  0.000  0.000  0.051
tot    0.004  0.016  0.039  0.000  0.000  0.000  0.000  0.000  0.000  0.059
 
band    11 # energy   18.47720982 # occ.  0.00000000
 
ion      s     py     pz     px    dxy    dyz    dz2    dxz  x2-y2    tot
    1  0.002  0.027  0.003  0.001  0.000  0.000  0.000  0.000  0.000  0.033
    2  0.008  0.006  0.001  0.003  0.000  0.000  0.000  0.000  0.000  0.018
tot    0.010  0.033  0.004  0.004  0.000  0.000  0.000  0.000  0.000  0.051
 
band    12 # energy   18.47950916 # occ.  0.00000000
 
ion      s     py     pz     px    dxy    dyz    dz2    dxz  x2-y2    tot
    1  0.007  0.007  0.001  0.003  0.000  0.000  0.000  0.000  0.000  0.018
    2  0.002  0.025  0.004  0.001  0.000  0.000  0.000  0.000  0.000  0.032
tot    0.009  0.032  0.004  0.004  0.000  0.000  0.000  0.000  0.000  0.050
 

 k-point    78 :    0.50000000 0.03571429 0.53571429     weight = 0.00555556

band     1 # energy   -1.97562202 # occ.  2.00000000
 
ion      s     py     pz     px    dxy    dyz    dz2    dxz  x2-y2    tot
    1  0.196  0.044  0.000  0.000  0.000  0.000  0.000  0.000  0.000  0.241
    2  0.191  0.046  0.000  0.000  0.000  0.000  0.000  0.000  0.000  0.237
tot    0.387  0.090  0.001  0.000  0.000  0.000  0.000  0.000  0.000  0.478
 
band     2 # energy   -1.97562201 # occ.  2.00000000
 
ion      s     py     pz     px    dxy    dyz    dz2    dxz  x2-y2    tot
    1  0.191  0.046  0.000  0.000  0.000  0.000  0.000  0.000  0.000  0.237
    2  0.196  0.044  0.000  0.000  0.000  0.000  0.000  0.000  0.000  0.241
tot    0.387  0.090  0.001  0.000  0.000  0.000  0.000  0.000  0.000  0.478
 
band     3 # energy    2.91508673 # occ.  2.00000000
 
ion      s     py     pz     px    dxy    dyz    dz2    dxz  x2-y2    tot
    1  0.001  0.002  0.096  0.096  0.000  0.000  0.000  0.000  0.000  0.194
    2  0.001  0.002  0.096  0.096  0.000  0.000  0.000  0.000  0.000  0.194
tot    0.001  0.004  0.192  0.192  0.000  0.000  0.000  0.000  0.000  0.389
 
band     4 # energy    2.91508679 # occ.  2.00000000
 
ion      s     py     pz     px    dxy    dyz    dz2    dxz  x2-y2    tot
    1  0.001  0.002  0.096  0.096  0.000  0.000  0.000  0.000  0.000  0.194
    2  0.001  0.002  0.096  0.096  0.000  0.000  0.000  0.000  0.000  0.194
tot    0.001  0.004  0.192  0.192  0.000  0.000  0.000  0.000  0.000  0.389
 
band     5 # energy    6.66363185 # occ.  0.00000000
 
ion      s     py     pz     px    dxy    dyz    dz2    dxz  x2-y2    tot
    1  0.051  0.033  0.002  0.003  0.000  0.000  0.000  0.000  0.000  0.090
    2  0.050  0.034  0.002  0.003  0.000  0.000  0.000  0.000  0.000  0.089
tot    0.100  0.067  0.005  0.007  0.000  0.000  0.000  0.000  0.000  0.179
 
band     6 # energy    6.66363186 # occ.  0.00000000
 
ion      s     py     pz     px    dxy    dyz    dz2    dxz  x2-y2    tot
    1  0.050  0.034  0.002  0.003  0.000  0.000  0.000  0.000  0.000  0.089
    2  0.051  0.033  0.002  0.003  0.000  0.000  0.000  0.000  0.000  0.090
tot    0.100  0.067  0.005  0.007  0.000  0.000  0.000  0.000  0.000  0.179
 
band     7 # energy   15.72673621 # occ.  0.00000000
 
ion      s     py     pz     px    dxy    dyz    dz2    dxz  x2-y2    tot
    1  0.005  0.003  0.057  0.159  0.000  0.000  0.000  0.000  0.000  0.224
    2  0.002  0.007  0.131  0.069  0.000  0.000  0.000  0.000  0.000  0.209
tot    0.007  0.010  0.188  0.229  0.000  0.000  0.000  0.000  0.000  0.434
 
band     8 # energy   15.72676059 # occ.  0.00000000
 
ion      s     py     pz     px    dxy    dyz    dz2    dxz  x2-y2    tot
    1  0.002  0.007  0.131  0.069  0.000  0.000  0.000  0.000  0.000  0.209
    2  0.005  0.003  0.057  0.159  0.000  0.000  0.000  0.000  0.000  0.224
tot    0.007  0.010  0.188  0.229  0.000  0.000  0.000  0.000  0.000  0.434
 
band     9 # energy   16.60238227 # occ.  0.00000000
 
ion      s     py     pz     px    dxy    dyz    dz2    dxz  x2-y2    tot
    1  0.004  0.001  0.004  0.002  0.000  0.000  0.000  0.000  0.000  0.010
    2  0.000  0.019  0.052  0.000  0.000  0.000  0.000  0.000  0.000  0.071
tot    0.004  0.020  0.056  0.002  0.000  0.000  0.000  0.000  0.000  0.081
 
band    10 # energy   16.60238297 # occ.  0.00000000
 
ion      s     py     pz     px    dxy    dyz    dz2    dxz  x2-y2    tot
    1  0.000  0.019  0.052  0.000  0.000  0.000  0.000  0.000  0.000  0.071
    2  0.004  0.001  0.004  0.002  0.000  0.000  0.000  0.000  0.000  0.010
tot    0.004  0.020  0.056  0.002  0.000  0.000  0.000  0.000  0.000  0.082
 
band    11 # energy   18.51161902 # occ.  0.00000000
 
ion      s     py     pz     px    dxy    dyz    dz2    dxz  x2-y2    tot
    1  0.015  0.002  0.000  0.004  0.000  0.000  0.000  0.000  0.000  0.022
    2  0.001  0.051  0.005  0.000  0.000  0.000  0.000  0.000  0.000  0.057
tot    0.016  0.053  0.006  0.004  0.000  0.000  0.000  0.000  0.000  0.079
 
band    12 # energy   18.51453376 # occ.  0.00000000
 
ion      s     py     pz     px    dxy    dyz    dz2    dxz  x2-y2    tot
    1  0.001  0.043  0.006  0.000  0.000  0.000  0.000  0.000  0.000  0.051
    2  0.013  0.005  0.000  0.004  0.000  0.000  0.000  0.000  0.000  0.023
tot    0.015  0.048  0.006  0.004  0.000  0.000  0.000  0.000  0.000  0.073
 

 k-point    79 :    0.50000000 0.04285714 0.54285714     weight = 0.00555556

band     1 # energy   -1.97241471 # occ.  2.00000000
 
ion      s     py     pz     px    dxy    dyz    dz2    dxz  x2-y2    tot
    1  0.197  0.044  0.001  0.000  0.000  0.000  0.000  0.000  0.000  0.242
    2  0.191  0.046  0.001  0.000  0.000  0.000  0.000  0.000  0.000  0.237
tot    0.388  0.090  0.001  0.000  0.000  0.000  0.000  0.000  0.000  0.478
 
band     2 # energy   -1.97241470 # occ.  2.00000000
 
ion      s     py     pz     px    dxy    dyz    dz2    dxz  x2-y2    tot
    1  0.191  0.046  0.001  0.000  0.000  0.000  0.000  0.000  0.000  0.237
    2  0.197  0.044  0.001  0.000  0.000  0.000  0.000  0.000  0.000  0.242
tot    0.388  0.090  0.001  0.000  0.000  0.000  0.000  0.000  0.000  0.478
 
band     3 # energy    2.88765569 # occ.  2.00000000
 
ion      s     py     pz     px    dxy    dyz    dz2    dxz  x2-y2    tot
    1  0.001  0.003  0.095  0.095  0.000  0.000  0.000  0.000  0.000  0.193
    2  0.001  0.003  0.095  0.095  0.000  0.000  0.000  0.000  0.000  0.193
tot    0.002  0.005  0.189  0.189  0.000  0.000  0.000  0.000  0.000  0.386
 
band     4 # energy    2.88765575 # occ.  2.00000000
 
ion      s     py     pz     px    dxy    dyz    dz2    dxz  x2-y2    tot
    1  0.001  0.003  0.095  0.095  0.000  0.000  0.000  0.000  0.000  0.193
    2  0.001  0.003  0.095  0.095  0.000  0.000  0.000  0.000  0.000  0.193
tot    0.002  0.005  0.189  0.189  0.000  0.000  0.000  0.000  0.000  0.386
 
band     5 # energy    6.71584106 # occ.  0.00000000
 
ion      s     py     pz     px    dxy    dyz    dz2    dxz  x2-y2    tot
    1  0.050  0.033  0.003  0.005  0.000  0.000  0.000  0.000  0.000  0.091
    2  0.049  0.033  0.003  0.005  0.000  0.000  0.000  0.000  0.000  0.091
tot    0.099  0.066  0.007  0.010  0.000  0.000  0.000  0.000  0.000  0.181
 
band     6 # energy    6.71584107 # occ.  0.00000000
 
ion      s     py     pz     px    dxy    dyz    dz2    dxz  x2-y2    tot
    1  0.049  0.033  0.003  0.005  0.000  0.000  0.000  0.000  0.000  0.091
    2  0.050  0.033  0.003  0.005  0.000  0.000  0.000  0.000  0.000  0.091
tot    0.099  0.066  0.007  0.010  0.000  0.000  0.000  0.000  0.000  0.181
 
band     7 # energy   15.62016604 # occ.  0.00000000
 
ion      s     py     pz     px    dxy    dyz    dz2    dxz  x2-y2    tot
    1  0.008  0.004  0.040  0.166  0.000  0.000  0.000  0.000  0.000  0.218
    2  0.002  0.011  0.128  0.052  0.000  0.000  0.000  0.000  0.000  0.194
tot    0.010  0.015  0.168  0.218  0.000  0.000  0.000  0.000  0.000  0.412
 
band     8 # energy   15.62017117 # occ.  0.00000000
 
ion      s     py     pz     px    dxy    dyz    dz2    dxz  x2-y2    tot
    1  0.002  0.011  0.128  0.052  0.000  0.000  0.000  0.000  0.000  0.194
    2  0.008  0.004  0.040  0.166  0.000  0.000  0.000  0.000  0.000  0.218
tot    0.010  0.015  0.168  0.218  0.000  0.000  0.000  0.000  0.000  0.412
 
band     9 # energy   16.55698754 # occ.  0.00000000
 
ion      s     py     pz     px    dxy    dyz    dz2    dxz  x2-y2    tot
    1  0.004  0.001  0.004  0.006  0.000  0.000  0.000  0.000  0.000  0.016
    2  0.000  0.021  0.069  0.000  0.000  0.000  0.000  0.000  0.000  0.091
tot    0.004  0.022  0.073  0.007  0.000  0.000  0.000  0.000  0.000  0.107
 
band    10 # energy   16.55699358 # occ.  0.00000000
 
ion      s     py     pz     px    dxy    dyz    dz2    dxz  x2-y2    tot
    1  0.000  0.021  0.069  0.000  0.000  0.000  0.000  0.000  0.000  0.091
    2  0.004  0.001  0.004  0.006  0.000  0.000  0.000  0.000  0.000  0.016
tot    0.004  0.022  0.073  0.007  0.000  0.000  0.000  0.000  0.000  0.107
 
band    11 # energy   18.54002476 # occ.  0.00000000
 
ion      s     py     pz     px    dxy    dyz    dz2    dxz  x2-y2    tot
    1  0.008  0.050  0.004  0.001  0.000  0.000  0.000  0.000  0.000  0.064
    2  0.015  0.027  0.003  0.002  0.000  0.000  0.000  0.000  0.000  0.046
tot    0.023  0.077  0.007  0.003  0.000  0.000  0.000  0.000  0.000  0.110
 
band    12 # energy   18.54382116 # occ.  0.00000000
 
ion      s     py     pz     px    dxy    dyz    dz2    dxz  x2-y2    tot
    1  0.011  0.037  0.002  0.003  0.000  0.000  0.000  0.000  0.000  0.053
    2  0.011  0.039  0.005  0.001  0.000  0.000  0.000  0.000  0.000  0.055
tot    0.022  0.075  0.007  0.004  0.000  0.000  0.000  0.000  0.000  0.108
 

 k-point    80 :    0.50000000 0.05000000 0.55000000     weight = 0.00555556

band     1 # energy   -1.96866816 # occ.  2.00000000
 
ion      s     py     pz     px    dxy    dyz    dz2    dxz  x2-y2    tot
    1  0.194  0.045  0.001  0.000  0.000  0.000  0.000  0.000  0.000  0.239
    2  0.194  0.044  0.001  0.000  0.000  0.000  0.000  0.000  0.000  0.240
tot    0.388  0.089  0.001  0.000  0.000  0.000  0.000  0.000  0.000  0.479
 
band     2 # energy   -1.96866815 # occ.  2.00000000
 
ion      s     py     pz     px    dxy    dyz    dz2    dxz  x2-y2    tot
    1  0.194  0.044  0.001  0.000  0.000  0.000  0.000  0.000  0.000  0.240
    2  0.194  0.045  0.001  0.000  0.000  0.000  0.000  0.000  0.000  0.239
tot    0.388  0.089  0.001  0.000  0.000  0.000  0.000  0.000  0.000  0.479
 
band     3 # energy    2.85641495 # occ.  2.00000000
 
ion      s     py     pz     px    dxy    dyz    dz2    dxz  x2-y2    tot
    1  0.001  0.004  0.094  0.093  0.000  0.000  0.000  0.000  0.000  0.192
    2  0.001  0.004  0.093  0.094  0.000  0.000  0.000  0.000  0.000  0.192
tot    0.003  0.007  0.187  0.187  0.000  0.000  0.000  0.000  0.000  0.383
 
band     4 # energy    2.85641500 # occ.  2.00000000
 
ion      s     py     pz     px    dxy    dyz    dz2    dxz  x2-y2    tot
    1  0.001  0.004  0.093  0.094  0.000  0.000  0.000  0.000  0.000  0.192
    2  0.001  0.004  0.094  0.093  0.000  0.000  0.000  0.000  0.000  0.192
tot    0.003  0.007  0.187  0.187  0.000  0.000  0.000  0.000  0.000  0.383
 
band     5 # energy    6.77640681 # occ.  0.00000000
 
ion      s     py     pz     px    dxy    dyz    dz2    dxz  x2-y2    tot
    1  0.049  0.032  0.004  0.006  0.000  0.000  0.000  0.000  0.000  0.092
    2  0.049  0.033  0.004  0.006  0.000  0.000  0.000  0.000  0.000  0.092
tot    0.098  0.065  0.009  0.013  0.000  0.000  0.000  0.000  0.000  0.184
 
band     6 # energy    6.77640682 # occ.  0.00000000
 
ion      s     py     pz     px    dxy    dyz    dz2    dxz  x2-y2    tot
    1  0.049  0.033  0.004  0.006  0.000  0.000  0.000  0.000  0.000  0.092
    2  0.049  0.032  0.004  0.006  0.000  0.000  0.000  0.000  0.000  0.092
tot    0.098  0.065  0.009  0.013  0.000  0.000  0.000  0.000  0.000  0.184
 
band     7 # energy   15.49458129 # occ.  0.00000000
 
ion      s     py     pz     px    dxy    dyz    dz2    dxz  x2-y2    tot
    1  0.008  0.009  0.063  0.119  0.000  0.000  0.000  0.000  0.000  0.198
    2  0.006  0.012  0.086  0.087  0.000  0.000  0.000  0.000  0.000  0.191
tot    0.014  0.020  0.149  0.206  0.000  0.000  0.000  0.000  0.000  0.389
 
band     8 # energy   15.49459004 # occ.  0.00000000
 
ion      s     py     pz     px    dxy    dyz    dz2    dxz  x2-y2    tot
    1  0.006  0.012  0.086  0.087  0.000  0.000  0.000  0.000  0.000  0.191
    2  0.008  0.009  0.063  0.119  0.000  0.000  0.000  0.000  0.000  0.198
tot    0.014  0.020  0.149  0.206  0.000  0.000  0.000  0.000  0.000  0.389
 
band     9 # energy   16.52042469 # occ.  0.00000000
 
ion      s     py     pz     px    dxy    dyz    dz2    dxz  x2-y2    tot
    1  0.002  0.010  0.038  0.008  0.000  0.000  0.000  0.000  0.000  0.058
    2  0.002  0.014  0.052  0.006  0.000  0.000  0.000  0.000  0.000  0.074
tot    0.004  0.024  0.090  0.014  0.000  0.000  0.000  0.000  0.000  0.132
 
band    10 # energy   16.52042534 # occ.  0.00000000
 
ion      s     py     pz     px    dxy    dyz    dz2    dxz  x2-y2    tot
    1  0.002  0.014  0.052  0.006  0.000  0.000  0.000  0.000  0.000  0.074
    2  0.002  0.010  0.038  0.008  0.000  0.000  0.000  0.000  0.000  0.058
tot    0.004  0.024  0.090  0.014  0.000  0.000  0.000  0.000  0.000  0.132
 
band    11 # energy   18.56323603 # occ.  0.00000000
 
ion      s     py     pz     px    dxy    dyz    dz2    dxz  x2-y2    tot
    1  0.006  0.076  0.007  0.001  0.000  0.000  0.000  0.000  0.000  0.089
    2  0.022  0.020  0.002  0.002  0.000  0.000  0.000  0.000  0.000  0.046
tot    0.028  0.095  0.008  0.003  0.000  0.000  0.000  0.000  0.000  0.135
 
band    12 # energy   18.56351397 # occ.  0.00000000
 
ion      s     py     pz     px    dxy    dyz    dz2    dxz  x2-y2    tot
    1  0.022  0.019  0.002  0.002  0.000  0.000  0.000  0.000  0.000  0.045
    2  0.006  0.074  0.007  0.001  0.000  0.000  0.000  0.000  0.000  0.087
tot    0.028  0.093  0.008  0.003  0.000  0.000  0.000  0.000  0.000  0.132
 

 k-point    81 :    0.50000000 0.05714286 0.55714286     weight = 0.00555556

band     1 # energy   -1.96441164 # occ.  2.00000000
 
ion      s     py     pz     px    dxy    dyz    dz2    dxz  x2-y2    tot
    1  0.207  0.041  0.001  0.000  0.000  0.000  0.000  0.000  0.000  0.249
    2  0.182  0.047  0.001  0.000  0.000  0.000  0.000  0.000  0.000  0.230
tot    0.389  0.088  0.002  0.000  0.000  0.000  0.000  0.000  0.000  0.479
 
band     2 # energy   -1.96441163 # occ.  2.00000000
 
ion      s     py     pz     px    dxy    dyz    dz2    dxz  x2-y2    tot
    1  0.182  0.047  0.001  0.000  0.000  0.000  0.000  0.000  0.000  0.230
    2  0.207  0.041  0.001  0.000  0.000  0.000  0.000  0.000  0.000  0.249
tot    0.389  0.088  0.002  0.000  0.000  0.000  0.000  0.000  0.000  0.479
 
band     3 # energy    2.82184596 # occ.  2.00000000
 
ion      s     py     pz     px    dxy    dyz    dz2    dxz  x2-y2    tot
    1  0.002  0.005  0.092  0.092  0.000  0.000  0.000  0.000  0.000  0.190
    2  0.002  0.005  0.092  0.092  0.000  0.000  0.000  0.000  0.000  0.190
tot    0.003  0.009  0.184  0.184  0.000  0.000  0.000  0.000  0.000  0.380
 
band     4 # energy    2.82184602 # occ.  2.00000000
 
ion      s     py     pz     px    dxy    dyz    dz2    dxz  x2-y2    tot
    1  0.002  0.005  0.092  0.092  0.000  0.000  0.000  0.000  0.000  0.190
    2  0.002  0.005  0.092  0.092  0.000  0.000  0.000  0.000  0.000  0.190
tot    0.003  0.009  0.184  0.184  0.000  0.000  0.000  0.000  0.000  0.380
 
band     5 # energy    6.84483967 # occ.  0.00000000
 
ion      s     py     pz     px    dxy    dyz    dz2    dxz  x2-y2    tot
    1  0.049  0.031  0.005  0.008  0.000  0.000  0.000  0.000  0.000  0.094
    2  0.048  0.032  0.006  0.008  0.000  0.000  0.000  0.000  0.000  0.093
tot    0.096  0.063  0.011  0.016  0.000  0.000  0.000  0.000  0.000  0.187
 
band     6 # energy    6.84483968 # occ.  0.00000000
 
ion      s     py     pz     px    dxy    dyz    dz2    dxz  x2-y2    tot
    1  0.048  0.032  0.006  0.008  0.000  0.000  0.000  0.000  0.000  0.093
    2  0.049  0.031  0.005  0.008  0.000  0.000  0.000  0.000  0.000  0.094
tot    0.096  0.063  0.011  0.016  0.000  0.000  0.000  0.000  0.000  0.187
 
band     7 # energy   15.35316137 # occ.  0.00000000
 
ion      s     py     pz     px    dxy    dyz    dz2    dxz  x2-y2    tot
    1  0.017  0.001  0.003  0.189  0.000  0.000  0.000  0.000  0.000  0.209
    2  0.000  0.025  0.129  0.005  0.000  0.000  0.000  0.000  0.000  0.159
tot    0.017  0.025  0.132  0.194  0.000  0.000  0.000  0.000  0.000  0.368
 
band     8 # energy   15.35316256 # occ.  0.00000000
 
ion      s     py     pz     px    dxy    dyz    dz2    dxz  x2-y2    tot
    1  0.000  0.025  0.129  0.005  0.000  0.000  0.000  0.000  0.000  0.159
    2  0.017  0.001  0.003  0.189  0.000  0.000  0.000  0.000  0.000  0.209
tot    0.017  0.026  0.132  0.194  0.000  0.000  0.000  0.000  0.000  0.368
 
band     9 # energy   16.49202568 # occ.  0.00000000
 
ion      s     py     pz     px    dxy    dyz    dz2    dxz  x2-y2    tot
    1  0.003  0.002  0.009  0.020  0.000  0.000  0.000  0.000  0.000  0.035
    2  0.000  0.023  0.095  0.002  0.000  0.000  0.000  0.000  0.000  0.120
tot    0.003  0.025  0.104  0.022  0.000  0.000  0.000  0.000  0.000  0.155
 
band    10 # energy   16.49202638 # occ.  0.00000000
 
ion      s     py     pz     px    dxy    dyz    dz2    dxz  x2-y2    tot
    1  0.000  0.023  0.095  0.002  0.000  0.000  0.000  0.000  0.000  0.120
    2  0.003  0.002  0.009  0.020  0.000  0.000  0.000  0.000  0.000  0.035
tot    0.003  0.025  0.104  0.022  0.000  0.000  0.000  0.000  0.000  0.155
 
band    11 # energy   18.58262679 # occ.  0.00000000
 
ion      s     py     pz     px    dxy    dyz    dz2    dxz  x2-y2    tot
    1  0.009  0.083  0.007  0.001  0.000  0.000  0.000  0.000  0.000  0.099
    2  0.024  0.029  0.003  0.002  0.000  0.000  0.000  0.000  0.000  0.058
tot    0.033  0.112  0.010  0.002  0.000  0.000  0.000  0.000  0.000  0.157
 
band    12 # energy   18.58283252 # occ.  0.00000000
 
ion      s     py     pz     px    dxy    dyz    dz2    dxz  x2-y2    tot
    1  0.024  0.028  0.003  0.002  0.000  0.000  0.000  0.000  0.000  0.057
    2  0.008  0.081  0.007  0.001  0.000  0.000  0.000  0.000  0.000  0.098
tot    0.033  0.110  0.010  0.002  0.000  0.000  0.000  0.000  0.000  0.155
 

 k-point    82 :    0.50000000 0.06428571 0.56428571     weight = 0.00555556

band     1 # energy   -1.95966679 # occ.  2.00000000
 
ion      s     py     pz     px    dxy    dyz    dz2    dxz  x2-y2    tot
    1  0.196  0.044  0.001  0.000  0.000  0.000  0.000  0.000  0.000  0.241
    2  0.194  0.044  0.001  0.000  0.000  0.000  0.000  0.000  0.000  0.239
tot    0.389  0.088  0.002  0.000  0.000  0.000  0.000  0.000  0.000  0.480
 
band     2 # energy   -1.95966678 # occ.  2.00000000
 
ion      s     py     pz     px    dxy    dyz    dz2    dxz  x2-y2    tot
    1  0.194  0.044  0.001  0.000  0.000  0.000  0.000  0.000  0.000  0.239
    2  0.196  0.044  0.001  0.000  0.000  0.000  0.000  0.000  0.000  0.241
tot    0.389  0.088  0.002  0.000  0.000  0.000  0.000  0.000  0.000  0.480
 
band     3 # energy    2.78444375 # occ.  2.00000000
 
ion      s     py     pz     px    dxy    dyz    dz2    dxz  x2-y2    tot
    1  0.002  0.006  0.091  0.091  0.000  0.000  0.000  0.000  0.000  0.188
    2  0.002  0.006  0.090  0.091  0.000  0.000  0.000  0.000  0.000  0.188
tot    0.004  0.011  0.181  0.181  0.000  0.000  0.000  0.000  0.000  0.377
 
band     4 # energy    2.78444380 # occ.  2.00000000
 
ion      s     py     pz     px    dxy    dyz    dz2    dxz  x2-y2    tot
    1  0.002  0.006  0.090  0.091  0.000  0.000  0.000  0.000  0.000  0.188
    2  0.002  0.006  0.091  0.091  0.000  0.000  0.000  0.000  0.000  0.188
tot    0.004  0.011  0.181  0.181  0.000  0.000  0.000  0.000  0.000  0.377
 
band     5 # energy    6.92069910 # occ.  0.00000000
 
ion      s     py     pz     px    dxy    dyz    dz2    dxz  x2-y2    tot
    1  0.047  0.031  0.007  0.010  0.000  0.000  0.000  0.000  0.000  0.095
    2  0.047  0.031  0.007  0.010  0.000  0.000  0.000  0.000  0.000  0.095
tot    0.095  0.062  0.013  0.019  0.000  0.000  0.000  0.000  0.000  0.189
 
band     6 # energy    6.92069911 # occ.  0.00000000
 
ion      s     py     pz     px    dxy    dyz    dz2    dxz  x2-y2    tot
    1  0.047  0.031  0.007  0.010  0.000  0.000  0.000  0.000  0.000  0.095
    2  0.047  0.031  0.007  0.010  0.000  0.000  0.000  0.000  0.000  0.095
tot    0.095  0.062  0.013  0.019  0.000  0.000  0.000  0.000  0.000  0.189
 
band     7 # energy   15.19943874 # occ.  0.00000000
 
ion      s     py     pz     px    dxy    dyz    dz2    dxz  x2-y2    tot
    1  0.007  0.019  0.076  0.066  0.000  0.000  0.000  0.000  0.000  0.168
    2  0.013  0.011  0.043  0.116  0.000  0.000  0.000  0.000  0.000  0.183
tot    0.020  0.030  0.118  0.182  0.000  0.000  0.000  0.000  0.000  0.351
 
band     8 # energy   15.19944224 # occ.  0.00000000
 
ion      s     py     pz     px    dxy    dyz    dz2    dxz  x2-y2    tot
    1  0.013  0.011  0.043  0.116  0.000  0.000  0.000  0.000  0.000  0.183
    2  0.007  0.020  0.075  0.066  0.000  0.000  0.000  0.000  0.000  0.168
tot    0.020  0.031  0.118  0.182  0.000  0.000  0.000  0.000  0.000  0.351
 
band     9 # energy   16.47054310 # occ.  0.00000000
 
ion      s     py     pz     px    dxy    dyz    dz2    dxz  x2-y2    tot
    1  0.002  0.012  0.055  0.016  0.000  0.000  0.000  0.000  0.000  0.085
    2  0.001  0.014  0.061  0.014  0.000  0.000  0.000  0.000  0.000  0.090
tot    0.003  0.026  0.116  0.030  0.000  0.000  0.000  0.000  0.000  0.174
 
band    10 # energy   16.47054339 # occ.  0.00000000
 
ion      s     py     pz     px    dxy    dyz    dz2    dxz  x2-y2    tot
    1  0.001  0.014  0.061  0.014  0.000  0.000  0.000  0.000  0.000  0.090
    2  0.002  0.012  0.055  0.016  0.000  0.000  0.000  0.000  0.000  0.085
tot    0.003  0.026  0.116  0.030  0.000  0.000  0.000  0.000  0.000  0.175
 
band    11 # energy   18.59959927 # occ.  0.00000000
 
ion      s     py     pz     px    dxy    dyz    dz2    dxz  x2-y2    tot
    1  0.028  0.029  0.003  0.001  0.000  0.000  0.000  0.000  0.000  0.061
    2  0.009  0.095  0.009  0.000  0.000  0.000  0.000  0.000  0.000  0.113
tot    0.037  0.124  0.011  0.002  0.000  0.000  0.000  0.000  0.000  0.174
 
band    12 # energy   18.60000588 # occ.  0.00000000
 
ion      s     py     pz     px    dxy    dyz    dz2    dxz  x2-y2    tot
    1  0.009  0.094  0.009  0.000  0.000  0.000  0.000  0.000  0.000  0.112
    2  0.028  0.030  0.003  0.001  0.000  0.000  0.000  0.000  0.000  0.062
tot    0.037  0.124  0.011  0.002  0.000  0.000  0.000  0.000  0.000  0.174
 

 k-point    83 :    0.50000000 0.07142857 0.57142857     weight = 0.00555556

band     1 # energy   -1.95446896 # occ.  2.00000000
 
ion      s     py     pz     px    dxy    dyz    dz2    dxz  x2-y2    tot
    1  0.207  0.041  0.001  0.000  0.000  0.000  0.000  0.000  0.000  0.250
    2  0.183  0.046  0.002  0.000  0.000  0.000  0.000  0.000  0.000  0.231
tot    0.390  0.087  0.003  0.000  0.000  0.000  0.000  0.000  0.000  0.480
 
band     2 # energy   -1.95446896 # occ.  2.00000000
 
ion      s     py     pz     px    dxy    dyz    dz2    dxz  x2-y2    tot
    1  0.183  0.046  0.002  0.000  0.000  0.000  0.000  0.000  0.000  0.231
    2  0.207  0.041  0.001  0.000  0.000  0.000  0.000  0.000  0.000  0.250
tot    0.390  0.087  0.003  0.000  0.000  0.000  0.000  0.000  0.000  0.480
 
band     3 # energy    2.74469557 # occ.  2.00000000
 
ion      s     py     pz     px    dxy    dyz    dz2    dxz  x2-y2    tot
    1  0.002  0.007  0.089  0.089  0.000  0.000  0.000  0.000  0.000  0.187
    2  0.002  0.007  0.089  0.089  0.000  0.000  0.000  0.000  0.000  0.187
tot    0.004  0.014  0.178  0.178  0.000  0.000  0.000  0.000  0.000  0.374
 
band     4 # energy    2.74469562 # occ.  2.00000000
 
ion      s     py     pz     px    dxy    dyz    dz2    dxz  x2-y2    tot
    1  0.002  0.007  0.089  0.089  0.000  0.000  0.000  0.000  0.000  0.187
    2  0.002  0.007  0.089  0.089  0.000  0.000  0.000  0.000  0.000  0.187
tot    0.004  0.014  0.178  0.178  0.000  0.000  0.000  0.000  0.000  0.374
 
band     5 # energy    7.00346123 # occ.  0.00000000
 
ion      s     py     pz     px    dxy    dyz    dz2    dxz  x2-y2    tot
    1  0.044  0.032  0.008  0.011  0.000  0.000  0.000  0.000  0.000  0.095
    2  0.050  0.028  0.007  0.012  0.000  0.000  0.000  0.000  0.000  0.097
tot    0.093  0.061  0.016  0.023  0.000  0.000  0.000  0.000  0.000  0.192
 
band     6 # energy    7.00346125 # occ.  0.00000000
 
ion      s     py     pz     px    dxy    dyz    dz2    dxz  x2-y2    tot
    1  0.050  0.028  0.007  0.012  0.000  0.000  0.000  0.000  0.000  0.097
    2  0.044  0.032  0.008  0.011  0.000  0.000  0.000  0.000  0.000  0.095
tot    0.093  0.061  0.016  0.023  0.000  0.000  0.000  0.000  0.000  0.192
 
band     7 # energy   15.03629751 # occ.  0.00000000
 
ion      s     py     pz     px    dxy    dyz    dz2    dxz  x2-y2    tot
    1  0.020  0.005  0.014  0.149  0.000  0.000  0.000  0.000  0.000  0.188
    2  0.003  0.030  0.093  0.022  0.000  0.000  0.000  0.000  0.000  0.149
tot    0.023  0.035  0.107  0.171  0.000  0.000  0.000  0.000  0.000  0.336
 
band     8 # energy   15.03630380 # occ.  0.00000000
 
ion      s     py     pz     px    dxy    dyz    dz2    dxz  x2-y2    tot
    1  0.003  0.030  0.093  0.022  0.000  0.000  0.000  0.000  0.000  0.149
    2  0.020  0.005  0.014  0.149  0.000  0.000  0.000  0.000  0.000  0.188
tot    0.023  0.035  0.107  0.171  0.000  0.000  0.000  0.000  0.000  0.336
 
band     9 # energy   16.45428183 # occ.  0.00000000
 
ion      s     py     pz     px    dxy    dyz    dz2    dxz  x2-y2    tot
    1  0.002  0.007  0.032  0.027  0.000  0.000  0.000  0.000  0.000  0.068
    2  0.001  0.020  0.092  0.010  0.000  0.000  0.000  0.000  0.000  0.122
tot    0.003  0.027  0.125  0.037  0.000  0.000  0.000  0.000  0.000  0.191
 
band    10 # energy   16.45428191 # occ.  0.00000000
 
ion      s     py     pz     px    dxy    dyz    dz2    dxz  x2-y2    tot
    1  0.001  0.020  0.092  0.010  0.000  0.000  0.000  0.000  0.000  0.122
    2  0.002  0.007  0.032  0.027  0.000  0.000  0.000  0.000  0.000  0.068
tot    0.003  0.027  0.125  0.037  0.000  0.000  0.000  0.000  0.000  0.191
 
band    11 # energy   18.61497618 # occ.  0.00000000
 
ion      s     py     pz     px    dxy    dyz    dz2    dxz  x2-y2    tot
    1  0.039  0.004  0.000  0.001  0.000  0.000  0.000  0.000  0.000  0.044
    2  0.001  0.130  0.013  0.000  0.000  0.000  0.000  0.000  0.000  0.144
tot    0.040  0.133  0.013  0.001  0.000  0.000  0.000  0.000  0.000  0.188
 
band    12 # energy   18.61523917 # occ.  0.00000000
 
ion      s     py     pz     px    dxy    dyz    dz2    dxz  x2-y2    tot
    1  0.001  0.132  0.013  0.000  0.000  0.000  0.000  0.000  0.000  0.145
    2  0.039  0.004  0.000  0.001  0.000  0.000  0.000  0.000  0.000  0.045
tot    0.040  0.135  0.013  0.001  0.000  0.000  0.000  0.000  0.000  0.190
 

 k-point    84 :    0.50000000 0.07857143 0.57857143     weight = 0.00555556

band     1 # energy   -1.94884996 # occ.  2.00000000
 
ion      s     py     pz     px    dxy    dyz    dz2    dxz  x2-y2    tot
    1  0.283  0.024  0.001  0.000  0.000  0.000  0.000  0.000  0.000  0.308
    2  0.108  0.062  0.003  0.000  0.000  0.000  0.000  0.000  0.000  0.173
tot    0.391  0.086  0.004  0.000  0.000  0.000  0.000  0.000  0.000  0.481
 
band     2 # energy   -1.94884995 # occ.  2.00000000
 
ion      s     py     pz     px    dxy    dyz    dz2    dxz  x2-y2    tot
    1  0.108  0.062  0.003  0.000  0.000  0.000  0.000  0.000  0.000  0.173
    2  0.283  0.024  0.001  0.000  0.000  0.000  0.000  0.000  0.000  0.308
tot    0.391  0.086  0.004  0.000  0.000  0.000  0.000  0.000  0.000  0.481
 
band     3 # energy    2.70308252 # occ.  2.00000000
 
ion      s     py     pz     px    dxy    dyz    dz2    dxz  x2-y2    tot
    1  0.002  0.008  0.091  0.084  0.000  0.000  0.000  0.000  0.000  0.185
    2  0.002  0.008  0.084  0.091  0.000  0.000  0.000  0.000  0.000  0.185
tot    0.005  0.016  0.175  0.175  0.000  0.000  0.000  0.000  0.000  0.370
 
band     4 # energy    2.70308258 # occ.  2.00000000
 
ion      s     py     pz     px    dxy    dyz    dz2    dxz  x2-y2    tot
    1  0.002  0.008  0.084  0.091  0.000  0.000  0.000  0.000  0.000  0.185
    2  0.002  0.008  0.091  0.084  0.000  0.000  0.000  0.000  0.000  0.185
tot    0.005  0.016  0.175  0.175  0.000  0.000  0.000  0.000  0.000  0.370
 
band     5 # energy    7.09269219 # occ.  0.00000000
 
ion      s     py     pz     px    dxy    dyz    dz2    dxz  x2-y2    tot
    1  0.063  0.018  0.006  0.018  0.000  0.000  0.000  0.000  0.000  0.105
    2  0.028  0.041  0.012  0.008  0.000  0.000  0.000  0.000  0.000  0.090
tot    0.091  0.059  0.018  0.027  0.000  0.000  0.000  0.000  0.000  0.195
 
band     6 # energy    7.09269221 # occ.  0.00000000
 
ion      s     py     pz     px    dxy    dyz    dz2    dxz  x2-y2    tot
    1  0.028  0.041  0.012  0.008  0.000  0.000  0.000  0.000  0.000  0.090
    2  0.063  0.018  0.006  0.018  0.000  0.000  0.000  0.000  0.000  0.105
tot    0.091  0.059  0.018  0.027  0.000  0.000  0.000  0.000  0.000  0.195
 
band     7 # energy   14.86615891 # occ.  0.00000000
 
ion      s     py     pz     px    dxy    dyz    dz2    dxz  x2-y2    tot
    1  0.011  0.022  0.055  0.070  0.000  0.000  0.000  0.000  0.000  0.159
    2  0.015  0.017  0.042  0.092  0.000  0.000  0.000  0.000  0.000  0.166
tot    0.026  0.039  0.098  0.162  0.000  0.000  0.000  0.000  0.000  0.324
 
band     8 # energy   14.86616605 # occ.  0.00000000
 
ion      s     py     pz     px    dxy    dyz    dz2    dxz  x2-y2    tot
    1  0.015  0.017  0.042  0.092  0.000  0.000  0.000  0.000  0.000  0.166
    2  0.011  0.022  0.055  0.070  0.000  0.000  0.000  0.000  0.000  0.159
tot    0.026  0.039  0.098  0.162  0.000  0.000  0.000  0.000  0.000  0.325
 
band     9 # energy   16.44205971 # occ.  0.00000000
 
ion      s     py     pz     px    dxy    dyz    dz2    dxz  x2-y2    tot
    1  0.002  0.004  0.021  0.036  0.000  0.000  0.000  0.000  0.000  0.063
    2  0.000  0.024  0.110  0.007  0.000  0.000  0.000  0.000  0.000  0.141
tot    0.002  0.028  0.131  0.043  0.000  0.000  0.000  0.000  0.000  0.204
 
band    10 # energy   16.44205984 # occ.  0.00000000
 
ion      s     py     pz     px    dxy    dyz    dz2    dxz  x2-y2    tot
    1  0.000  0.024  0.110  0.007  0.000  0.000  0.000  0.000  0.000  0.141
    2  0.002  0.004  0.021  0.036  0.000  0.000  0.000  0.000  0.000  0.063
tot    0.002  0.028  0.131  0.043  0.000  0.000  0.000  0.000  0.000  0.204
 
band    11 # energy   18.62952812 # occ.  0.00000000
 
ion      s     py     pz     px    dxy    dyz    dz2    dxz  x2-y2    tot
    1  0.010  0.106  0.011  0.000  0.000  0.000  0.000  0.000  0.000  0.128
    2  0.032  0.034  0.004  0.001  0.000  0.000  0.000  0.000  0.000  0.070
tot    0.042  0.140  0.015  0.001  0.000  0.000  0.000  0.000  0.000  0.198
 
band    12 # energy   18.63009365 # occ.  0.00000000
 
ion      s     py     pz     px    dxy    dyz    dz2    dxz  x2-y2    tot
    1  0.032  0.036  0.004  0.001  0.000  0.000  0.000  0.000  0.000  0.072
    2  0.011  0.107  0.011  0.000  0.000  0.000  0.000  0.000  0.000  0.129
tot    0.043  0.143  0.015  0.001  0.000  0.000  0.000  0.000  0.000  0.201
 

 k-point    85 :    0.50000000 0.08571429 0.58571429     weight = 0.00555556

band     1 # energy   -1.94285304 # occ.  2.00000000
 
ion      s     py     pz     px    dxy    dyz    dz2    dxz  x2-y2    tot
    1  0.279  0.025  0.001  0.000  0.000  0.000  0.000  0.000  0.000  0.305
    2  0.113  0.061  0.003  0.000  0.000  0.000  0.000  0.000  0.000  0.177
tot    0.392  0.085  0.004  0.000  0.000  0.000  0.000  0.000  0.000  0.481
 
band     2 # energy   -1.94285303 # occ.  2.00000000
 
ion      s     py     pz     px    dxy    dyz    dz2    dxz  x2-y2    tot
    1  0.113  0.061  0.003  0.000  0.000  0.000  0.000  0.000  0.000  0.177
    2  0.279  0.025  0.001  0.000  0.000  0.000  0.000  0.000  0.000  0.305
tot    0.392  0.085  0.004  0.000  0.000  0.000  0.000  0.000  0.000  0.481
 
band     3 # energy    2.66006129 # occ.  2.00000000
 
ion      s     py     pz     px    dxy    dyz    dz2    dxz  x2-y2    tot
    1  0.002  0.009  0.085  0.087  0.000  0.000  0.000  0.000  0.000  0.183
    2  0.002  0.009  0.087  0.085  0.000  0.000  0.000  0.000  0.000  0.184
tot    0.005  0.018  0.171  0.172  0.000  0.000  0.000  0.000  0.000  0.367
 
band     4 # energy    2.66006134 # occ.  2.00000000
 
ion      s     py     pz     px    dxy    dyz    dz2    dxz  x2-y2    tot
    1  0.002  0.009  0.087  0.085  0.000  0.000  0.000  0.000  0.000  0.184
    2  0.002  0.009  0.085  0.087  0.000  0.000  0.000  0.000  0.000  0.183
tot    0.005  0.018  0.171  0.172  0.000  0.000  0.000  0.000  0.000  0.367
 
band     5 # energy    7.18792090 # occ.  0.00000000
 
ion      s     py     pz     px    dxy    dyz    dz2    dxz  x2-y2    tot
    1  0.047  0.028  0.010  0.016  0.000  0.000  0.000  0.000  0.000  0.100
    2  0.043  0.030  0.010  0.015  0.000  0.000  0.000  0.000  0.000  0.098
tot    0.090  0.058  0.020  0.030  0.000  0.000  0.000  0.000  0.000  0.198
 
band     6 # energy    7.18792092 # occ.  0.00000000
 
ion      s     py     pz     px    dxy    dyz    dz2    dxz  x2-y2    tot
    1  0.043  0.030  0.010  0.015  0.000  0.000  0.000  0.000  0.000  0.098
    2  0.047  0.028  0.010  0.016  0.000  0.000  0.000  0.000  0.000  0.100
tot    0.090  0.058  0.020  0.030  0.000  0.000  0.000  0.000  0.000  0.198
 
band     7 # energy   14.69084078 # occ.  0.00000000
 
ion      s     py     pz     px    dxy    dyz    dz2    dxz  x2-y2    tot
    1  0.026  0.004  0.009  0.138  0.000  0.000  0.000  0.000  0.000  0.177
    2  0.003  0.038  0.081  0.015  0.000  0.000  0.000  0.000  0.000  0.138
tot    0.029  0.043  0.090  0.154  0.000  0.000  0.000  0.000  0.000  0.315
 
band     8 # energy   14.69086944 # occ.  0.00000000
 
ion      s     py     pz     px    dxy    dyz    dz2    dxz  x2-y2    tot
    1  0.003  0.039  0.081  0.015  0.000  0.000  0.000  0.000  0.000  0.138
    2  0.026  0.004  0.009  0.138  0.000  0.000  0.000  0.000  0.000  0.177
tot    0.029  0.043  0.090  0.153  0.000  0.000  0.000  0.000  0.000  0.315
 
band     9 # energy   16.43284696 # occ.  0.00000000
 
ion      s     py     pz     px    dxy    dyz    dz2    dxz  x2-y2    tot
    1  0.001  0.013  0.062  0.026  0.000  0.000  0.000  0.000  0.000  0.102
    2  0.001  0.016  0.074  0.022  0.000  0.000  0.000  0.000  0.000  0.113
tot    0.002  0.029  0.136  0.048  0.000  0.000  0.000  0.000  0.000  0.215
 
band    10 # energy   16.43284723 # occ.  0.00000000
 
ion      s     py     pz     px    dxy    dyz    dz2    dxz  x2-y2    tot
    1  0.001  0.016  0.074  0.022  0.000  0.000  0.000  0.000  0.000  0.113
    2  0.001  0.013  0.062  0.026  0.000  0.000  0.000  0.000  0.000  0.102
tot    0.002  0.029  0.136  0.048  0.000  0.000  0.000  0.000  0.000  0.215
 
band    11 # energy   18.64325967 # occ.  0.00000000
 
ion      s     py     pz     px    dxy    dyz    dz2    dxz  x2-y2    tot
    1  0.014  0.100  0.012  0.000  0.000  0.000  0.000  0.000  0.000  0.126
    2  0.030  0.045  0.005  0.001  0.000  0.000  0.000  0.000  0.000  0.081
tot    0.044  0.145  0.017  0.001  0.000  0.000  0.000  0.000  0.000  0.207
 
band    12 # energy   18.64445088 # occ.  0.00000000
 
ion      s     py     pz     px    dxy    dyz    dz2    dxz  x2-y2    tot
    1  0.032  0.045  0.005  0.000  0.000  0.000  0.000  0.000  0.000  0.082
    2  0.014  0.107  0.011  0.000  0.000  0.000  0.000  0.000  0.000  0.131
tot    0.045  0.151  0.016  0.001  0.000  0.000  0.000  0.000  0.000  0.214
 

 k-point    86 :    0.50000000 0.09285714 0.59285714     weight = 0.00555556

band     1 # energy   -1.93650621 # occ.  2.00000000
 
ion      s     py     pz     px    dxy    dyz    dz2    dxz  x2-y2    tot
    1  0.214  0.038  0.002  0.000  0.000  0.000  0.000  0.000  0.000  0.255
    2  0.179  0.046  0.003  0.000  0.000  0.000  0.000  0.000  0.000  0.227
tot    0.392  0.084  0.005  0.000  0.000  0.000  0.000  0.000  0.000  0.482
 
band     2 # energy   -1.93650620 # occ.  2.00000000
 
ion      s     py     pz     px    dxy    dyz    dz2    dxz  x2-y2    tot
    1  0.179  0.046  0.003  0.000  0.000  0.000  0.000  0.000  0.000  0.227
    2  0.214  0.038  0.002  0.000  0.000  0.000  0.000  0.000  0.000  0.255
tot    0.392  0.084  0.005  0.000  0.000  0.000  0.000  0.000  0.000  0.482
 
band     3 # energy    2.61607075 # occ.  2.00000000
 
ion      s     py     pz     px    dxy    dyz    dz2    dxz  x2-y2    tot
    1  0.003  0.010  0.084  0.085  0.000  0.000  0.000  0.000  0.000  0.182
    2  0.003  0.010  0.084  0.085  0.000  0.000  0.000  0.000  0.000  0.182
tot    0.005  0.021  0.168  0.170  0.000  0.000  0.000  0.000  0.000  0.364
 
band     4 # energy    2.61607081 # occ.  2.00000000
 
ion      s     py     pz     px    dxy    dyz    dz2    dxz  x2-y2    tot
    1  0.003  0.010  0.084  0.085  0.000  0.000  0.000  0.000  0.000  0.182
    2  0.003  0.010  0.084  0.085  0.000  0.000  0.000  0.000  0.000  0.182
tot    0.005  0.021  0.168  0.170  0.000  0.000  0.000  0.000  0.000  0.364
 
band     5 # energy    7.28882570 # occ.  0.00000000
 
ion      s     py     pz     px    dxy    dyz    dz2    dxz  x2-y2    tot
    1  0.045  0.027  0.011  0.018  0.000  0.000  0.000  0.000  0.000  0.101
    2  0.043  0.029  0.011  0.017  0.000  0.000  0.000  0.000  0.000  0.100
tot    0.088  0.056  0.022  0.034  0.000  0.000  0.000  0.000  0.000  0.201
 
band     6 # energy    7.28882572 # occ.  0.00000000
 
ion      s     py     pz     px    dxy    dyz    dz2    dxz  x2-y2    tot
    1  0.043  0.029  0.011  0.017  0.000  0.000  0.000  0.000  0.000  0.100
    2  0.045  0.027  0.011  0.018  0.000  0.000  0.000  0.000  0.000  0.101
tot    0.088  0.056  0.022  0.034  0.000  0.000  0.000  0.000  0.000  0.201
 
band     7 # energy   14.51176423 # occ.  0.00000000
 
ion      s     py     pz     px    dxy    dyz    dz2    dxz  x2-y2    tot
    1  0.025  0.009  0.017  0.117  0.000  0.000  0.000  0.000  0.000  0.168
    2  0.006  0.037  0.067  0.029  0.000  0.000  0.000  0.000  0.000  0.140
tot    0.031  0.046  0.084  0.146  0.000  0.000  0.000  0.000  0.000  0.308
 
band     8 # energy   14.51176444 # occ.  0.00000000
 
ion      s     py     pz     px    dxy    dyz    dz2    dxz  x2-y2    tot
    1  0.006  0.037  0.067  0.029  0.000  0.000  0.000  0.000  0.000  0.140
    2  0.025  0.009  0.017  0.117  0.000  0.000  0.000  0.000  0.000  0.168
tot    0.031  0.046  0.084  0.146  0.000  0.000  0.000  0.000  0.000  0.308
 
band     9 # energy   16.42618996 # occ.  0.00000000
 
ion      s     py     pz     px    dxy    dyz    dz2    dxz  x2-y2    tot
    1  0.000  0.021  0.096  0.016  0.000  0.000  0.000  0.000  0.000  0.134
    2  0.001  0.010  0.043  0.036  0.000  0.000  0.000  0.000  0.000  0.090
tot    0.002  0.031  0.139  0.052  0.000  0.000  0.000  0.000  0.000  0.224
 
band    10 # energy   16.42619007 # occ.  0.00000000
 
ion      s     py     pz     px    dxy    dyz    dz2    dxz  x2-y2    tot
    1  0.001  0.010  0.043  0.036  0.000  0.000  0.000  0.000  0.000  0.090
    2  0.000  0.021  0.096  0.016  0.000  0.000  0.000  0.000  0.000  0.134
tot    0.002  0.031  0.139  0.052  0.000  0.000  0.000  0.000  0.000  0.224
 
band    11 # energy   18.65700789 # occ.  0.00000000
 
ion      s     py     pz     px    dxy    dyz    dz2    dxz  x2-y2    tot
    1  0.006  0.130  0.017  0.000  0.000  0.000  0.000  0.000  0.000  0.153
    2  0.040  0.018  0.002  0.001  0.000  0.000  0.000  0.000  0.000  0.061
tot    0.045  0.149  0.019  0.001  0.000  0.000  0.000  0.000  0.000  0.214
 
band    12 # energy   18.65702564 # occ.  0.00000000
 
ion      s     py     pz     px    dxy    dyz    dz2    dxz  x2-y2    tot
    1  0.040  0.018  0.002  0.001  0.000  0.000  0.000  0.000  0.000  0.061
    2  0.006  0.131  0.017  0.000  0.000  0.000  0.000  0.000  0.000  0.153
tot    0.045  0.149  0.019  0.001  0.000  0.000  0.000  0.000  0.000  0.214
 

 k-point    87 :    0.50000000 0.10000000 0.60000000     weight = 0.00555556

band     1 # energy   -1.92986334 # occ.  2.00000000
 
ion      s     py     pz     px    dxy    dyz    dz2    dxz  x2-y2    tot
    1  0.215  0.038  0.003  0.000  0.000  0.000  0.000  0.000  0.000  0.255
    2  0.179  0.045  0.003  0.000  0.000  0.000  0.000  0.000  0.000  0.227
tot    0.393  0.083  0.006  0.000  0.000  0.000  0.000  0.000  0.000  0.483
 
band     2 # energy   -1.92986334 # occ.  2.00000000
 
ion      s     py     pz     px    dxy    dyz    dz2    dxz  x2-y2    tot
    1  0.179  0.045  0.003  0.000  0.000  0.000  0.000  0.000  0.000  0.227
    2  0.215  0.038  0.003  0.000  0.000  0.000  0.000  0.000  0.000  0.255
tot    0.393  0.083  0.006  0.000  0.000  0.000  0.000  0.000  0.000  0.483
 
band     3 # energy    2.57151688 # occ.  2.00000000
 
ion      s     py     pz     px    dxy    dyz    dz2    dxz  x2-y2    tot
    1  0.003  0.012  0.082  0.084  0.000  0.000  0.000  0.000  0.000  0.180
    2  0.003  0.012  0.083  0.083  0.000  0.000  0.000  0.000  0.000  0.180
tot    0.005  0.024  0.165  0.167  0.000  0.000  0.000  0.000  0.000  0.360
 
band     4 # energy    2.57151693 # occ.  2.00000000
 
ion      s     py     pz     px    dxy    dyz    dz2    dxz  x2-y2    tot
    1  0.003  0.012  0.083  0.083  0.000  0.000  0.000  0.000  0.000  0.180
    2  0.003  0.012  0.082  0.084  0.000  0.000  0.000  0.000  0.000  0.180
tot    0.005  0.024  0.165  0.167  0.000  0.000  0.000  0.000  0.000  0.360
 
band     5 # energy    7.39493021 # occ.  0.00000000
 
ion      s     py     pz     px    dxy    dyz    dz2    dxz  x2-y2    tot
    1  0.043  0.028  0.012  0.019  0.000  0.000  0.000  0.000  0.000  0.101
    2  0.043  0.027  0.012  0.019  0.000  0.000  0.000  0.000  0.000  0.102
tot    0.086  0.055  0.024  0.038  0.000  0.000  0.000  0.000  0.000  0.203
 
band     6 # energy    7.39493023 # occ.  0.00000000
 
ion      s     py     pz     px    dxy    dyz    dz2    dxz  x2-y2    tot
    1  0.043  0.027  0.012  0.019  0.000  0.000  0.000  0.000  0.000  0.102
    2  0.043  0.028  0.012  0.019  0.000  0.000  0.000  0.000  0.000  0.101
tot    0.086  0.055  0.024  0.038  0.000  0.000  0.000  0.000  0.000  0.203
 
band     7 # energy   14.32988068 # occ.  0.00000000
 
ion      s     py     pz     px    dxy    dyz    dz2    dxz  x2-y2    tot
    1  0.018  0.023  0.038  0.074  0.000  0.000  0.000  0.000  0.000  0.152
    2  0.016  0.026  0.042  0.066  0.000  0.000  0.000  0.000  0.000  0.150
tot    0.034  0.049  0.079  0.140  0.000  0.000  0.000  0.000  0.000  0.301
 
band     8 # energy   14.32988089 # occ.  0.00000000
 
ion      s     py     pz     px    dxy    dyz    dz2    dxz  x2-y2    tot
    1  0.016  0.026  0.042  0.066  0.000  0.000  0.000  0.000  0.000  0.150
    2  0.018  0.023  0.038  0.074  0.000  0.000  0.000  0.000  0.000  0.152
tot    0.034  0.049  0.079  0.140  0.000  0.000  0.000  0.000  0.000  0.301
 
band     9 # energy   16.42106695 # occ.  0.00000000
 
ion      s     py     pz     px    dxy    dyz    dz2    dxz  x2-y2    tot
    1  0.001  0.009  0.041  0.040  0.000  0.000  0.000  0.000  0.000  0.091
    2  0.000  0.023  0.101  0.016  0.000  0.000  0.000  0.000  0.000  0.140
tot    0.001  0.032  0.141  0.056  0.000  0.000  0.000  0.000  0.000  0.231
 
band    10 # energy   16.42106711 # occ.  0.00000000
 
ion      s     py     pz     px    dxy    dyz    dz2    dxz  x2-y2    tot
    1  0.000  0.023  0.101  0.016  0.000  0.000  0.000  0.000  0.000  0.140
    2  0.001  0.009  0.041  0.040  0.000  0.000  0.000  0.000  0.000  0.091
tot    0.001  0.033  0.141  0.056  0.000  0.000  0.000  0.000  0.000  0.231
 
band    11 # energy   18.67061304 # occ.  0.00000000
 
ion      s     py     pz     px    dxy    dyz    dz2    dxz  x2-y2    tot
    1  0.040  0.022  0.003  0.000  0.000  0.000  0.000  0.000  0.000  0.065
    2  0.007  0.130  0.018  0.000  0.000  0.000  0.000  0.000  0.000  0.155
tot    0.046  0.152  0.021  0.001  0.000  0.000  0.000  0.000  0.000  0.220
 
band    12 # energy   18.67072847 # occ.  0.00000000
 
ion      s     py     pz     px    dxy    dyz    dz2    dxz  x2-y2    tot
    1  0.006  0.130  0.019  0.000  0.000  0.000  0.000  0.000  0.000  0.155
    2  0.040  0.021  0.003  0.000  0.000  0.000  0.000  0.000  0.000  0.065
tot    0.046  0.151  0.022  0.001  0.000  0.000  0.000  0.000  0.000  0.219
 

 k-point    88 :    0.50000000 0.10714286 0.60714286     weight = 0.00555556

band     1 # energy   -1.92297013 # occ.  2.00000000
 
ion      s     py     pz     px    dxy    dyz    dz2    dxz  x2-y2    tot
    1  0.214  0.037  0.003  0.000  0.000  0.000  0.000  0.000  0.000  0.255
    2  0.180  0.045  0.004  0.000  0.000  0.000  0.000  0.000  0.000  0.228
tot    0.394  0.082  0.007  0.000  0.000  0.000  0.000  0.000  0.000  0.483
 
band     2 # energy   -1.92297012 # occ.  2.00000000
 
ion      s     py     pz     px    dxy    dyz    dz2    dxz  x2-y2    tot
    1  0.180  0.045  0.004  0.000  0.000  0.000  0.000  0.000  0.000  0.228
    2  0.214  0.037  0.003  0.000  0.000  0.000  0.000  0.000  0.000  0.255
tot    0.394  0.082  0.007  0.000  0.000  0.000  0.000  0.000  0.000  0.483
 
band     3 # energy    2.52678016 # occ.  2.00000000
 
ion      s     py     pz     px    dxy    dyz    dz2    dxz  x2-y2    tot
    1  0.003  0.013  0.081  0.082  0.000  0.000  0.000  0.000  0.000  0.179
    2  0.003  0.013  0.080  0.082  0.000  0.000  0.000  0.000  0.000  0.179
tot    0.005  0.026  0.161  0.164  0.000  0.000  0.000  0.000  0.000  0.357
 
band     4 # energy    2.52678022 # occ.  2.00000000
 
ion      s     py     pz     px    dxy    dyz    dz2    dxz  x2-y2    tot
    1  0.003  0.013  0.080  0.082  0.000  0.000  0.000  0.000  0.000  0.179
    2  0.003  0.013  0.081  0.082  0.000  0.000  0.000  0.000  0.000  0.179
tot    0.005  0.026  0.161  0.164  0.000  0.000  0.000  0.000  0.000  0.357
 
band     5 # energy    7.50589855 # occ.  0.00000000
 
ion      s     py     pz     px    dxy    dyz    dz2    dxz  x2-y2    tot
    1  0.042  0.027  0.013  0.021  0.000  0.000  0.000  0.000  0.000  0.103
    2  0.042  0.027  0.013  0.021  0.000  0.000  0.000  0.000  0.000  0.103
tot    0.084  0.053  0.026  0.042  0.000  0.000  0.000  0.000  0.000  0.206
 
band     6 # energy    7.50589857 # occ.  0.00000000
 
ion      s     py     pz     px    dxy    dyz    dz2    dxz  x2-y2    tot
    1  0.042  0.027  0.013  0.021  0.000  0.000  0.000  0.000  0.000  0.103
    2  0.042  0.027  0.013  0.021  0.000  0.000  0.000  0.000  0.000  0.103
tot    0.084  0.053  0.026  0.042  0.000  0.000  0.000  0.000  0.000  0.206
 
band     7 # energy   14.14600069 # occ.  0.00000000
 
ion      s     py     pz     px    dxy    dyz    dz2    dxz  x2-y2    tot
    1  0.026  0.014  0.020  0.098  0.000  0.000  0.000  0.000  0.000  0.158
    2  0.010  0.037  0.055  0.036  0.000  0.000  0.000  0.000  0.000  0.138
tot    0.036  0.051  0.075  0.134  0.000  0.000  0.000  0.000  0.000  0.297
 
band     8 # energy   14.14600075 # occ.  0.00000000
 
ion      s     py     pz     px    dxy    dyz    dz2    dxz  x2-y2    tot
    1  0.010  0.037  0.055  0.036  0.000  0.000  0.000  0.000  0.000  0.138
    2  0.026  0.014  0.020  0.098  0.000  0.000  0.000  0.000  0.000  0.158
tot    0.036  0.051  0.075  0.134  0.000  0.000  0.000  0.000  0.000  0.297
 
band     9 # energy   16.41729377 # occ.  0.00000000
 
ion      s     py     pz     px    dxy    dyz    dz2    dxz  x2-y2    tot
    1  0.000  0.020  0.084  0.024  0.000  0.000  0.000  0.000  0.000  0.129
    2  0.001  0.014  0.058  0.035  0.000  0.000  0.000  0.000  0.000  0.108
tot    0.001  0.034  0.143  0.059  0.000  0.000  0.000  0.000  0.000  0.237
 
band    10 # energy   16.41729378 # occ.  0.00000000
 
ion      s     py     pz     px    dxy    dyz    dz2    dxz  x2-y2    tot
    1  0.001  0.014  0.058  0.035  0.000  0.000  0.000  0.000  0.000  0.108
    2  0.000  0.020  0.084  0.024  0.000  0.000  0.000  0.000  0.000  0.129
tot    0.001  0.034  0.143  0.059  0.000  0.000  0.000  0.000  0.000  0.237
 
band    11 # energy   18.68406934 # occ.  0.00000000
 
ion      s     py     pz     px    dxy    dyz    dz2    dxz  x2-y2    tot
    1  0.022  0.081  0.013  0.000  0.000  0.000  0.000  0.000  0.000  0.116
    2  0.025  0.072  0.011  0.000  0.000  0.000  0.000  0.000  0.000  0.109
tot    0.047  0.153  0.024  0.000  0.000  0.000  0.000  0.000  0.000  0.225
 
band    12 # energy   18.68409510 # occ.  0.00000000
 
ion      s     py     pz     px    dxy    dyz    dz2    dxz  x2-y2    tot
    1  0.025  0.072  0.011  0.000  0.000  0.000  0.000  0.000  0.000  0.109
    2  0.022  0.081  0.013  0.000  0.000  0.000  0.000  0.000  0.000  0.116
tot    0.047  0.153  0.024  0.000  0.000  0.000  0.000  0.000  0.000  0.225
 

 k-point    89 :    0.50000000 0.11428571 0.61428571     weight = 0.00555556

band     1 # energy   -1.91587839 # occ.  2.00000000
 
ion      s     py     pz     px    dxy    dyz    dz2    dxz  x2-y2    tot
    1  0.205  0.039  0.004  0.000  0.000  0.000  0.000  0.000  0.000  0.248
    2  0.190  0.042  0.004  0.000  0.000  0.000  0.000  0.000  0.000  0.236
tot    0.395  0.081  0.008  0.000  0.000  0.000  0.000  0.000  0.000  0.484
 
band     2 # energy   -1.91587838 # occ.  2.00000000
 
ion      s     py     pz     px    dxy    dyz    dz2    dxz  x2-y2    tot
    1  0.190  0.042  0.004  0.000  0.000  0.000  0.000  0.000  0.000  0.236
    2  0.205  0.039  0.004  0.000  0.000  0.000  0.000  0.000  0.000  0.248
tot    0.395  0.081  0.008  0.000  0.000  0.000  0.000  0.000  0.000  0.484
 
band     3 # energy    2.48221046 # occ.  2.00000000
 
ion      s     py     pz     px    dxy    dyz    dz2    dxz  x2-y2    tot
    1  0.003  0.014  0.078  0.081  0.000  0.000  0.000  0.000  0.000  0.177
    2  0.003  0.015  0.080  0.080  0.000  0.000  0.000  0.000  0.000  0.177
tot    0.005  0.029  0.158  0.162  0.000  0.000  0.000  0.000  0.000  0.354
 
band     4 # energy    2.48221052 # occ.  2.00000000
 
ion      s     py     pz     px    dxy    dyz    dz2    dxz  x2-y2    tot
    1  0.003  0.015  0.080  0.080  0.000  0.000  0.000  0.000  0.000  0.177
    2  0.003  0.014  0.078  0.081  0.000  0.000  0.000  0.000  0.000  0.177
tot    0.005  0.029  0.158  0.162  0.000  0.000  0.000  0.000  0.000  0.354
 
band     5 # energy    7.62138319 # occ.  0.00000000
 
ion      s     py     pz     px    dxy    dyz    dz2    dxz  x2-y2    tot
    1  0.041  0.026  0.014  0.022  0.000  0.000  0.000  0.000  0.000  0.104
    2  0.042  0.026  0.014  0.023  0.000  0.000  0.000  0.000  0.000  0.104
tot    0.082  0.052  0.028  0.046  0.000  0.000  0.000  0.000  0.000  0.208
 
band     6 # energy    7.62138321 # occ.  0.00000000
 
ion      s     py     pz     px    dxy    dyz    dz2    dxz  x2-y2    tot
    1  0.042  0.026  0.014  0.023  0.000  0.000  0.000  0.000  0.000  0.104
    2  0.041  0.026  0.014  0.022  0.000  0.000  0.000  0.000  0.000  0.104
tot    0.082  0.052  0.028  0.046  0.000  0.000  0.000  0.000  0.000  0.208
 
band     7 # energy   13.96080539 # occ.  0.00000000
 
ion      s     py     pz     px    dxy    dyz    dz2    dxz  x2-y2    tot
    1  0.038  0.001  0.001  0.127  0.000  0.000  0.000  0.000  0.000  0.167
    2  0.000  0.053  0.071  0.001  0.000  0.000  0.000  0.000  0.000  0.126
tot    0.038  0.053  0.072  0.129  0.000  0.000  0.000  0.000  0.000  0.293
 
band     8 # energy   13.96080556 # occ.  0.00000000
 
ion      s     py     pz     px    dxy    dyz    dz2    dxz  x2-y2    tot
    1  0.000  0.053  0.071  0.001  0.000  0.000  0.000  0.000  0.000  0.126
    2  0.038  0.001  0.001  0.127  0.000  0.000  0.000  0.000  0.000  0.167
tot    0.038  0.053  0.072  0.129  0.000  0.000  0.000  0.000  0.000  0.293
 
band     9 # energy   16.41455063 # occ.  0.00000000
 
ion      s     py     pz     px    dxy    dyz    dz2    dxz  x2-y2    tot
    1  0.000  0.020  0.078  0.028  0.000  0.000  0.000  0.000  0.000  0.126
    2  0.001  0.017  0.065  0.033  0.000  0.000  0.000  0.000  0.000  0.115
tot    0.001  0.036  0.143  0.061  0.000  0.000  0.000  0.000  0.000  0.242
 
band    10 # energy   16.41455129 # occ.  0.00000000
 
ion      s     py     pz     px    dxy    dyz    dz2    dxz  x2-y2    tot
    1  0.001  0.017  0.065  0.033  0.000  0.000  0.000  0.000  0.000  0.115
    2  0.000  0.020  0.078  0.028  0.000  0.000  0.000  0.000  0.000  0.126
tot    0.001  0.036  0.143  0.061  0.000  0.000  0.000  0.000  0.000  0.242
 
band    11 # energy   18.69770018 # occ.  0.00000000
 
ion      s     py     pz     px    dxy    dyz    dz2    dxz  x2-y2    tot
    1  0.012  0.117  0.020  0.000  0.000  0.000  0.000  0.000  0.000  0.149
    2  0.036  0.038  0.007  0.000  0.000  0.000  0.000  0.000  0.000  0.081
tot    0.048  0.154  0.027  0.000  0.000  0.000  0.000  0.000  0.000  0.229
 
band    12 # energy   18.69777073 # occ.  0.00000000
 
ion      s     py     pz     px    dxy    dyz    dz2    dxz  x2-y2    tot
    1  0.036  0.038  0.007  0.000  0.000  0.000  0.000  0.000  0.000  0.081
    2  0.012  0.117  0.020  0.000  0.000  0.000  0.000  0.000  0.000  0.149
tot    0.048  0.154  0.027  0.000  0.000  0.000  0.000  0.000  0.000  0.229
 

 k-point    90 :    0.50000000 0.12142857 0.62142857     weight = 0.00555556

band     1 # energy   -1.90863596 # occ.  2.00000000
 
ion      s     py     pz     px    dxy    dyz    dz2    dxz  x2-y2    tot
    1  0.258  0.028  0.003  0.000  0.000  0.000  0.000  0.000  0.000  0.289
    2  0.138  0.052  0.006  0.000  0.000  0.000  0.000  0.000  0.000  0.195
tot    0.396  0.079  0.009  0.000  0.000  0.000  0.000  0.000  0.000  0.485
 
band     2 # energy   -1.90863596 # occ.  2.00000000
 
ion      s     py     pz     px    dxy    dyz    dz2    dxz  x2-y2    tot
    1  0.138  0.052  0.006  0.000  0.000  0.000  0.000  0.000  0.000  0.195
    2  0.258  0.028  0.003  0.000  0.000  0.000  0.000  0.000  0.000  0.289
tot    0.396  0.079  0.009  0.000  0.000  0.000  0.000  0.000  0.000  0.485
 
band     3 # energy    2.43814509 # occ.  2.00000000
 
ion      s     py     pz     px    dxy    dyz    dz2    dxz  x2-y2    tot
    1  0.003  0.016  0.077  0.080  0.000  0.000  0.000  0.000  0.000  0.175
    2  0.003  0.016  0.078  0.079  0.000  0.000  0.000  0.000  0.000  0.176
tot    0.005  0.032  0.155  0.159  0.000  0.000  0.000  0.000  0.000  0.351
 
band     4 # energy    2.43814514 # occ.  2.00000000
 
ion      s     py     pz     px    dxy    dyz    dz2    dxz  x2-y2    tot
    1  0.003  0.016  0.078  0.079  0.000  0.000  0.000  0.000  0.000  0.176
    2  0.003  0.016  0.077  0.080  0.000  0.000  0.000  0.000  0.000  0.175
tot    0.005  0.032  0.155  0.159  0.000  0.000  0.000  0.000  0.000  0.351
 
band     5 # energy    7.74113522 # occ.  0.00000000
 
ion      s     py     pz     px    dxy    dyz    dz2    dxz  x2-y2    tot
    1  0.041  0.025  0.015  0.025  0.000  0.000  0.000  0.000  0.000  0.105
    2  0.040  0.026  0.015  0.024  0.000  0.000  0.000  0.000  0.000  0.105
tot    0.080  0.051  0.030  0.049  0.000  0.000  0.000  0.000  0.000  0.210
 
band     6 # energy    7.74113524 # occ.  0.00000000
 
ion      s     py     pz     px    dxy    dyz    dz2    dxz  x2-y2    tot
    1  0.040  0.026  0.015  0.024  0.000  0.000  0.000  0.000  0.000  0.105
    2  0.041  0.025  0.015  0.025  0.000  0.000  0.000  0.000  0.000  0.105
tot    0.080  0.051  0.030  0.049  0.000  0.000  0.000  0.000  0.000  0.210
 
band     7 # energy   13.77478444 # occ.  0.00000000
 
ion      s     py     pz     px    dxy    dyz    dz2    dxz  x2-y2    tot
    1  0.003  0.051  0.064  0.009  0.000  0.000  0.000  0.000  0.000  0.128
    2  0.038  0.004  0.005  0.115  0.000  0.000  0.000  0.000  0.000  0.162
tot    0.041  0.055  0.069  0.124  0.000  0.000  0.000  0.000  0.000  0.289
 
band     8 # energy   13.77478827 # occ.  0.00000000
 
ion      s     py     pz     px    dxy    dyz    dz2    dxz  x2-y2    tot
    1  0.038  0.004  0.005  0.115  0.000  0.000  0.000  0.000  0.000  0.162
    2  0.003  0.051  0.064  0.009  0.000  0.000  0.000  0.000  0.000  0.128
tot    0.041  0.055  0.070  0.124  0.000  0.000  0.000  0.000  0.000  0.289
 
band     9 # energy   16.41264673 # occ.  0.00000000
 
ion      s     py     pz     px    dxy    dyz    dz2    dxz  x2-y2    tot
    1  0.000  0.035  0.129  0.006  0.000  0.000  0.000  0.000  0.000  0.170
    2  0.001  0.004  0.014  0.057  0.000  0.000  0.000  0.000  0.000  0.076
tot    0.001  0.039  0.143  0.063  0.000  0.000  0.000  0.000  0.000  0.246
 
band    10 # energy   16.41264693 # occ.  0.00000000
 
ion      s     py     pz     px    dxy    dyz    dz2    dxz  x2-y2    tot
    1  0.001  0.004  0.014  0.057  0.000  0.000  0.000  0.000  0.000  0.076
    2  0.000  0.035  0.129  0.006  0.000  0.000  0.000  0.000  0.000  0.170
tot    0.001  0.039  0.143  0.063  0.000  0.000  0.000  0.000  0.000  0.246
 
band    11 # energy   18.71136218 # occ.  0.00000000
 
ion      s     py     pz     px    dxy    dyz    dz2    dxz  x2-y2    tot
    1  0.019  0.095  0.018  0.000  0.000  0.000  0.000  0.000  0.000  0.132
    2  0.030  0.060  0.012  0.000  0.000  0.000  0.000  0.000  0.000  0.102
tot    0.049  0.155  0.030  0.000  0.000  0.000  0.000  0.000  0.000  0.233
 
band    12 # energy   18.71138459 # occ.  0.00000000
 
ion      s     py     pz     px    dxy    dyz    dz2    dxz  x2-y2    tot
    1  0.030  0.060  0.012  0.000  0.000  0.000  0.000  0.000  0.000  0.101
    2  0.019  0.094  0.018  0.000  0.000  0.000  0.000  0.000  0.000  0.131
tot    0.048  0.154  0.030  0.000  0.000  0.000  0.000  0.000  0.000  0.233
 

 k-point    91 :    0.50000000 0.12857143 0.62857143     weight = 0.00555556

band     1 # energy   -1.90130341 # occ.  2.00000000
 
ion      s     py     pz     px    dxy    dyz    dz2    dxz  x2-y2    tot
    1  0.369  0.006  0.001  0.000  0.000  0.000  0.000  0.000  0.000  0.375
    2  0.029  0.072  0.009  0.000  0.000  0.000  0.000  0.000  0.000  0.110
tot    0.397  0.078  0.010  0.000  0.000  0.000  0.000  0.000  0.000  0.485
 
band     2 # energy   -1.90130340 # occ.  2.00000000
 
ion      s     py     pz     px    dxy    dyz    dz2    dxz  x2-y2    tot
    1  0.029  0.072  0.009  0.000  0.000  0.000  0.000  0.000  0.000  0.110
    2  0.369  0.006  0.001  0.000  0.000  0.000  0.000  0.000  0.000  0.375
tot    0.397  0.078  0.010  0.000  0.000  0.000  0.000  0.000  0.000  0.485
 
band     3 # energy    2.39487999 # occ.  2.00000000
 
ion      s     py     pz     px    dxy    dyz    dz2    dxz  x2-y2    tot
    1  0.002  0.021  0.092  0.061  0.000  0.000  0.000  0.000  0.000  0.177
    2  0.003  0.014  0.059  0.096  0.000  0.000  0.000  0.000  0.000  0.171
tot    0.005  0.035  0.151  0.157  0.000  0.000  0.000  0.000  0.000  0.348
 
band     4 # energy    2.39488004 # occ.  2.00000000
 
ion      s     py     pz     px    dxy    dyz    dz2    dxz  x2-y2    tot
    1  0.003  0.014  0.059  0.096  0.000  0.000  0.000  0.000  0.000  0.171
    2  0.002  0.021  0.092  0.061  0.000  0.000  0.000  0.000  0.000  0.177
tot    0.005  0.035  0.151  0.157  0.000  0.000  0.000  0.000  0.000  0.348
 
band     5 # energy    7.86483822 # occ.  0.00000000
 
ion      s     py     pz     px    dxy    dyz    dz2    dxz  x2-y2    tot
    1  0.051  0.017  0.011  0.034  0.000  0.000  0.000  0.000  0.000  0.114
    2  0.028  0.032  0.020  0.019  0.000  0.000  0.000  0.000  0.000  0.099
tot    0.078  0.049  0.031  0.053  0.000  0.000  0.000  0.000  0.000  0.212
 
band     6 # energy    7.86483825 # occ.  0.00000000
 
ion      s     py     pz     px    dxy    dyz    dz2    dxz  x2-y2    tot
    1  0.028  0.032  0.020  0.019  0.000  0.000  0.000  0.000  0.000  0.099
    2  0.051  0.017  0.011  0.034  0.000  0.000  0.000  0.000  0.000  0.114
tot    0.078  0.049  0.031  0.053  0.000  0.000  0.000  0.000  0.000  0.212
 
band     7 # energy   13.58833131 # occ.  0.00000000
 
ion      s     py     pz     px    dxy    dyz    dz2    dxz  x2-y2    tot
    1  0.001  0.056  0.065  0.003  0.000  0.000  0.000  0.000  0.000  0.125
    2  0.042  0.002  0.002  0.116  0.000  0.000  0.000  0.000  0.000  0.161
tot    0.043  0.057  0.067  0.119  0.000  0.000  0.000  0.000  0.000  0.287
 
band     8 # energy   13.58833248 # occ.  0.00000000
 
ion      s     py     pz     px    dxy    dyz    dz2    dxz  x2-y2    tot
    1  0.042  0.002  0.002  0.116  0.000  0.000  0.000  0.000  0.000  0.161
    2  0.001  0.056  0.065  0.003  0.000  0.000  0.000  0.000  0.000  0.126
tot    0.043  0.057  0.067  0.119  0.000  0.000  0.000  0.000  0.000  0.287
 
band     9 # energy   16.41138567 # occ.  0.00000000
 
ion      s     py     pz     px    dxy    dyz    dz2    dxz  x2-y2    tot
    1  0.000  0.021  0.074  0.031  0.000  0.000  0.000  0.000  0.000  0.127
    2  0.000  0.020  0.068  0.034  0.000  0.000  0.000  0.000  0.000  0.122
tot    0.001  0.041  0.142  0.065  0.000  0.000  0.000  0.000  0.000  0.249
 
band    10 # energy   16.41138575 # occ.  0.00000000
 
ion      s     py     pz     px    dxy    dyz    dz2    dxz  x2-y2    tot
    1  0.000  0.020  0.068  0.034  0.000  0.000  0.000  0.000  0.000  0.122
    2  0.000  0.021  0.074  0.031  0.000  0.000  0.000  0.000  0.000  0.127
tot    0.001  0.041  0.142  0.065  0.000  0.000  0.000  0.000  0.000  0.249
 
band    11 # energy   18.72503157 # occ.  0.00000000
 
ion      s     py     pz     px    dxy    dyz    dz2    dxz  x2-y2    tot
    1  0.038  0.034  0.007  0.000  0.000  0.000  0.000  0.000  0.000  0.079
    2  0.011  0.121  0.026  0.000  0.000  0.000  0.000  0.000  0.000  0.157
tot    0.049  0.155  0.033  0.000  0.000  0.000  0.000  0.000  0.000  0.237
 
band    12 # energy   18.72503958 # occ.  0.00000000
 
ion      s     py     pz     px    dxy    dyz    dz2    dxz  x2-y2    tot
    1  0.011  0.121  0.026  0.000  0.000  0.000  0.000  0.000  0.000  0.157
    2  0.038  0.034  0.007  0.000  0.000  0.000  0.000  0.000  0.000  0.079
tot    0.049  0.154  0.033  0.000  0.000  0.000  0.000  0.000  0.000  0.237
 

 k-point    92 :    0.50000000 0.13571429 0.63571429     weight = 0.00555556

band     1 # energy   -1.89393657 # occ.  2.00000000
 
ion      s     py     pz     px    dxy    dyz    dz2    dxz  x2-y2    tot
    1  0.187  0.041  0.006  0.000  0.000  0.000  0.000  0.000  0.000  0.233
    2  0.212  0.036  0.005  0.000  0.000  0.000  0.000  0.000  0.000  0.253
tot    0.398  0.076  0.011  0.000  0.000  0.000  0.000  0.000  0.000  0.486
 
band     2 # energy   -1.89393656 # occ.  2.00000000
 
ion      s     py     pz     px    dxy    dyz    dz2    dxz  x2-y2    tot
    1  0.212  0.036  0.005  0.000  0.000  0.000  0.000  0.000  0.000  0.253
    2  0.187  0.041  0.006  0.000  0.000  0.000  0.000  0.000  0.000  0.233
tot    0.398  0.076  0.011  0.000  0.000  0.000  0.000  0.000  0.000  0.486
 
band     3 # energy    2.35269325 # occ.  2.00000000
 
ion      s     py     pz     px    dxy    dyz    dz2    dxz  x2-y2    tot
    1  0.002  0.019  0.075  0.076  0.000  0.000  0.000  0.000  0.000  0.173
    2  0.003  0.019  0.073  0.079  0.000  0.000  0.000  0.000  0.000  0.172
tot    0.005  0.038  0.148  0.155  0.000  0.000  0.000  0.000  0.000  0.345
 
band     4 # energy    2.35269331 # occ.  2.00000000
 
ion      s     py     pz     px    dxy    dyz    dz2    dxz  x2-y2    tot
    1  0.003  0.019  0.073  0.079  0.000  0.000  0.000  0.000  0.000  0.172
    2  0.002  0.019  0.075  0.076  0.000  0.000  0.000  0.000  0.000  0.173
tot    0.005  0.038  0.148  0.155  0.000  0.000  0.000  0.000  0.000  0.345
 
band     5 # energy    7.99222725 # occ.  0.00000000
 
ion      s     py     pz     px    dxy    dyz    dz2    dxz  x2-y2    tot
    1  0.001  0.047  0.032  0.001  0.000  0.000  0.000  0.000  0.000  0.082
    2  0.075  0.001  0.000  0.056  0.000  0.000  0.000  0.000  0.000  0.132
tot    0.076  0.048  0.033  0.057  0.000  0.000  0.000  0.000  0.000  0.214
 
band     6 # energy    7.99222726 # occ.  0.00000000
 
ion      s     py     pz     px    dxy    dyz    dz2    dxz  x2-y2    tot
    1  0.075  0.001  0.000  0.056  0.000  0.000  0.000  0.000  0.000  0.132
    2  0.001  0.047  0.032  0.001  0.000  0.000  0.000  0.000  0.000  0.082
tot    0.076  0.048  0.033  0.057  0.000  0.000  0.000  0.000  0.000  0.214
 
band     7 # energy   13.40178155 # occ.  0.00000000
 
ion      s     py     pz     px    dxy    dyz    dz2    dxz  x2-y2    tot
    1  0.045  0.001  0.001  0.113  0.000  0.000  0.000  0.000  0.000  0.160
    2  0.001  0.058  0.065  0.002  0.000  0.000  0.000  0.000  0.000  0.125
tot    0.045  0.059  0.066  0.115  0.000  0.000  0.000  0.000  0.000  0.285
 
band     8 # energy   13.40178276 # occ.  0.00000000
 
ion      s     py     pz     px    dxy    dyz    dz2    dxz  x2-y2    tot
    1  0.001  0.058  0.065  0.002  0.000  0.000  0.000  0.000  0.000  0.125
    2  0.044  0.001  0.001  0.113  0.000  0.000  0.000  0.000  0.000  0.160
tot    0.045  0.059  0.066  0.115  0.000  0.000  0.000  0.000  0.000  0.285
 
band     9 # energy   16.41062940 # occ.  0.00000000
 
ion      s     py     pz     px    dxy    dyz    dz2    dxz  x2-y2    tot
    1  0.001  0.008  0.026  0.055  0.000  0.000  0.000  0.000  0.000  0.089
    2  0.000  0.035  0.115  0.013  0.000  0.000  0.000  0.000  0.000  0.163
tot    0.001  0.043  0.141  0.067  0.000  0.000  0.000  0.000  0.000  0.252
 
band    10 # energy   16.41062965 # occ.  0.00000000
 
ion      s     py     pz     px    dxy    dyz    dz2    dxz  x2-y2    tot
    1  0.000  0.035  0.115  0.013  0.000  0.000  0.000  0.000  0.000  0.163
    2  0.001  0.008  0.026  0.055  0.000  0.000  0.000  0.000  0.000  0.089
tot    0.001  0.043  0.141  0.067  0.000  0.000  0.000  0.000  0.000  0.252
 
band    11 # energy   18.73866395 # occ.  0.00000000
 
ion      s     py     pz     px    dxy    dyz    dz2    dxz  x2-y2    tot
    1  0.040  0.031  0.007  0.000  0.000  0.000  0.000  0.000  0.000  0.078
    2  0.010  0.123  0.029  0.000  0.000  0.000  0.000  0.000  0.000  0.162
tot    0.050  0.154  0.036  0.000  0.000  0.000  0.000  0.000  0.000  0.240
 
band    12 # energy   18.73876287 # occ.  0.00000000
 
ion      s     py     pz     px    dxy    dyz    dz2    dxz  x2-y2    tot
    1  0.010  0.124  0.029  0.000  0.000  0.000  0.000  0.000  0.000  0.162
    2  0.040  0.031  0.007  0.000  0.000  0.000  0.000  0.000  0.000  0.078
tot    0.050  0.155  0.036  0.000  0.000  0.000  0.000  0.000  0.000  0.241
 

 k-point    93 :    0.50000000 0.14285714 0.64285714     weight = 0.00555556

band     1 # energy   -1.88659508 # occ.  2.00000000
 
ion      s     py     pz     px    dxy    dyz    dz2    dxz  x2-y2    tot
    1  0.294  0.020  0.003  0.000  0.000  0.000  0.000  0.000  0.000  0.317
    2  0.106  0.055  0.009  0.000  0.000  0.000  0.000  0.000  0.000  0.170
tot    0.399  0.075  0.013  0.000  0.000  0.000  0.000  0.000  0.000  0.487
 
band     2 # energy   -1.88659507 # occ.  2.00000000
 
ion      s     py     pz     px    dxy    dyz    dz2    dxz  x2-y2    tot
    1  0.106  0.055  0.009  0.000  0.000  0.000  0.000  0.000  0.000  0.170
    2  0.294  0.020  0.003  0.000  0.000  0.000  0.000  0.000  0.000  0.317
tot    0.399  0.075  0.013  0.000  0.000  0.000  0.000  0.000  0.000  0.487
 
band     3 # energy    2.31184099 # occ.  2.00000000
 
ion      s     py     pz     px    dxy    dyz    dz2    dxz  x2-y2    tot
    1  0.003  0.015  0.055  0.095  0.000  0.000  0.000  0.000  0.000  0.168
    2  0.002  0.025  0.090  0.058  0.000  0.000  0.000  0.000  0.000  0.175
tot    0.005  0.041  0.144  0.153  0.000  0.000  0.000  0.000  0.000  0.343
 
band     4 # energy    2.31184100 # occ.  2.00000000
 
ion      s     py     pz     px    dxy    dyz    dz2    dxz  x2-y2    tot
    1  0.002  0.025  0.090  0.058  0.000  0.000  0.000  0.000  0.000  0.175
    2  0.003  0.015  0.055  0.095  0.000  0.000  0.000  0.000  0.000  0.168
tot    0.005  0.041  0.144  0.153  0.000  0.000  0.000  0.000  0.000  0.343
 
band     5 # energy    8.12305297 # occ.  0.00000000
 
ion      s     py     pz     px    dxy    dyz    dz2    dxz  x2-y2    tot
    1  0.043  0.020  0.014  0.035  0.000  0.000  0.000  0.000  0.000  0.112
    2  0.031  0.027  0.020  0.026  0.000  0.000  0.000  0.000  0.000  0.103
tot    0.074  0.047  0.034  0.061  0.000  0.000  0.000  0.000  0.000  0.216
 
band     6 # energy    8.12305298 # occ.  0.00000000
 
ion      s     py     pz     px    dxy    dyz    dz2    dxz  x2-y2    tot
    1  0.031  0.027  0.020  0.026  0.000  0.000  0.000  0.000  0.000  0.103
    2  0.043  0.020  0.014  0.035  0.000  0.000  0.000  0.000  0.000  0.112
tot    0.074  0.047  0.034  0.061  0.000  0.000  0.000  0.000  0.000  0.216
 
band     7 # energy   13.21542534 # occ.  0.00000000
 
ion      s     py     pz     px    dxy    dyz    dz2    dxz  x2-y2    tot
    1  0.005  0.054  0.058  0.011  0.000  0.000  0.000  0.000  0.000  0.128
    2  0.043  0.006  0.006  0.100  0.000  0.000  0.000  0.000  0.000  0.155
tot    0.047  0.060  0.064  0.111  0.000  0.000  0.000  0.000  0.000  0.283
 
band     8 # energy   13.21542560 # occ.  0.00000000
 
ion      s     py     pz     px    dxy    dyz    dz2    dxz  x2-y2    tot
    1  0.043  0.006  0.006  0.100  0.000  0.000  0.000  0.000  0.000  0.155
    2  0.005  0.054  0.058  0.011  0.000  0.000  0.000  0.000  0.000  0.128
tot    0.047  0.060  0.064  0.111  0.000  0.000  0.000  0.000  0.000  0.283
 
band     9 # energy   16.41026776 # occ.  0.00000000
 
ion      s     py     pz     px    dxy    dyz    dz2    dxz  x2-y2    tot
    1  0.000  0.007  0.021  0.058  0.000  0.000  0.000  0.000  0.000  0.086
    2  0.000  0.039  0.119  0.010  0.000  0.000  0.000  0.000  0.000  0.168
tot    0.001  0.046  0.140  0.068  0.000  0.000  0.000  0.000  0.000  0.255
 
band    10 # energy   16.41026833 # occ.  0.00000000
 
ion      s     py     pz     px    dxy    dyz    dz2    dxz  x2-y2    tot
    1  0.000  0.039  0.119  0.010  0.000  0.000  0.000  0.000  0.000  0.168
    2  0.000  0.007  0.021  0.058  0.000  0.000  0.000  0.000  0.000  0.086
tot    0.001  0.046  0.140  0.069  0.000  0.000  0.000  0.000  0.000  0.255
 
band    11 # energy   18.75218805 # occ.  0.00000000
 
ion      s     py     pz     px    dxy    dyz    dz2    dxz  x2-y2    tot
    1  0.028  0.066  0.017  0.000  0.000  0.000  0.000  0.000  0.000  0.112
    2  0.022  0.087  0.022  0.000  0.000  0.000  0.000  0.000  0.000  0.131
tot    0.050  0.153  0.040  0.000  0.000  0.000  0.000  0.000  0.000  0.243
 
band    12 # energy   18.75227135 # occ.  0.00000000
 
ion      s     py     pz     px    dxy    dyz    dz2    dxz  x2-y2    tot
    1  0.022  0.086  0.023  0.000  0.000  0.000  0.000  0.000  0.000  0.130
    2  0.028  0.066  0.017  0.000  0.000  0.000  0.000  0.000  0.000  0.112
tot    0.050  0.152  0.040  0.000  0.000  0.000  0.000  0.000  0.000  0.242
 

 k-point    94 :    0.50000000 0.15000000 0.65000000     weight = 0.00555556

band     1 # energy   -1.87933964 # occ.  2.00000000
 
ion      s     py     pz     px    dxy    dyz    dz2    dxz  x2-y2    tot
    1  0.382  0.003  0.001  0.000  0.000  0.000  0.000  0.000  0.000  0.386
    2  0.018  0.070  0.013  0.000  0.000  0.000  0.000  0.000  0.000  0.101
tot    0.400  0.073  0.014  0.000  0.000  0.000  0.000  0.000  0.000  0.488
 
band     2 # energy   -1.87933963 # occ.  2.00000000
 
ion      s     py     pz     px    dxy    dyz    dz2    dxz  x2-y2    tot
    1  0.018  0.070  0.013  0.000  0.000  0.000  0.000  0.000  0.000  0.101
    2  0.382  0.003  0.001  0.000  0.000  0.000  0.000  0.000  0.000  0.386
tot    0.400  0.073  0.014  0.000  0.000  0.000  0.000  0.000  0.000  0.488
 
band     3 # energy    2.27255910 # occ.  2.00000000
 
ion      s     py     pz     px    dxy    dyz    dz2    dxz  x2-y2    tot
    1  0.002  0.023  0.075  0.071  0.000  0.000  0.000  0.000  0.000  0.171
    2  0.002  0.021  0.066  0.080  0.000  0.000  0.000  0.000  0.000  0.169
tot    0.004  0.044  0.141  0.151  0.000  0.000  0.000  0.000  0.000  0.340
 
band     4 # energy    2.27255916 # occ.  2.00000000
 
ion      s     py     pz     px    dxy    dyz    dz2    dxz  x2-y2    tot
    1  0.002  0.021  0.066  0.080  0.000  0.000  0.000  0.000  0.000  0.169
    2  0.002  0.023  0.075  0.071  0.000  0.000  0.000  0.000  0.000  0.171
tot    0.004  0.044  0.141  0.151  0.000  0.000  0.000  0.000  0.000  0.340
 
band     5 # energy    8.25707767 # occ.  0.00000000
 
ion      s     py     pz     px    dxy    dyz    dz2    dxz  x2-y2    tot
    1  0.030  0.027  0.021  0.027  0.000  0.000  0.000  0.000  0.000  0.104
    2  0.042  0.019  0.014  0.038  0.000  0.000  0.000  0.000  0.000  0.113
tot    0.072  0.045  0.035  0.064  0.000  0.000  0.000  0.000  0.000  0.217
 
band     6 # energy    8.25707768 # occ.  0.00000000
 
ion      s     py     pz     px    dxy    dyz    dz2    dxz  x2-y2    tot
    1  0.042  0.019  0.014  0.038  0.000  0.000  0.000  0.000  0.000  0.113
    2  0.030  0.027  0.021  0.027  0.000  0.000  0.000  0.000  0.000  0.104
tot    0.072  0.045  0.035  0.064  0.000  0.000  0.000  0.000  0.000  0.217
 
band     7 # energy   13.02951985 # occ.  0.00000000
 
ion      s     py     pz     px    dxy    dyz    dz2    dxz  x2-y2    tot
    1  0.049  0.001  0.001  0.105  0.000  0.000  0.000  0.000  0.000  0.156
    2  0.001  0.061  0.062  0.002  0.000  0.000  0.000  0.000  0.000  0.126
tot    0.050  0.062  0.063  0.107  0.000  0.000  0.000  0.000  0.000  0.282
 
band     8 # energy   13.02952008 # occ.  0.00000000
 
ion      s     py     pz     px    dxy    dyz    dz2    dxz  x2-y2    tot
    1  0.001  0.060  0.062  0.002  0.000  0.000  0.000  0.000  0.000  0.126
    2  0.049  0.001  0.001  0.105  0.000  0.000  0.000  0.000  0.000  0.156
tot    0.050  0.062  0.063  0.107  0.000  0.000  0.000  0.000  0.000  0.282
 
band     9 # energy   16.41021273 # occ.  0.00000000
 
ion      s     py     pz     px    dxy    dyz    dz2    dxz  x2-y2    tot
    1  0.000  0.004  0.011  0.064  0.000  0.000  0.000  0.000  0.000  0.080
    2  0.000  0.045  0.127  0.006  0.000  0.000  0.000  0.000  0.000  0.177
tot    0.000  0.049  0.138  0.070  0.000  0.000  0.000  0.000  0.000  0.257
 
band    10 # energy   16.41021385 # occ.  0.00000000
 
ion      s     py     pz     px    dxy    dyz    dz2    dxz  x2-y2    tot
    1  0.000  0.045  0.127  0.006  0.000  0.000  0.000  0.000  0.000  0.177
    2  0.000  0.004  0.011  0.064  0.000  0.000  0.000  0.000  0.000  0.080
tot    0.000  0.049  0.138  0.070  0.000  0.000  0.000  0.000  0.000  0.257
 
band    11 # energy   18.76554272 # occ.  0.00000000
 
ion      s     py     pz     px    dxy    dyz    dz2    dxz  x2-y2    tot
    1  0.050  0.001  0.000  0.000  0.000  0.000  0.000  0.000  0.000  0.051
    2  0.000  0.151  0.043  0.000  0.000  0.000  0.000  0.000  0.000  0.194
tot    0.050  0.152  0.043  0.000  0.000  0.000  0.000  0.000  0.000  0.245
 
band    12 # energy   18.76581321 # occ.  0.00000000
 
ion      s     py     pz     px    dxy    dyz    dz2    dxz  x2-y2    tot
    1  0.000  0.152  0.043  0.000  0.000  0.000  0.000  0.000  0.000  0.195
    2  0.050  0.001  0.000  0.000  0.000  0.000  0.000  0.000  0.000  0.051
tot    0.050  0.153  0.043  0.000  0.000  0.000  0.000  0.000  0.000  0.246
 

 k-point    95 :    0.50000000 0.15714286 0.65714286     weight = 0.00555556

band     1 # energy   -1.87222520 # occ.  2.00000000
 
ion      s     py     pz     px    dxy    dyz    dz2    dxz  x2-y2    tot
    1  0.368  0.006  0.001  0.000  0.000  0.000  0.000  0.000  0.000  0.375
    2  0.033  0.065  0.014  0.000  0.000  0.000  0.000  0.000  0.000  0.113
tot    0.401  0.071  0.016  0.000  0.000  0.000  0.000  0.000  0.000  0.488
 
band     2 # energy   -1.87222519 # occ.  2.00000000
 
ion      s     py     pz     px    dxy    dyz    dz2    dxz  x2-y2    tot
    1  0.033  0.065  0.014  0.000  0.000  0.000  0.000  0.000  0.000  0.113
    2  0.368  0.006  0.001  0.000  0.000  0.000  0.000  0.000  0.000  0.375
tot    0.401  0.071  0.016  0.000  0.000  0.000  0.000  0.000  0.000  0.488
 
band     3 # energy    2.23506509 # occ.  2.00000000
 
ion      s     py     pz     px    dxy    dyz    dz2    dxz  x2-y2    tot
    1  0.003  0.016  0.046  0.099  0.000  0.000  0.000  0.000  0.000  0.164
    2  0.001  0.031  0.092  0.050  0.000  0.000  0.000  0.000  0.000  0.174
tot    0.004  0.047  0.138  0.149  0.000  0.000  0.000  0.000  0.000  0.338
 
band     4 # energy    2.23506513 # occ.  2.00000000
 
ion      s     py     pz     px    dxy    dyz    dz2    dxz  x2-y2    tot
    1  0.001  0.031  0.092  0.050  0.000  0.000  0.000  0.000  0.000  0.174
    2  0.003  0.016  0.046  0.099  0.000  0.000  0.000  0.000  0.000  0.164
tot    0.004  0.047  0.138  0.149  0.000  0.000  0.000  0.000  0.000  0.338
 
band     5 # energy    8.39412036 # occ.  0.00000000
 
ion      s     py     pz     px    dxy    dyz    dz2    dxz  x2-y2    tot
    1  0.067  0.002  0.002  0.065  0.000  0.000  0.000  0.000  0.000  0.136
    2  0.003  0.042  0.034  0.003  0.000  0.000  0.000  0.000  0.000  0.083
tot    0.070  0.044  0.036  0.068  0.000  0.000  0.000  0.000  0.000  0.218
 
band     6 # energy    8.39412036 # occ.  0.00000000
 
ion      s     py     pz     px    dxy    dyz    dz2    dxz  x2-y2    tot
    1  0.003  0.042  0.034  0.003  0.000  0.000  0.000  0.000  0.000  0.083
    2  0.067  0.002  0.002  0.065  0.000  0.000  0.000  0.000  0.000  0.136
tot    0.070  0.044  0.036  0.068  0.000  0.000  0.000  0.000  0.000  0.218
 
band     7 # energy   12.84434354 # occ.  0.00000000
 
ion      s     py     pz     px    dxy    dyz    dz2    dxz  x2-y2    tot
    1  0.002  0.060  0.059  0.005  0.000  0.000  0.000  0.000  0.000  0.127
    2  0.050  0.003  0.003  0.098  0.000  0.000  0.000  0.000  0.000  0.154
tot    0.052  0.063  0.062  0.103  0.000  0.000  0.000  0.000  0.000  0.281
 
band     8 # energy   12.84434448 # occ.  0.00000000
 
ion      s     py     pz     px    dxy    dyz    dz2    dxz  x2-y2    tot
    1  0.050  0.003  0.003  0.098  0.000  0.000  0.000  0.000  0.000  0.154
    2  0.002  0.060  0.059  0.005  0.000  0.000  0.000  0.000  0.000  0.127
tot    0.052  0.063  0.062  0.103  0.000  0.000  0.000  0.000  0.000  0.280
 
band     9 # energy   16.41039264 # occ.  0.00000000
 
ion      s     py     pz     px    dxy    dyz    dz2    dxz  x2-y2    tot
    1  0.000  0.003  0.008  0.067  0.000  0.000  0.000  0.000  0.000  0.078
    2  0.000  0.049  0.128  0.004  0.000  0.000  0.000  0.000  0.000  0.181
tot    0.000  0.052  0.136  0.071  0.000  0.000  0.000  0.000  0.000  0.259
 
band    10 # energy   16.41039338 # occ.  0.00000000
 
ion      s     py     pz     px    dxy    dyz    dz2    dxz  x2-y2    tot
    1  0.000  0.049  0.128  0.004  0.000  0.000  0.000  0.000  0.000  0.181
    2  0.000  0.003  0.008  0.067  0.000  0.000  0.000  0.000  0.000  0.078
tot    0.000  0.052  0.136  0.071  0.000  0.000  0.000  0.000  0.000  0.259
 
band    11 # energy   18.77877816 # occ.  0.00000000
 
ion      s     py     pz     px    dxy    dyz    dz2    dxz  x2-y2    tot
    1  0.010  0.120  0.037  0.000  0.000  0.000  0.000  0.000  0.000  0.168
    2  0.040  0.030  0.009  0.000  0.000  0.000  0.000  0.000  0.000  0.080
tot    0.050  0.150  0.047  0.000  0.000  0.000  0.000  0.000  0.000  0.248
 
band    12 # energy   18.77885386 # occ.  0.00000000
 
ion      s     py     pz     px    dxy    dyz    dz2    dxz  x2-y2    tot
    1  0.040  0.030  0.010  0.000  0.000  0.000  0.000  0.000  0.000  0.080
    2  0.010  0.120  0.037  0.000  0.000  0.000  0.000  0.000  0.000  0.168
tot    0.051  0.150  0.047  0.000  0.000  0.000  0.000  0.000  0.000  0.248
 

 k-point    96 :    0.50000000 0.16428571 0.66428571     weight = 0.00555556

band     1 # energy   -1.86532500 # occ.  2.00000000
 
ion      s     py     pz     px    dxy    dyz    dz2    dxz  x2-y2    tot
    1  0.335  0.012  0.003  0.000  0.000  0.000  0.000  0.000  0.000  0.349
    2  0.068  0.058  0.014  0.000  0.000  0.000  0.000  0.000  0.000  0.140
tot    0.402  0.069  0.017  0.000  0.000  0.000  0.000  0.000  0.000  0.489
 
band     2 # energy   -1.86532500 # occ.  2.00000000
 
ion      s     py     pz     px    dxy    dyz    dz2    dxz  x2-y2    tot
    1  0.068  0.058  0.014  0.000  0.000  0.000  0.000  0.000  0.000  0.140
    2  0.335  0.012  0.003  0.000  0.000  0.000  0.000  0.000  0.000  0.349
tot    0.402  0.069  0.017  0.000  0.000  0.000  0.000  0.000  0.000  0.489
 
band     3 # energy    2.19955963 # occ.  2.00000000
 
ion      s     py     pz     px    dxy    dyz    dz2    dxz  x2-y2    tot
    1  0.002  0.022  0.059  0.083  0.000  0.000  0.000  0.000  0.000  0.166
    2  0.002  0.028  0.076  0.065  0.000  0.000  0.000  0.000  0.000  0.170
tot    0.004  0.050  0.134  0.148  0.000  0.000  0.000  0.000  0.000  0.336
 
band     4 # energy    2.19955969 # occ.  2.00000000
 
ion      s     py     pz     px    dxy    dyz    dz2    dxz  x2-y2    tot
    1  0.002  0.028  0.076  0.065  0.000  0.000  0.000  0.000  0.000  0.170
    2  0.002  0.022  0.059  0.083  0.000  0.000  0.000  0.000  0.000  0.166
tot    0.004  0.050  0.134  0.148  0.000  0.000  0.000  0.000  0.000  0.336
 
band     5 # energy    8.53385464 # occ.  0.00000000
 
ion      s     py     pz     px    dxy    dyz    dz2    dxz  x2-y2    tot
    1  0.059  0.006  0.005  0.063  0.000  0.000  0.000  0.000  0.000  0.132
    2  0.009  0.037  0.032  0.010  0.000  0.000  0.000  0.000  0.000  0.087
tot    0.068  0.043  0.037  0.072  0.000  0.000  0.000  0.000  0.000  0.219
 
band     6 # energy    8.53385467 # occ.  0.00000000
 
ion      s     py     pz     px    dxy    dyz    dz2    dxz  x2-y2    tot
    1  0.009  0.037  0.032  0.010  0.000  0.000  0.000  0.000  0.000  0.087
    2  0.059  0.006  0.005  0.063  0.000  0.000  0.000  0.000  0.000  0.132
tot    0.068  0.043  0.037  0.072  0.000  0.000  0.000  0.000  0.000  0.219
 
band     7 # energy   12.66004220 # occ.  0.00000000
 
ion      s     py     pz     px    dxy    dyz    dz2    dxz  x2-y2    tot
    1  0.014  0.047  0.045  0.026  0.000  0.000  0.000  0.000  0.000  0.134
    2  0.040  0.017  0.016  0.073  0.000  0.000  0.000  0.000  0.000  0.146
tot    0.055  0.065  0.062  0.099  0.000  0.000  0.000  0.000  0.000  0.280
 
band     8 # energy   12.66004267 # occ.  0.00000000
 
ion      s     py     pz     px    dxy    dyz    dz2    dxz  x2-y2    tot
    1  0.040  0.017  0.016  0.073  0.000  0.000  0.000  0.000  0.000  0.146
    2  0.014  0.047  0.045  0.026  0.000  0.000  0.000  0.000  0.000  0.134
tot    0.055  0.065  0.062  0.099  0.000  0.000  0.000  0.000  0.000  0.280
 
band     9 # energy   16.41079293 # occ.  0.00000000
 
ion      s     py     pz     px    dxy    dyz    dz2    dxz  x2-y2    tot
    1  0.000  0.002  0.005  0.069  0.000  0.000  0.000  0.000  0.000  0.077
    2  0.000  0.052  0.128  0.003  0.000  0.000  0.000  0.000  0.000  0.184
tot    0.000  0.055  0.134  0.072  0.000  0.000  0.000  0.000  0.000  0.260
 
band    10 # energy   16.41079772 # occ.  0.00000000
 
ion      s     py     pz     px    dxy    dyz    dz2    dxz  x2-y2    tot
    1  0.000  0.052  0.128  0.003  0.000  0.000  0.000  0.000  0.000  0.183
    2  0.000  0.002  0.005  0.069  0.000  0.000  0.000  0.000  0.000  0.077
tot    0.000  0.055  0.133  0.072  0.000  0.000  0.000  0.000  0.000  0.260
 
band    11 # energy   18.79155265 # occ.  0.00000000
 
ion      s     py     pz     px    dxy    dyz    dz2    dxz  x2-y2    tot
    1  0.023  0.082  0.028  0.000  0.000  0.000  0.000  0.000  0.000  0.133
    2  0.028  0.066  0.023  0.000  0.000  0.000  0.000  0.000  0.000  0.117
tot    0.051  0.148  0.051  0.000  0.000  0.000  0.000  0.000  0.000  0.250
 
band    12 # energy   18.79168729 # occ.  0.00000000
 
ion      s     py     pz     px    dxy    dyz    dz2    dxz  x2-y2    tot
    1  0.028  0.066  0.023  0.000  0.000  0.000  0.000  0.000  0.000  0.116
    2  0.022  0.081  0.028  0.000  0.000  0.000  0.000  0.000  0.000  0.132
tot    0.050  0.147  0.051  0.000  0.000  0.000  0.000  0.000  0.000  0.249
 

 k-point    97 :    0.50000000 0.17142857 0.67142857     weight = 0.00555556

band     1 # energy   -1.85870329 # occ.  2.00000000
 
ion      s     py     pz     px    dxy    dyz    dz2    dxz  x2-y2    tot
    1  0.389  0.002  0.001  0.000  0.000  0.000  0.000  0.000  0.000  0.392
    2  0.015  0.065  0.018  0.000  0.000  0.000  0.000  0.000  0.000  0.098
tot    0.403  0.067  0.019  0.000  0.000  0.000  0.000  0.000  0.000  0.490
 
band     2 # energy   -1.85870329 # occ.  2.00000000
 
ion      s     py     pz     px    dxy    dyz    dz2    dxz  x2-y2    tot
    1  0.015  0.065  0.018  0.000  0.000  0.000  0.000  0.000  0.000  0.098
    2  0.389  0.002  0.001  0.000  0.000  0.000  0.000  0.000  0.000  0.392
tot    0.403  0.067  0.019  0.000  0.000  0.000  0.000  0.000  0.000  0.490
 
band     3 # energy    2.16621491 # occ.  2.00000000
 
ion      s     py     pz     px    dxy    dyz    dz2    dxz  x2-y2    tot
    1  0.003  0.002  0.005  0.140  0.000  0.000  0.000  0.000  0.000  0.151
    2  0.000  0.051  0.125  0.006  0.000  0.000  0.000  0.000  0.000  0.183
tot    0.003  0.053  0.131  0.146  0.000  0.000  0.000  0.000  0.000  0.334
 
band     4 # energy    2.16621494 # occ.  2.00000000
 
ion      s     py     pz     px    dxy    dyz    dz2    dxz  x2-y2    tot
    1  0.000  0.051  0.125  0.006  0.000  0.000  0.000  0.000  0.000  0.183
    2  0.003  0.002  0.005  0.140  0.000  0.000  0.000  0.000  0.000  0.151
tot    0.003  0.053  0.131  0.146  0.000  0.000  0.000  0.000  0.000  0.334
 
band     5 # energy    8.67602637 # occ.  0.00000000
 
ion      s     py     pz     px    dxy    dyz    dz2    dxz  x2-y2    tot
    1  0.008  0.036  0.033  0.010  0.000  0.000  0.000  0.000  0.000  0.087
    2  0.057  0.005  0.005  0.067  0.000  0.000  0.000  0.000  0.000  0.133
tot    0.065  0.041  0.037  0.076  0.000  0.000  0.000  0.000  0.000  0.220
 
band     6 # energy    8.67602638 # occ.  0.00000000
 
ion      s     py     pz     px    dxy    dyz    dz2    dxz  x2-y2    tot
    1  0.057  0.005  0.005  0.067  0.000  0.000  0.000  0.000  0.000  0.133
    2  0.008  0.036  0.033  0.010  0.000  0.000  0.000  0.000  0.000  0.087
tot    0.065  0.041  0.037  0.076  0.000  0.000  0.000  0.000  0.000  0.220
 
band     7 # energy   12.47677032 # occ.  0.00000000
 
ion      s     py     pz     px    dxy    dyz    dz2    dxz  x2-y2    tot
    1  0.045  0.014  0.013  0.075  0.000  0.000  0.000  0.000  0.000  0.147
    2  0.012  0.052  0.049  0.020  0.000  0.000  0.000  0.000  0.000  0.132
tot    0.057  0.066  0.062  0.095  0.000  0.000  0.000  0.000  0.000  0.279
 
band     8 # energy   12.47677084 # occ.  0.00000000
 
ion      s     py     pz     px    dxy    dyz    dz2    dxz  x2-y2    tot
    1  0.012  0.052  0.049  0.020  0.000  0.000  0.000  0.000  0.000  0.133
    2  0.045  0.014  0.013  0.075  0.000  0.000  0.000  0.000  0.000  0.147
tot    0.057  0.066  0.062  0.095  0.000  0.000  0.000  0.000  0.000  0.279
 
band     9 # energy   16.41110030 # occ.  0.00000000
 
ion      s     py     pz     px    dxy    dyz    dz2    dxz  x2-y2    tot
    1  0.000  0.033  0.076  0.030  0.000  0.000  0.000  0.000  0.000  0.140
    2  0.000  0.024  0.055  0.042  0.000  0.000  0.000  0.000  0.000  0.121
tot    0.000  0.058  0.131  0.073  0.000  0.000  0.000  0.000  0.000  0.262
 
band    10 # energy   16.41110043 # occ.  0.00000000
 
ion      s     py     pz     px    dxy    dyz    dz2    dxz  x2-y2    tot
    1  0.000  0.024  0.055  0.042  0.000  0.000  0.000  0.000  0.000  0.121
    2  0.000  0.033  0.076  0.030  0.000  0.000  0.000  0.000  0.000  0.140
tot    0.000  0.058  0.131  0.073  0.000  0.000  0.000  0.000  0.000  0.262
 
band    11 # energy   18.80387453 # occ.  0.00000000
 
ion      s     py     pz     px    dxy    dyz    dz2    dxz  x2-y2    tot
    1  0.033  0.051  0.019  0.000  0.000  0.000  0.000  0.000  0.000  0.104
    2  0.018  0.095  0.036  0.000  0.000  0.000  0.000  0.000  0.000  0.148
tot    0.051  0.146  0.055  0.000  0.000  0.000  0.000  0.000  0.000  0.252
 
band    12 # energy   18.80388383 # occ.  0.00000000
 
ion      s     py     pz     px    dxy    dyz    dz2    dxz  x2-y2    tot
    1  0.018  0.094  0.036  0.000  0.000  0.000  0.000  0.000  0.000  0.148
    2  0.033  0.051  0.019  0.000  0.000  0.000  0.000  0.000  0.000  0.104
tot    0.051  0.146  0.055  0.000  0.000  0.000  0.000  0.000  0.000  0.252
 

 k-point    98 :    0.50000000 0.17857143 0.67857143     weight = 0.00555556

band     1 # energy   -1.85241251 # occ.  2.00000000
 
ion      s     py     pz     px    dxy    dyz    dz2    dxz  x2-y2    tot
    1  0.381  0.004  0.001  0.000  0.000  0.000  0.000  0.000  0.000  0.386
    2  0.023  0.062  0.020  0.000  0.000  0.000  0.000  0.000  0.000  0.104
tot    0.404  0.065  0.021  0.000  0.000  0.000  0.000  0.000  0.000  0.490
 
band     2 # energy   -1.85241249 # occ.  2.00000000
 
ion      s     py     pz     px    dxy    dyz    dz2    dxz  x2-y2    tot
    1  0.023  0.062  0.020  0.000  0.000  0.000  0.000  0.000  0.000  0.104
    2  0.381  0.004  0.001  0.000  0.000  0.000  0.000  0.000  0.000  0.386
tot    0.404  0.065  0.021  0.000  0.000  0.000  0.000  0.000  0.000  0.490
 
band     3 # energy    2.13521315 # occ.  2.00000000
 
ion      s     py     pz     px    dxy    dyz    dz2    dxz  x2-y2    tot
    1  0.002  0.027  0.060  0.077  0.000  0.000  0.000  0.000  0.000  0.165
    2  0.001  0.030  0.068  0.068  0.000  0.000  0.000  0.000  0.000  0.167
tot    0.003  0.057  0.127  0.145  0.000  0.000  0.000  0.000  0.000  0.332
 
band     4 # energy    2.13521319 # occ.  2.00000000
 
ion      s     py     pz     px    dxy    dyz    dz2    dxz  x2-y2    tot
    1  0.001  0.030  0.068  0.068  0.000  0.000  0.000  0.000  0.000  0.167
    2  0.002  0.027  0.060  0.077  0.000  0.000  0.000  0.000  0.000  0.165
tot    0.003  0.057  0.127  0.145  0.000  0.000  0.000  0.000  0.000  0.332
 
band     5 # energy    8.82046821 # occ.  0.00000000
 
ion      s     py     pz     px    dxy    dyz    dz2    dxz  x2-y2    tot
    1  0.043  0.012  0.012  0.056  0.000  0.000  0.000  0.000  0.000  0.123
    2  0.019  0.027  0.026  0.025  0.000  0.000  0.000  0.000  0.000  0.098
tot    0.062  0.040  0.038  0.081  0.000  0.000  0.000  0.000  0.000  0.220
 
band     6 # energy    8.82046823 # occ.  0.00000000
 
ion      s     py     pz     px    dxy    dyz    dz2    dxz  x2-y2    tot
    1  0.019  0.027  0.026  0.025  0.000  0.000  0.000  0.000  0.000  0.098
    2  0.043  0.012  0.012  0.056  0.000  0.000  0.000  0.000  0.000  0.123
tot    0.062  0.040  0.038  0.081  0.000  0.000  0.000  0.000  0.000  0.220
 
band     7 # energy   12.29501157 # occ.  0.00000000
 
ion      s     py     pz     px    dxy    dyz    dz2    dxz  x2-y2    tot
    1  0.023  0.042  0.038  0.034  0.000  0.000  0.000  0.000  0.000  0.137
    2  0.037  0.025  0.023  0.056  0.000  0.000  0.000  0.000  0.000  0.142
tot    0.060  0.067  0.062  0.091  0.000  0.000  0.000  0.000  0.000  0.279
 
band     8 # energy   12.29501188 # occ.  0.00000000
 
ion      s     py     pz     px    dxy    dyz    dz2    dxz  x2-y2    tot
    1  0.037  0.025  0.023  0.056  0.000  0.000  0.000  0.000  0.000  0.142
    2  0.023  0.042  0.038  0.034  0.000  0.000  0.000  0.000  0.000  0.137
tot    0.060  0.067  0.062  0.091  0.000  0.000  0.000  0.000  0.000  0.279
 
band     9 # energy   16.41165420 # occ.  0.00000000
 
ion      s     py     pz     px    dxy    dyz    dz2    dxz  x2-y2    tot
    1  0.000  0.024  0.052  0.044  0.000  0.000  0.000  0.000  0.000  0.120
    2  0.000  0.036  0.077  0.030  0.000  0.000  0.000  0.000  0.000  0.143
tot    0.000  0.061  0.128  0.074  0.000  0.000  0.000  0.000  0.000  0.263
 
band    10 # energy   16.41165453 # occ.  0.00000000
 
ion      s     py     pz     px    dxy    dyz    dz2    dxz  x2-y2    tot
    1  0.000  0.036  0.077  0.030  0.000  0.000  0.000  0.000  0.000  0.143
    2  0.000  0.024  0.052  0.044  0.000  0.000  0.000  0.000  0.000  0.120
tot    0.000  0.061  0.128  0.074  0.000  0.000  0.000  0.000  0.000  0.263
 
band    11 # energy   18.81557086 # occ.  0.00000000
 
ion      s     py     pz     px    dxy    dyz    dz2    dxz  x2-y2    tot
    1  0.030  0.060  0.025  0.000  0.000  0.000  0.000  0.000  0.000  0.114
    2  0.021  0.084  0.034  0.000  0.000  0.000  0.000  0.000  0.000  0.140
tot    0.051  0.144  0.059  0.000  0.000  0.000  0.000  0.000  0.000  0.254
 
band    12 # energy   18.81557719 # occ.  0.00000000
 
ion      s     py     pz     px    dxy    dyz    dz2    dxz  x2-y2    tot
    1  0.021  0.083  0.035  0.000  0.000  0.000  0.000  0.000  0.000  0.139
    2  0.030  0.060  0.025  0.000  0.000  0.000  0.000  0.000  0.000  0.114
tot    0.051  0.143  0.059  0.000  0.000  0.000  0.000  0.000  0.000  0.254
 

 k-point    99 :    0.50000000 0.18571429 0.68571429     weight = 0.00555556

band     1 # energy   -1.84651340 # occ.  2.00000000
 
ion      s     py     pz     px    dxy    dyz    dz2    dxz  x2-y2    tot
    1  0.396  0.001  0.001  0.000  0.000  0.000  0.000  0.000  0.000  0.398
    2  0.009  0.062  0.022  0.000  0.000  0.000  0.000  0.000  0.000  0.093
tot    0.405  0.063  0.023  0.000  0.000  0.000  0.000  0.000  0.000  0.491
 
band     2 # energy   -1.84651340 # occ.  2.00000000
 
ion      s     py     pz     px    dxy    dyz    dz2    dxz  x2-y2    tot
    1  0.009  0.062  0.022  0.000  0.000  0.000  0.000  0.000  0.000  0.093
    2  0.396  0.001  0.001  0.000  0.000  0.000  0.000  0.000  0.000  0.398
tot    0.405  0.063  0.023  0.000  0.000  0.000  0.000  0.000  0.000  0.491
 
band     3 # energy    2.10670167 # occ.  2.00000000
 
ion      s     py     pz     px    dxy    dyz    dz2    dxz  x2-y2    tot
    1  0.002  0.006  0.012  0.130  0.000  0.000  0.000  0.000  0.000  0.150
    2  0.000  0.054  0.112  0.013  0.000  0.000  0.000  0.000  0.000  0.180
tot    0.002  0.060  0.124  0.144  0.000  0.000  0.000  0.000  0.000  0.330
 
band     4 # energy    2.10670171 # occ.  2.00000000
 
ion      s     py     pz     px    dxy    dyz    dz2    dxz  x2-y2    tot
    1  0.000  0.054  0.112  0.013  0.000  0.000  0.000  0.000  0.000  0.180
    2  0.002  0.006  0.012  0.130  0.000  0.000  0.000  0.000  0.000  0.150
tot    0.002  0.060  0.124  0.144  0.000  0.000  0.000  0.000  0.000  0.330
 
band     5 # energy    8.96682832 # occ.  0.00000000
 
ion      s     py     pz     px    dxy    dyz    dz2    dxz  x2-y2    tot
    1  0.056  0.003  0.003  0.080  0.000  0.000  0.000  0.000  0.000  0.140
    2  0.004  0.035  0.035  0.006  0.000  0.000  0.000  0.000  0.000  0.080
tot    0.060  0.038  0.038  0.085  0.000  0.000  0.000  0.000  0.000  0.220
 
band     6 # energy    8.96682836 # occ.  0.00000000
 
ion      s     py     pz     px    dxy    dyz    dz2    dxz  x2-y2    tot
    1  0.004  0.035  0.035  0.006  0.000  0.000  0.000  0.000  0.000  0.080
    2  0.056  0.003  0.003  0.080  0.000  0.000  0.000  0.000  0.000  0.140
tot    0.060  0.038  0.038  0.085  0.000  0.000  0.000  0.000  0.000  0.220
 
band     7 # energy   12.11494477 # occ.  0.00000000
 
ion      s     py     pz     px    dxy    dyz    dz2    dxz  x2-y2    tot
    1  0.060  0.003  0.003  0.082  0.000  0.000  0.000  0.000  0.000  0.148
    2  0.003  0.066  0.059  0.004  0.000  0.000  0.000  0.000  0.000  0.132
tot    0.063  0.069  0.062  0.086  0.000  0.000  0.000  0.000  0.000  0.280
 
band     8 # energy   12.11494494 # occ.  0.00000000
 
ion      s     py     pz     px    dxy    dyz    dz2    dxz  x2-y2    tot
    1  0.003  0.066  0.059  0.004  0.000  0.000  0.000  0.000  0.000  0.132
    2  0.060  0.003  0.003  0.082  0.000  0.000  0.000  0.000  0.000  0.148
tot    0.063  0.069  0.062  0.086  0.000  0.000  0.000  0.000  0.000  0.280
 
band     9 # energy   16.41225187 # occ.  0.00000000
 
ion      s     py     pz     px    dxy    dyz    dz2    dxz  x2-y2    tot
    1  0.000  0.019  0.038  0.052  0.000  0.000  0.000  0.000  0.000  0.109
    2  0.000  0.045  0.088  0.022  0.000  0.000  0.000  0.000  0.000  0.155
tot    0.000  0.064  0.125  0.074  0.000  0.000  0.000  0.000  0.000  0.264
 
band    10 # energy   16.41225225 # occ.  0.00000000
 
ion      s     py     pz     px    dxy    dyz    dz2    dxz  x2-y2    tot
    1  0.000  0.045  0.088  0.022  0.000  0.000  0.000  0.000  0.000  0.155
    2  0.000  0.019  0.038  0.052  0.000  0.000  0.000  0.000  0.000  0.109
tot    0.000  0.064  0.125  0.074  0.000  0.000  0.000  0.000  0.000  0.264
 
band    11 # energy   18.82651916 # occ.  0.00000000
 
ion      s     py     pz     px    dxy    dyz    dz2    dxz  x2-y2    tot
    1  0.045  0.017  0.008  0.000  0.000  0.000  0.000  0.000  0.000  0.070
    2  0.006  0.123  0.056  0.000  0.000  0.000  0.000  0.000  0.000  0.185
tot    0.051  0.141  0.064  0.000  0.000  0.000  0.000  0.000  0.000  0.255
 
band    12 # energy   18.82654306 # occ.  0.00000000
 
ion      s     py     pz     px    dxy    dyz    dz2    dxz  x2-y2    tot
    1  0.006  0.124  0.056  0.000  0.000  0.000  0.000  0.000  0.000  0.186
    2  0.045  0.017  0.008  0.000  0.000  0.000  0.000  0.000  0.000  0.070
tot    0.051  0.141  0.063  0.000  0.000  0.000  0.000  0.000  0.000  0.256
 

 k-point   100 :    0.50000000 0.19285714 0.69285714     weight = 0.00555556

band     1 # energy   -1.84106264 # occ.  2.00000000
 
ion      s     py     pz     px    dxy    dyz    dz2    dxz  x2-y2    tot
    1  0.309  0.015  0.006  0.000  0.000  0.000  0.000  0.000  0.000  0.329
    2  0.097  0.046  0.019  0.000  0.000  0.000  0.000  0.000  0.000  0.162
tot    0.406  0.061  0.025  0.000  0.000  0.000  0.000  0.000  0.000  0.492
 
band     2 # energy   -1.84106263 # occ.  2.00000000
 
ion      s     py     pz     px    dxy    dyz    dz2    dxz  x2-y2    tot
    1  0.097  0.046  0.019  0.000  0.000  0.000  0.000  0.000  0.000  0.162
    2  0.309  0.015  0.006  0.000  0.000  0.000  0.000  0.000  0.000  0.329
tot    0.406  0.061  0.025  0.000  0.000  0.000  0.000  0.000  0.000  0.492
 
band     3 # energy    2.08081806 # occ.  2.00000000
 
ion      s     py     pz     px    dxy    dyz    dz2    dxz  x2-y2    tot
    1  0.001  0.034  0.065  0.065  0.000  0.000  0.000  0.000  0.000  0.166
    2  0.001  0.029  0.055  0.077  0.000  0.000  0.000  0.000  0.000  0.163
tot    0.002  0.063  0.120  0.143  0.000  0.000  0.000  0.000  0.000  0.329
 
band     4 # energy    2.08081810 # occ.  2.00000000
 
ion      s     py     pz     px    dxy    dyz    dz2    dxz  x2-y2    tot
    1  0.001  0.029  0.055  0.077  0.000  0.000  0.000  0.000  0.000  0.163
    2  0.001  0.034  0.065  0.065  0.000  0.000  0.000  0.000  0.000  0.166
tot    0.002  0.063  0.120  0.143  0.000  0.000  0.000  0.000  0.000  0.329
 
band     5 # energy    9.11472363 # occ.  0.00000000
 
ion      s     py     pz     px    dxy    dyz    dz2    dxz  x2-y2    tot
    1  0.052  0.003  0.003  0.083  0.000  0.000  0.000  0.000  0.000  0.141
    2  0.005  0.033  0.034  0.008  0.000  0.000  0.000  0.000  0.000  0.079
tot    0.056  0.036  0.037  0.090  0.000  0.000  0.000  0.000  0.000  0.220
 
band     6 # energy    9.11472365 # occ.  0.00000000
 
ion      s     py     pz     px    dxy    dyz    dz2    dxz  x2-y2    tot
    1  0.005  0.033  0.034  0.008  0.000  0.000  0.000  0.000  0.000  0.079
    2  0.052  0.003  0.003  0.083  0.000  0.000  0.000  0.000  0.000  0.141
tot    0.056  0.036  0.037  0.090  0.000  0.000  0.000  0.000  0.000  0.220
 
band     7 # energy   11.93693743 # occ.  0.00000000
 
ion      s     py     pz     px    dxy    dyz    dz2    dxz  x2-y2    tot
    1  0.036  0.032  0.029  0.044  0.000  0.000  0.000  0.000  0.000  0.141
    2  0.030  0.038  0.034  0.037  0.000  0.000  0.000  0.000  0.000  0.140
tot    0.066  0.070  0.063  0.081  0.000  0.000  0.000  0.000  0.000  0.281
 
band     8 # energy   11.93693769 # occ.  0.00000000
 
ion      s     py     pz     px    dxy    dyz    dz2    dxz  x2-y2    tot
    1  0.030  0.038  0.034  0.037  0.000  0.000  0.000  0.000  0.000  0.140
    2  0.036  0.032  0.029  0.044  0.000  0.000  0.000  0.000  0.000  0.141
tot    0.066  0.070  0.063  0.081  0.000  0.000  0.000  0.000  0.000  0.281
 
band     9 # energy   16.41286205 # occ.  0.00000000
 
ion      s     py     pz     px    dxy    dyz    dz2    dxz  x2-y2    tot
    1  0.000  0.062  0.112  0.006  0.000  0.000  0.000  0.000  0.000  0.180
    2  0.000  0.006  0.010  0.069  0.000  0.000  0.000  0.000  0.000  0.084
tot    0.000  0.067  0.122  0.075  0.000  0.000  0.000  0.000  0.000  0.265
 
band    10 # energy   16.41286214 # occ.  0.00000000
 
ion      s     py     pz     px    dxy    dyz    dz2    dxz  x2-y2    tot
    1  0.000  0.006  0.010  0.069  0.000  0.000  0.000  0.000  0.000  0.084
    2  0.000  0.062  0.112  0.006  0.000  0.000  0.000  0.000  0.000  0.180
tot    0.000  0.067  0.122  0.075  0.000  0.000  0.000  0.000  0.000  0.265
 
band    11 # energy   18.83671745 # occ.  0.00000000
 
ion      s     py     pz     px    dxy    dyz    dz2    dxz  x2-y2    tot
    1  0.044  0.020  0.010  0.000  0.000  0.000  0.000  0.000  0.000  0.073
    2  0.007  0.118  0.058  0.000  0.000  0.000  0.000  0.000  0.000  0.184
tot    0.051  0.138  0.068  0.000  0.000  0.000  0.000  0.000  0.000  0.257
 
band    12 # energy   18.83674646 # occ.  0.00000000
 
ion      s     py     pz     px    dxy    dyz    dz2    dxz  x2-y2    tot
    1  0.007  0.118  0.058  0.000  0.000  0.000  0.000  0.000  0.000  0.183
    2  0.044  0.020  0.010  0.000  0.000  0.000  0.000  0.000  0.000  0.073
tot    0.051  0.137  0.068  0.000  0.000  0.000  0.000  0.000  0.000  0.257
 

 k-point   101 :    0.50000000 0.20000000 0.70000000     weight = 0.00555556

band     1 # energy   -1.83611381 # occ.  2.00000000
 
ion      s     py     pz     px    dxy    dyz    dz2    dxz  x2-y2    tot
    1  0.345  0.009  0.004  0.000  0.000  0.000  0.000  0.000  0.000  0.358
    2  0.062  0.050  0.022  0.000  0.000  0.000  0.000  0.000  0.000  0.134
tot    0.407  0.059  0.027  0.000  0.000  0.000  0.000  0.000  0.000  0.492
 
band     2 # energy   -1.83611380 # occ.  2.00000000
 
ion      s     py     pz     px    dxy    dyz    dz2    dxz  x2-y2    tot
    1  0.062  0.050  0.022  0.000  0.000  0.000  0.000  0.000  0.000  0.134
    2  0.345  0.009  0.004  0.000  0.000  0.000  0.000  0.000  0.000  0.358
tot    0.407  0.059  0.027  0.000  0.000  0.000  0.000  0.000  0.000  0.492
 
band     3 # energy    2.05768545 # occ.  2.00000000
 
ion      s     py     pz     px    dxy    dyz    dz2    dxz  x2-y2    tot
    1  0.000  0.058  0.102  0.018  0.000  0.000  0.000  0.000  0.000  0.179
    2  0.001  0.008  0.015  0.124  0.000  0.000  0.000  0.000  0.000  0.148
tot    0.002  0.067  0.117  0.142  0.000  0.000  0.000  0.000  0.000  0.327
 
band     4 # energy    2.05768549 # occ.  2.00000000
 
ion      s     py     pz     px    dxy    dyz    dz2    dxz  x2-y2    tot
    1  0.001  0.008  0.015  0.124  0.000  0.000  0.000  0.000  0.000  0.148
    2  0.000  0.058  0.102  0.018  0.000  0.000  0.000  0.000  0.000  0.179
tot    0.002  0.067  0.117  0.142  0.000  0.000  0.000  0.000  0.000  0.327
 
band     5 # energy    9.26363998 # occ.  0.00000000
 
ion      s     py     pz     px    dxy    dyz    dz2    dxz  x2-y2    tot
    1  0.037  0.010  0.011  0.067  0.000  0.000  0.000  0.000  0.000  0.125
    2  0.016  0.024  0.025  0.029  0.000  0.000  0.000  0.000  0.000  0.094
tot    0.053  0.034  0.036  0.096  0.000  0.000  0.000  0.000  0.000  0.219
 
band     6 # energy    9.26364002 # occ.  0.00000000
 
ion      s     py     pz     px    dxy    dyz    dz2    dxz  x2-y2    tot
    1  0.016  0.024  0.025  0.029  0.000  0.000  0.000  0.000  0.000  0.094
    2  0.037  0.010  0.011  0.067  0.000  0.000  0.000  0.000  0.000  0.125
tot    0.053  0.034  0.036  0.096  0.000  0.000  0.000  0.000  0.000  0.219
 
band     7 # energy   11.76148744 # occ.  0.00000000
 
ion      s     py     pz     px    dxy    dyz    dz2    dxz  x2-y2    tot
    1  0.025  0.046  0.041  0.028  0.000  0.000  0.000  0.000  0.000  0.140
    2  0.044  0.026  0.023  0.049  0.000  0.000  0.000  0.000  0.000  0.142
tot    0.070  0.072  0.064  0.076  0.000  0.000  0.000  0.000  0.000  0.282
 
band     8 # energy   11.76148750 # occ.  0.00000000
 
ion      s     py     pz     px    dxy    dyz    dz2    dxz  x2-y2    tot
    1  0.044  0.026  0.023  0.049  0.000  0.000  0.000  0.000  0.000  0.142
    2  0.025  0.046  0.041  0.028  0.000  0.000  0.000  0.000  0.000  0.140
tot    0.070  0.072  0.064  0.076  0.000  0.000  0.000  0.000  0.000  0.282
 
band     9 # energy   16.41345838 # occ.  0.00000000
 
ion      s     py     pz     px    dxy    dyz    dz2    dxz  x2-y2    tot
    1  0.000  0.043  0.073  0.029  0.000  0.000  0.000  0.000  0.000  0.146
    2  0.000  0.027  0.046  0.046  0.000  0.000  0.000  0.000  0.000  0.120
tot    0.000  0.071  0.119  0.075  0.000  0.000  0.000  0.000  0.000  0.265
 
band    10 # energy   16.41345856 # occ.  0.00000000
 
ion      s     py     pz     px    dxy    dyz    dz2    dxz  x2-y2    tot
    1  0.000  0.027  0.046  0.046  0.000  0.000  0.000  0.000  0.000  0.120
    2  0.000  0.043  0.073  0.029  0.000  0.000  0.000  0.000  0.000  0.146
tot    0.000  0.071  0.119  0.075  0.000  0.000  0.000  0.000  0.000  0.265
 
band    11 # energy   18.84599593 # occ.  0.00000000
 
ion      s     py     pz     px    dxy    dyz    dz2    dxz  x2-y2    tot
    1  0.047  0.011  0.006  0.000  0.000  0.000  0.000  0.000  0.000  0.065
    2  0.004  0.123  0.067  0.000  0.000  0.000  0.000  0.000  0.000  0.194
tot    0.052  0.134  0.073  0.000  0.000  0.000  0.000  0.000  0.000  0.258
 
band    12 # energy   18.84602624 # occ.  0.00000000
 
ion      s     py     pz     px    dxy    dyz    dz2    dxz  x2-y2    tot
    1  0.004  0.123  0.066  0.000  0.000  0.000  0.000  0.000  0.000  0.194
    2  0.047  0.011  0.006  0.000  0.000  0.000  0.000  0.000  0.000  0.065
tot    0.051  0.134  0.073  0.000  0.000  0.000  0.000  0.000  0.000  0.258
 

 k-point   102 :    0.50000000 0.20714286 0.70714286     weight = 0.00555556

band     1 # energy   -1.83171640 # occ.  2.00000000
 
ion      s     py     pz     px    dxy    dyz    dz2    dxz  x2-y2    tot
    1  0.378  0.004  0.002  0.000  0.000  0.000  0.000  0.000  0.000  0.384
    2  0.029  0.052  0.027  0.000  0.000  0.000  0.000  0.000  0.000  0.108
tot    0.408  0.056  0.029  0.000  0.000  0.000  0.000  0.000  0.000  0.493
 
band     2 # energy   -1.83171639 # occ.  2.00000000
 
ion      s     py     pz     px    dxy    dyz    dz2    dxz  x2-y2    tot
    1  0.029  0.052  0.027  0.000  0.000  0.000  0.000  0.000  0.000  0.108
    2  0.378  0.004  0.002  0.000  0.000  0.000  0.000  0.000  0.000  0.384
tot    0.408  0.056  0.029  0.000  0.000  0.000  0.000  0.000  0.000  0.493
 
band     3 # energy    2.03741168 # occ.  2.00000000
 
ion      s     py     pz     px    dxy    dyz    dz2    dxz  x2-y2    tot
    1  0.000  0.056  0.090  0.029  0.000  0.000  0.000  0.000  0.000  0.175
    2  0.001  0.014  0.023  0.112  0.000  0.000  0.000  0.000  0.000  0.151
tot    0.001  0.070  0.113  0.141  0.000  0.000  0.000  0.000  0.000  0.326
 
band     4 # energy    2.03741172 # occ.  2.00000000
 
ion      s     py     pz     px    dxy    dyz    dz2    dxz  x2-y2    tot
    1  0.001  0.014  0.023  0.112  0.000  0.000  0.000  0.000  0.000  0.151
    2  0.000  0.056  0.090  0.029  0.000  0.000  0.000  0.000  0.000  0.175
tot    0.001  0.070  0.113  0.141  0.000  0.000  0.000  0.000  0.000  0.326
 
band     5 # energy    9.41283324 # occ.  0.00000000
 
ion      s     py     pz     px    dxy    dyz    dz2    dxz  x2-y2    tot
    1  0.049  0.000  0.000  0.102  0.000  0.000  0.000  0.000  0.000  0.151
    2  0.000  0.031  0.035  0.000  0.000  0.000  0.000  0.000  0.000  0.066
tot    0.049  0.031  0.035  0.102  0.000  0.000  0.000  0.000  0.000  0.217
 
band     6 # energy    9.41283327 # occ.  0.00000000
 
ion      s     py     pz     px    dxy    dyz    dz2    dxz  x2-y2    tot
    1  0.000  0.031  0.035  0.000  0.000  0.000  0.000  0.000  0.000  0.066
    2  0.049  0.000  0.000  0.102  0.000  0.000  0.000  0.000  0.000  0.151
tot    0.049  0.031  0.035  0.102  0.000  0.000  0.000  0.000  0.000  0.217
 
band     7 # energy   11.58932028 # occ.  0.00000000
 
ion      s     py     pz     px    dxy    dyz    dz2    dxz  x2-y2    tot
    1  0.066  0.008  0.007  0.062  0.000  0.000  0.000  0.000  0.000  0.143
    2  0.008  0.067  0.059  0.007  0.000  0.000  0.000  0.000  0.000  0.141
tot    0.074  0.075  0.066  0.070  0.000  0.000  0.000  0.000  0.000  0.284
 
band     8 # energy   11.58932034 # occ.  0.00000000
 
ion      s     py     pz     px    dxy    dyz    dz2    dxz  x2-y2    tot
    1  0.008  0.067  0.059  0.007  0.000  0.000  0.000  0.000  0.000  0.141
    2  0.066  0.008  0.007  0.062  0.000  0.000  0.000  0.000  0.000  0.143
tot    0.074  0.075  0.066  0.070  0.000  0.000  0.000  0.000  0.000  0.284
 
band     9 # energy   16.41401818 # occ.  0.00000000
 
ion      s     py     pz     px    dxy    dyz    dz2    dxz  x2-y2    tot
    1  0.000  0.022  0.034  0.053  0.000  0.000  0.000  0.000  0.000  0.110
    2  0.000  0.052  0.082  0.022  0.000  0.000  0.000  0.000  0.000  0.156
tot    0.000  0.074  0.116  0.076  0.000  0.000  0.000  0.000  0.000  0.266
 
band    10 # energy   16.41401830 # occ.  0.00000000
 
ion      s     py     pz     px    dxy    dyz    dz2    dxz  x2-y2    tot
    1  0.000  0.052  0.082  0.022  0.000  0.000  0.000  0.000  0.000  0.156
    2  0.000  0.022  0.034  0.053  0.000  0.000  0.000  0.000  0.000  0.110
tot    0.000  0.074  0.116  0.076  0.000  0.000  0.000  0.000  0.000  0.266
 
band    11 # energy   18.85428847 # occ.  0.00000000
 
ion      s     py     pz     px    dxy    dyz    dz2    dxz  x2-y2    tot
    1  0.042  0.024  0.014  0.000  0.000  0.000  0.000  0.000  0.000  0.080
    2  0.009  0.107  0.063  0.000  0.000  0.000  0.000  0.000  0.000  0.180
tot    0.052  0.131  0.077  0.000  0.000  0.000  0.000  0.000  0.000  0.260
 
band    12 # energy   18.85435125 # occ.  0.00000000
 
ion      s     py     pz     px    dxy    dyz    dz2    dxz  x2-y2    tot
    1  0.009  0.107  0.063  0.000  0.000  0.000  0.000  0.000  0.000  0.180
    2  0.042  0.024  0.014  0.000  0.000  0.000  0.000  0.000  0.000  0.080
tot    0.052  0.131  0.077  0.000  0.000  0.000  0.000  0.000  0.000  0.260
 

 k-point   103 :    0.50000000 0.21428571 0.71428571     weight = 0.00555556

band     1 # energy   -1.82791006 # occ.  2.00000000
 
ion      s     py     pz     px    dxy    dyz    dz2    dxz  x2-y2    tot
    1  0.408  0.000  0.000  0.000  0.000  0.000  0.000  0.000  0.000  0.408
    2  0.000  0.054  0.031  0.000  0.000  0.000  0.000  0.000  0.000  0.085
tot    0.408  0.054  0.031  0.000  0.000  0.000  0.000  0.000  0.000  0.493
 
band     2 # energy   -1.82791005 # occ.  2.00000000
 
ion      s     py     pz     px    dxy    dyz    dz2    dxz  x2-y2    tot
    1  0.000  0.054  0.031  0.000  0.000  0.000  0.000  0.000  0.000  0.085
    2  0.408  0.000  0.000  0.000  0.000  0.000  0.000  0.000  0.000  0.408
tot    0.408  0.054  0.031  0.000  0.000  0.000  0.000  0.000  0.000  0.493
 
band     3 # energy    2.02009520 # occ.  2.00000000
 
ion      s     py     pz     px    dxy    dyz    dz2    dxz  x2-y2    tot
    1  0.000  0.033  0.049  0.078  0.000  0.000  0.000  0.000  0.000  0.160
    2  0.000  0.041  0.061  0.062  0.000  0.000  0.000  0.000  0.000  0.165
tot    0.001  0.074  0.110  0.140  0.000  0.000  0.000  0.000  0.000  0.325
 
band     4 # energy    2.02009526 # occ.  2.00000000
 
ion      s     py     pz     px    dxy    dyz    dz2    dxz  x2-y2    tot
    1  0.000  0.041  0.061  0.062  0.000  0.000  0.000  0.000  0.000  0.165
    2  0.000  0.033  0.049  0.078  0.000  0.000  0.000  0.000  0.000  0.160
tot    0.001  0.074  0.110  0.140  0.000  0.000  0.000  0.000  0.000  0.325
 
band     5 # energy    9.56114113 # occ.  0.00000000
 
ion      s     py     pz     px    dxy    dyz    dz2    dxz  x2-y2    tot
    1  0.024  0.012  0.014  0.061  0.000  0.000  0.000  0.000  0.000  0.112
    2  0.019  0.016  0.018  0.049  0.000  0.000  0.000  0.000  0.000  0.102
tot    0.044  0.028  0.033  0.110  0.000  0.000  0.000  0.000  0.000  0.214
 
band     6 # energy    9.56114117 # occ.  0.00000000
 
ion      s     py     pz     px    dxy    dyz    dz2    dxz  x2-y2    tot
    1  0.019  0.016  0.018  0.049  0.000  0.000  0.000  0.000  0.000  0.102
    2  0.024  0.012  0.014  0.061  0.000  0.000  0.000  0.000  0.000  0.112
tot    0.044  0.028  0.033  0.110  0.000  0.000  0.000  0.000  0.000  0.214
 
band     7 # energy   11.42160391 # occ.  0.00000000
 
ion      s     py     pz     px    dxy    dyz    dz2    dxz  x2-y2    tot
    1  0.079  0.000  0.000  0.062  0.000  0.000  0.000  0.000  0.000  0.141
    2  0.000  0.077  0.068  0.000  0.000  0.000  0.000  0.000  0.000  0.146
tot    0.079  0.077  0.069  0.062  0.000  0.000  0.000  0.000  0.000  0.288
 
band     8 # energy   11.42160400 # occ.  0.00000000
 
ion      s     py     pz     px    dxy    dyz    dz2    dxz  x2-y2    tot
    1  0.000  0.077  0.068  0.000  0.000  0.000  0.000  0.000  0.000  0.146
    2  0.079  0.000  0.000  0.062  0.000  0.000  0.000  0.000  0.000  0.141
tot    0.079  0.077  0.069  0.062  0.000  0.000  0.000  0.000  0.000  0.288
 
band     9 # energy   16.41453552 # occ.  0.00000000
 
ion      s     py     pz     px    dxy    dyz    dz2    dxz  x2-y2    tot
    1  0.000  0.058  0.084  0.019  0.000  0.000  0.000  0.000  0.000  0.161
    2  0.000  0.020  0.029  0.057  0.000  0.000  0.000  0.000  0.000  0.105
tot    0.000  0.078  0.113  0.076  0.000  0.000  0.000  0.000  0.000  0.267
 
band    10 # energy   16.41453563 # occ.  0.00000000
 
ion      s     py     pz     px    dxy    dyz    dz2    dxz  x2-y2    tot
    1  0.000  0.020  0.029  0.057  0.000  0.000  0.000  0.000  0.000  0.105
    2  0.000  0.058  0.084  0.019  0.000  0.000  0.000  0.000  0.000  0.161
tot    0.000  0.078  0.113  0.076  0.000  0.000  0.000  0.000  0.000  0.267
 
band    11 # energy   18.86149760 # occ.  0.00000000
 
ion      s     py     pz     px    dxy    dyz    dz2    dxz  x2-y2    tot
    1  0.033  0.047  0.030  0.000  0.000  0.000  0.000  0.000  0.000  0.110
    2  0.019  0.080  0.052  0.000  0.000  0.000  0.000  0.000  0.000  0.151
tot    0.052  0.127  0.082  0.000  0.000  0.000  0.000  0.000  0.000  0.261
 
band    12 # energy   18.86151527 # occ.  0.00000000
 
ion      s     py     pz     px    dxy    dyz    dz2    dxz  x2-y2    tot
    1  0.019  0.080  0.052  0.000  0.000  0.000  0.000  0.000  0.000  0.151
    2  0.033  0.047  0.030  0.000  0.000  0.000  0.000  0.000  0.000  0.110
tot    0.052  0.127  0.082  0.000  0.000  0.000  0.000  0.000  0.000  0.260
 

 k-point   104 :    0.50000000 0.22142857 0.72142857     weight = 0.00555556

band     1 # energy   -1.82474327 # occ.  2.00000000
 
ion      s     py     pz     px    dxy    dyz    dz2    dxz  x2-y2    tot
    1  0.376  0.004  0.003  0.000  0.000  0.000  0.000  0.000  0.000  0.383
    2  0.032  0.048  0.030  0.000  0.000  0.000  0.000  0.000  0.000  0.110
tot    0.409  0.052  0.033  0.000  0.000  0.000  0.000  0.000  0.000  0.494
 
band     2 # energy   -1.82474326 # occ.  2.00000000
 
ion      s     py     pz     px    dxy    dyz    dz2    dxz  x2-y2    tot
    1  0.032  0.048  0.030  0.000  0.000  0.000  0.000  0.000  0.000  0.110
    2  0.376  0.004  0.003  0.000  0.000  0.000  0.000  0.000  0.000  0.383
tot    0.409  0.052  0.033  0.000  0.000  0.000  0.000  0.000  0.000  0.494
 
band     3 # energy    2.00581510 # occ.  2.00000000
 
ion      s     py     pz     px    dxy    dyz    dz2    dxz  x2-y2    tot
    1  0.000  0.028  0.038  0.090  0.000  0.000  0.000  0.000  0.000  0.156
    2  0.000  0.050  0.068  0.050  0.000  0.000  0.000  0.000  0.000  0.168
tot    0.001  0.077  0.106  0.140  0.000  0.000  0.000  0.000  0.000  0.324
 
band     4 # energy    2.00581515 # occ.  2.00000000
 
ion      s     py     pz     px    dxy    dyz    dz2    dxz  x2-y2    tot
    1  0.000  0.050  0.068  0.050  0.000  0.000  0.000  0.000  0.000  0.168
    2  0.000  0.028  0.038  0.090  0.000  0.000  0.000  0.000  0.000  0.156
tot    0.001  0.077  0.106  0.140  0.000  0.000  0.000  0.000  0.000  0.324
 
band     5 # energy    9.70661069 # occ.  0.00000000
 
ion      s     py     pz     px    dxy    dyz    dz2    dxz  x2-y2    tot
    1  0.007  0.019  0.023  0.023  0.000  0.000  0.000  0.000  0.000  0.073
    2  0.030  0.005  0.006  0.096  0.000  0.000  0.000  0.000  0.000  0.136
tot    0.037  0.024  0.029  0.119  0.000  0.000  0.000  0.000  0.000  0.209
 
band     6 # energy    9.70661070 # occ.  0.00000000
 
ion      s     py     pz     px    dxy    dyz    dz2    dxz  x2-y2    tot
    1  0.030  0.005  0.006  0.096  0.000  0.000  0.000  0.000  0.000  0.136
    2  0.007  0.019  0.023  0.023  0.000  0.000  0.000  0.000  0.000  0.073
tot    0.037  0.024  0.029  0.119  0.000  0.000  0.000  0.000  0.000  0.209
 
band     7 # energy   11.26027448 # occ.  0.00000000
 
ion      s     py     pz     px    dxy    dyz    dz2    dxz  x2-y2    tot
    1  0.077  0.008  0.008  0.048  0.000  0.000  0.000  0.000  0.000  0.140
    2  0.009  0.073  0.065  0.006  0.000  0.000  0.000  0.000  0.000  0.152
tot    0.085  0.081  0.073  0.053  0.000  0.000  0.000  0.000  0.000  0.292
 
band     8 # energy   11.26027459 # occ.  0.00000000
 
ion      s     py     pz     px    dxy    dyz    dz2    dxz  x2-y2    tot
    1  0.009  0.073  0.065  0.006  0.000  0.000  0.000  0.000  0.000  0.152
    2  0.077  0.008  0.008  0.048  0.000  0.000  0.000  0.000  0.000  0.140
tot    0.085  0.081  0.073  0.053  0.000  0.000  0.000  0.000  0.000  0.292
 
band     9 # energy   16.41496596 # occ.  0.00000000
 
ion      s     py     pz     px    dxy    dyz    dz2    dxz  x2-y2    tot
    1  0.000  0.074  0.100  0.006  0.000  0.000  0.000  0.000  0.000  0.181
    2  0.000  0.007  0.009  0.070  0.000  0.000  0.000  0.000  0.000  0.086
tot    0.000  0.081  0.109  0.076  0.000  0.000  0.000  0.000  0.000  0.267
 
band    10 # energy   16.41496637 # occ.  0.00000000
 
ion      s     py     pz     px    dxy    dyz    dz2    dxz  x2-y2    tot
    1  0.000  0.007  0.009  0.070  0.000  0.000  0.000  0.000  0.000  0.086
    2  0.000  0.074  0.100  0.006  0.000  0.000  0.000  0.000  0.000  0.181
tot    0.000  0.081  0.109  0.076  0.000  0.000  0.000  0.000  0.000  0.267
 
band    11 # energy   18.86729035 # occ.  0.00000000
 
ion      s     py     pz     px    dxy    dyz    dz2    dxz  x2-y2    tot
    1  0.040  0.027  0.019  0.000  0.000  0.000  0.000  0.000  0.000  0.086
    2  0.011  0.096  0.068  0.000  0.000  0.000  0.000  0.000  0.000  0.175
tot    0.052  0.123  0.087  0.000  0.000  0.000  0.000  0.000  0.000  0.261
 
band    12 # energy   18.86732813 # occ.  0.00000000
 
ion      s     py     pz     px    dxy    dyz    dz2    dxz  x2-y2    tot
    1  0.011  0.096  0.068  0.000  0.000  0.000  0.000  0.000  0.000  0.175
    2  0.040  0.027  0.019  0.000  0.000  0.000  0.000  0.000  0.000  0.086
tot    0.052  0.123  0.087  0.000  0.000  0.000  0.000  0.000  0.000  0.261
 

 k-point   105 :    0.50000000 0.22857143 0.72857143     weight = 0.00555556

band     1 # energy   -1.82224513 # occ.  2.00000000
 
ion      s     py     pz     px    dxy    dyz    dz2    dxz  x2-y2    tot
    1  0.400  0.001  0.001  0.000  0.000  0.000  0.000  0.000  0.000  0.402
    2  0.009  0.048  0.034  0.000  0.000  0.000  0.000  0.000  0.000  0.092
tot    0.409  0.049  0.035  0.000  0.000  0.000  0.000  0.000  0.000  0.494
 
band     2 # energy   -1.82224512 # occ.  2.00000000
 
ion      s     py     pz     px    dxy    dyz    dz2    dxz  x2-y2    tot
    1  0.009  0.048  0.034  0.000  0.000  0.000  0.000  0.000  0.000  0.092
    2  0.400  0.001  0.001  0.000  0.000  0.000  0.000  0.000  0.000  0.402
tot    0.409  0.049  0.035  0.000  0.000  0.000  0.000  0.000  0.000  0.494
 
band     3 # energy    1.99463887 # occ.  2.00000000
 
ion      s     py     pz     px    dxy    dyz    dz2    dxz  x2-y2    tot
    1  0.000  0.039  0.049  0.072  0.000  0.000  0.000  0.000  0.000  0.161
    2  0.000  0.042  0.053  0.067  0.000  0.000  0.000  0.000  0.000  0.163
tot    0.000  0.081  0.103  0.139  0.000  0.000  0.000  0.000  0.000  0.323
 
band     4 # energy    1.99463892 # occ.  2.00000000
 
ion      s     py     pz     px    dxy    dyz    dz2    dxz  x2-y2    tot
    1  0.000  0.042  0.053  0.067  0.000  0.000  0.000  0.000  0.000  0.163
    2  0.000  0.039  0.049  0.072  0.000  0.000  0.000  0.000  0.000  0.161
tot    0.000  0.081  0.103  0.139  0.000  0.000  0.000  0.000  0.000  0.323
 
band     5 # energy    9.84526760 # occ.  0.00000000
 
ion      s     py     pz     px    dxy    dyz    dz2    dxz  x2-y2    tot
    1  0.027  0.002  0.002  0.120  0.000  0.000  0.000  0.000  0.000  0.150
    2  0.002  0.017  0.022  0.011  0.000  0.000  0.000  0.000  0.000  0.052
tot    0.029  0.018  0.024  0.131  0.000  0.000  0.000  0.000  0.000  0.202
 
band     6 # energy    9.84526763 # occ.  0.00000000
 
ion      s     py     pz     px    dxy    dyz    dz2    dxz  x2-y2    tot
    1  0.002  0.017  0.022  0.011  0.000  0.000  0.000  0.000  0.000  0.052
    2  0.027  0.002  0.002  0.120  0.000  0.000  0.000  0.000  0.000  0.150
tot    0.029  0.018  0.024  0.131  0.000  0.000  0.000  0.000  0.000  0.202
 
band     7 # energy   11.10927902 # occ.  0.00000000
 
ion      s     py     pz     px    dxy    dyz    dz2    dxz  x2-y2    tot
    1  0.018  0.070  0.063  0.008  0.000  0.000  0.000  0.000  0.000  0.159
    2  0.075  0.017  0.015  0.033  0.000  0.000  0.000  0.000  0.000  0.141
tot    0.094  0.086  0.078  0.041  0.000  0.000  0.000  0.000  0.000  0.300
 
band     8 # energy   11.10927908 # occ.  0.00000000
 
ion      s     py     pz     px    dxy    dyz    dz2    dxz  x2-y2    tot
    1  0.075  0.017  0.015  0.033  0.000  0.000  0.000  0.000  0.000  0.141
    2  0.018  0.070  0.063  0.008  0.000  0.000  0.000  0.000  0.000  0.159
tot    0.094  0.086  0.078  0.041  0.000  0.000  0.000  0.000  0.000  0.300
 
band     9 # energy   16.41531598 # occ.  0.00000000
 
ion      s     py     pz     px    dxy    dyz    dz2    dxz  x2-y2    tot
    1  0.000  0.022  0.028  0.057  0.000  0.000  0.000  0.000  0.000  0.106
    2  0.000  0.063  0.078  0.020  0.000  0.000  0.000  0.000  0.000  0.161
tot    0.000  0.085  0.106  0.077  0.000  0.000  0.000  0.000  0.000  0.267
 
band    10 # energy   16.41531619 # occ.  0.00000000
 
ion      s     py     pz     px    dxy    dyz    dz2    dxz  x2-y2    tot
    1  0.000  0.063  0.078  0.020  0.000  0.000  0.000  0.000  0.000  0.161
    2  0.000  0.022  0.028  0.057  0.000  0.000  0.000  0.000  0.000  0.106
tot    0.000  0.085  0.106  0.077  0.000  0.000  0.000  0.000  0.000  0.267
 
band    11 # energy   18.87204914 # occ.  0.00000000
 
ion      s     py     pz     px    dxy    dyz    dz2    dxz  x2-y2    tot
    1  0.021  0.071  0.055  0.000  0.000  0.000  0.000  0.000  0.000  0.146
    2  0.031  0.048  0.037  0.000  0.000  0.000  0.000  0.000  0.000  0.116
tot    0.052  0.119  0.092  0.000  0.000  0.000  0.000  0.000  0.000  0.262
 
band    12 # energy   18.87207092 # occ.  0.00000000
 
ion      s     py     pz     px    dxy    dyz    dz2    dxz  x2-y2    tot
    1  0.031  0.048  0.037  0.000  0.000  0.000  0.000  0.000  0.000  0.116
    2  0.021  0.071  0.055  0.000  0.000  0.000  0.000  0.000  0.000  0.146
tot    0.052  0.119  0.092  0.000  0.000  0.000  0.000  0.000  0.000  0.262
 

 k-point   106 :    0.50000000 0.23571429 0.73571429     weight = 0.00555556

band     1 # energy   -1.82044154 # occ.  2.00000000
 
ion      s     py     pz     px    dxy    dyz    dz2    dxz  x2-y2    tot
    1  0.302  0.012  0.010  0.000  0.000  0.000  0.000  0.000  0.000  0.324
    2  0.107  0.035  0.028  0.000  0.000  0.000  0.000  0.000  0.000  0.170
tot    0.409  0.047  0.038  0.000  0.000  0.000  0.000  0.000  0.000  0.494
 
band     2 # energy   -1.82044152 # occ.  2.00000000
 
ion      s     py     pz     px    dxy    dyz    dz2    dxz  x2-y2    tot
    1  0.107  0.035  0.028  0.000  0.000  0.000  0.000  0.000  0.000  0.170
    2  0.302  0.012  0.010  0.000  0.000  0.000  0.000  0.000  0.000  0.324
tot    0.409  0.047  0.038  0.000  0.000  0.000  0.000  0.000  0.000  0.494
 
band     3 # energy    1.98661852 # occ.  2.00000000
 
ion      s     py     pz     px    dxy    dyz    dz2    dxz  x2-y2    tot
    1  0.000  0.044  0.051  0.067  0.000  0.000  0.000  0.000  0.000  0.162
    2  0.000  0.041  0.048  0.072  0.000  0.000  0.000  0.000  0.000  0.161
tot    0.000  0.085  0.099  0.139  0.000  0.000  0.000  0.000  0.000  0.323
 
band     4 # energy    1.98661857 # occ.  2.00000000
 
ion      s     py     pz     px    dxy    dyz    dz2    dxz  x2-y2    tot
    1  0.000  0.041  0.048  0.072  0.000  0.000  0.000  0.000  0.000  0.161
    2  0.000  0.044  0.051  0.067  0.000  0.000  0.000  0.000  0.000  0.162
tot    0.000  0.085  0.099  0.139  0.000  0.000  0.000  0.000  0.000  0.323
 
band     5 # energy    9.96944702 # occ.  0.00000000
 
ion      s     py     pz     px    dxy    dyz    dz2    dxz  x2-y2    tot
    1  0.007  0.007  0.010  0.059  0.000  0.000  0.000  0.000  0.000  0.083
    2  0.011  0.004  0.007  0.087  0.000  0.000  0.000  0.000  0.000  0.109
tot    0.018  0.011  0.016  0.146  0.000  0.000  0.000  0.000  0.000  0.192
 
band     6 # energy    9.96944702 # occ.  0.00000000
 
ion      s     py     pz     px    dxy    dyz    dz2    dxz  x2-y2    tot
    1  0.011  0.004  0.007  0.087  0.000  0.000  0.000  0.000  0.000  0.109
    2  0.007  0.007  0.010  0.059  0.000  0.000  0.000  0.000  0.000  0.083
tot    0.018  0.011  0.016  0.146  0.000  0.000  0.000  0.000  0.000  0.192
 
band     7 # energy   10.97629105 # occ.  0.00000000
 
ion      s     py     pz     px    dxy    dyz    dz2    dxz  x2-y2    tot
    1  0.069  0.031  0.029  0.017  0.000  0.000  0.000  0.000  0.000  0.147
    2  0.035  0.062  0.057  0.009  0.000  0.000  0.000  0.000  0.000  0.163
tot    0.104  0.093  0.087  0.026  0.000  0.000  0.000  0.000  0.000  0.310
 
band     8 # energy   10.97629106 # occ.  0.00000000
 
ion      s     py     pz     px    dxy    dyz    dz2    dxz  x2-y2    tot
    1  0.035  0.062  0.057  0.009  0.000  0.000  0.000  0.000  0.000  0.163
    2  0.069  0.031  0.029  0.017  0.000  0.000  0.000  0.000  0.000  0.147
tot    0.104  0.093  0.087  0.026  0.000  0.000  0.000  0.000  0.000  0.310
 
band     9 # energy   16.41557272 # occ.  0.00000000
 
ion      s     py     pz     px    dxy    dyz    dz2    dxz  x2-y2    tot
    1  0.000  0.005  0.006  0.072  0.000  0.000  0.000  0.000  0.000  0.084
    2  0.000  0.083  0.096  0.005  0.000  0.000  0.000  0.000  0.000  0.184
tot    0.000  0.088  0.102  0.077  0.000  0.000  0.000  0.000  0.000  0.267
 
band    10 # energy   16.41557317 # occ.  0.00000000
 
ion      s     py     pz     px    dxy    dyz    dz2    dxz  x2-y2    tot
    1  0.000  0.083  0.096  0.005  0.000  0.000  0.000  0.000  0.000  0.184
    2  0.000  0.005  0.006  0.072  0.000  0.000  0.000  0.000  0.000  0.083
tot    0.000  0.088  0.102  0.077  0.000  0.000  0.000  0.000  0.000  0.267
 
band    11 # energy   18.87547987 # occ.  0.00000000
 
ion      s     py     pz     px    dxy    dyz    dz2    dxz  x2-y2    tot
    1  0.049  0.006  0.005  0.000  0.000  0.000  0.000  0.000  0.000  0.060
    2  0.003  0.109  0.091  0.000  0.000  0.000  0.000  0.000  0.000  0.203
tot    0.052  0.115  0.096  0.000  0.000  0.000  0.000  0.000  0.000  0.263
 
band    12 # energy   18.87614731 # occ.  0.00000000
 
ion      s     py     pz     px    dxy    dyz    dz2    dxz  x2-y2    tot
    1  0.003  0.107  0.093  0.000  0.000  0.000  0.000  0.000  0.000  0.203
    2  0.049  0.006  0.005  0.000  0.000  0.000  0.000  0.000  0.000  0.060
tot    0.052  0.113  0.098  0.000  0.000  0.000  0.000  0.000  0.000  0.263
 

 k-point   107 :    0.50000000 0.24285714 0.74285714     weight = 0.00555556

band     1 # energy   -1.81935162 # occ.  2.00000000
 
ion      s     py     pz     px    dxy    dyz    dz2    dxz  x2-y2    tot
    1  0.369  0.004  0.004  0.000  0.000  0.000  0.000  0.000  0.000  0.378
    2  0.040  0.040  0.036  0.000  0.000  0.000  0.000  0.000  0.000  0.116
tot    0.410  0.045  0.040  0.000  0.000  0.000  0.000  0.000  0.000  0.494
 
band     2 # energy   -1.81935161 # occ.  2.00000000
 
ion      s     py     pz     px    dxy    dyz    dz2    dxz  x2-y2    tot
    1  0.040  0.040  0.036  0.000  0.000  0.000  0.000  0.000  0.000  0.116
    2  0.369  0.004  0.004  0.000  0.000  0.000  0.000  0.000  0.000  0.378
tot    0.410  0.045  0.040  0.000  0.000  0.000  0.000  0.000  0.000  0.494
 
band     3 # energy    1.98179136 # occ.  2.00000000
 
ion      s     py     pz     px    dxy    dyz    dz2    dxz  x2-y2    tot
    1  0.000  0.027  0.029  0.096  0.000  0.000  0.000  0.000  0.000  0.153
    2  0.000  0.061  0.066  0.042  0.000  0.000  0.000  0.000  0.000  0.170
tot    0.000  0.088  0.095  0.139  0.000  0.000  0.000  0.000  0.000  0.323
 
band     4 # energy    1.98179141 # occ.  2.00000000
 
ion      s     py     pz     px    dxy    dyz    dz2    dxz  x2-y2    tot
    1  0.000  0.061  0.066  0.042  0.000  0.000  0.000  0.000  0.000  0.170
    2  0.000  0.027  0.029  0.096  0.000  0.000  0.000  0.000  0.000  0.153
tot    0.000  0.088  0.095  0.139  0.000  0.000  0.000  0.000  0.000  0.323
 
band     5 # energy   10.06312413 # occ.  0.00000000
 
ion      s     py     pz     px    dxy    dyz    dz2    dxz  x2-y2    tot
    1  0.005  0.001  0.002  0.121  0.000  0.000  0.000  0.000  0.000  0.128
    2  0.002  0.002  0.005  0.043  0.000  0.000  0.000  0.000  0.000  0.052
tot    0.006  0.003  0.007  0.163  0.000  0.000  0.000  0.000  0.000  0.179
 
band     6 # energy   10.06312416 # occ.  0.00000000
 
ion      s     py     pz     px    dxy    dyz    dz2    dxz  x2-y2    tot
    1  0.002  0.002  0.005  0.043  0.000  0.000  0.000  0.000  0.000  0.052
    2  0.005  0.001  0.002  0.121  0.000  0.000  0.000  0.000  0.000  0.128
tot    0.006  0.003  0.007  0.163  0.000  0.000  0.000  0.000  0.000  0.179
 
band     7 # energy   10.87733074 # occ.  0.00000000
 
ion      s     py     pz     px    dxy    dyz    dz2    dxz  x2-y2    tot
    1  0.021  0.082  0.079  0.002  0.000  0.000  0.000  0.000  0.000  0.184
    2  0.095  0.018  0.018  0.007  0.000  0.000  0.000  0.000  0.000  0.139
tot    0.116  0.101  0.097  0.009  0.000  0.000  0.000  0.000  0.000  0.323
 
band     8 # energy   10.87733082 # occ.  0.00000000
 
ion      s     py     pz     px    dxy    dyz    dz2    dxz  x2-y2    tot
    1  0.095  0.018  0.018  0.007  0.000  0.000  0.000  0.000  0.000  0.139
    2  0.021  0.082  0.079  0.002  0.000  0.000  0.000  0.000  0.000  0.184
tot    0.116  0.101  0.097  0.009  0.000  0.000  0.000  0.000  0.000  0.323
 
band     9 # energy   16.41572999 # occ.  0.00000000
 
ion      s     py     pz     px    dxy    dyz    dz2    dxz  x2-y2    tot
    1  0.000  0.014  0.015  0.065  0.000  0.000  0.000  0.000  0.000  0.095
    2  0.000  0.078  0.084  0.012  0.000  0.000  0.000  0.000  0.000  0.173
tot    0.000  0.092  0.099  0.077  0.000  0.000  0.000  0.000  0.000  0.268
 
band    10 # energy   16.41573597 # occ.  0.00000000
 
ion      s     py     pz     px    dxy    dyz    dz2    dxz  x2-y2    tot
    1  0.000  0.078  0.084  0.012  0.000  0.000  0.000  0.000  0.000  0.173
    2  0.000  0.014  0.015  0.065  0.000  0.000  0.000  0.000  0.000  0.095
tot    0.000  0.092  0.099  0.077  0.000  0.000  0.000  0.000  0.000  0.268
 
band    11 # energy   18.87756844 # occ.  0.00000000
 
ion      s     py     pz     px    dxy    dyz    dz2    dxz  x2-y2    tot
    1  0.033  0.040  0.037  0.000  0.000  0.000  0.000  0.000  0.000  0.110
    2  0.019  0.070  0.064  0.000  0.000  0.000  0.000  0.000  0.000  0.153
tot    0.052  0.110  0.101  0.000  0.000  0.000  0.000  0.000  0.000  0.263
 
band    12 # energy   18.87758873 # occ.  0.00000000
 
ion      s     py     pz     px    dxy    dyz    dz2    dxz  x2-y2    tot
    1  0.019  0.070  0.064  0.000  0.000  0.000  0.000  0.000  0.000  0.153
    2  0.033  0.040  0.037  0.000  0.000  0.000  0.000  0.000  0.000  0.110
tot    0.052  0.110  0.101  0.000  0.000  0.000  0.000  0.000  0.000  0.263
 

 k-point   108 :    0.50000000 0.25000000 0.75000000     weight = 0.00555556

band     1 # energy   -1.81898701 # occ.  2.00000000
 
ion      s     py     pz     px    dxy    dyz    dz2    dxz  x2-y2    tot
    1  0.404  0.001  0.001  0.000  0.000  0.000  0.000  0.000  0.000  0.405
    2  0.006  0.042  0.042  0.000  0.000  0.000  0.000  0.000  0.000  0.089
tot    0.410  0.042  0.042  0.000  0.000  0.000  0.000  0.000  0.000  0.494
 
band     2 # energy   -1.81898699 # occ.  2.00000000
 
ion      s     py     pz     px    dxy    dyz    dz2    dxz  x2-y2    tot
    1  0.006  0.042  0.042  0.000  0.000  0.000  0.000  0.000  0.000  0.089
    2  0.404  0.001  0.001  0.000  0.000  0.000  0.000  0.000  0.000  0.405
tot    0.410  0.042  0.042  0.000  0.000  0.000  0.000  0.000  0.000  0.494
 
band     3 # energy    1.98017982 # occ.  2.00000000
 
ion      s     py     pz     px    dxy    dyz    dz2    dxz  x2-y2    tot
    1  0.000  0.072  0.072  0.031  0.000  0.000  0.000  0.000  0.000  0.174
    2  0.000  0.020  0.020  0.108  0.000  0.000  0.000  0.000  0.000  0.149
tot    0.000  0.092  0.092  0.139  0.000  0.000  0.000  0.000  0.000  0.322
 
band     4 # energy    1.98017987 # occ.  2.00000000
 
ion      s     py     pz     px    dxy    dyz    dz2    dxz  x2-y2    tot
    1  0.000  0.020  0.020  0.108  0.000  0.000  0.000  0.000  0.000  0.149
    2  0.000  0.072  0.072  0.031  0.000  0.000  0.000  0.000  0.000  0.174
tot    0.000  0.092  0.092  0.139  0.000  0.000  0.000  0.000  0.000  0.322
 
band     5 # energy   10.09991158 # occ.  0.00000000
 
ion      s     py     pz     px    dxy    dyz    dz2    dxz  x2-y2    tot
    1  0.000  0.000  0.000  0.084  0.000  0.000  0.000  0.000  0.000  0.084
    2  0.000  0.000  0.000  0.088  0.000  0.000  0.000  0.000  0.000  0.089
tot    0.000  0.000  0.000  0.172  0.000  0.000  0.000  0.000  0.000  0.173
 
band     6 # energy   10.09991160 # occ.  0.00000000
 
ion      s     py     pz     px    dxy    dyz    dz2    dxz  x2-y2    tot
    1  0.000  0.000  0.000  0.088  0.000  0.000  0.000  0.000  0.000  0.089
    2  0.000  0.000  0.000  0.084  0.000  0.000  0.000  0.000  0.000  0.084
tot    0.000  0.000  0.000  0.172  0.000  0.000  0.000  0.000  0.000  0.173
 
band     7 # energy   10.83878257 # occ.  0.00000000
 
ion      s     py     pz     px    dxy    dyz    dz2    dxz  x2-y2    tot
    1  0.101  0.018  0.018  0.000  0.000  0.000  0.000  0.000  0.000  0.138
    2  0.022  0.085  0.085  0.000  0.000  0.000  0.000  0.000  0.000  0.192
tot    0.123  0.103  0.103  0.000  0.000  0.000  0.000  0.000  0.000  0.329
 
band     8 # energy   10.83878259 # occ.  0.00000000
 
ion      s     py     pz     px    dxy    dyz    dz2    dxz  x2-y2    tot
    1  0.022  0.085  0.085  0.000  0.000  0.000  0.000  0.000  0.000  0.192
    2  0.101  0.018  0.018  0.000  0.000  0.000  0.000  0.000  0.000  0.138
tot    0.123  0.103  0.103  0.000  0.000  0.000  0.000  0.000  0.000  0.330
 
band     9 # energy   16.41578217 # occ.  0.00000000
 
ion      s     py     pz     px    dxy    dyz    dz2    dxz  x2-y2    tot
    1  0.000  0.029  0.029  0.053  0.000  0.000  0.000  0.000  0.000  0.112
    2  0.000  0.066  0.066  0.023  0.000  0.000  0.000  0.000  0.000  0.156
tot    0.000  0.095  0.095  0.077  0.000  0.000  0.000  0.000  0.000  0.268
 
band    10 # energy   16.41578227 # occ.  0.00000000
 
ion      s     py     pz     px    dxy    dyz    dz2    dxz  x2-y2    tot
    1  0.000  0.066  0.066  0.023  0.000  0.000  0.000  0.000  0.000  0.156
    2  0.000  0.029  0.029  0.053  0.000  0.000  0.000  0.000  0.000  0.112
tot    0.000  0.095  0.095  0.077  0.000  0.000  0.000  0.000  0.000  0.268
 
band    11 # energy   18.87825849 # occ.  0.00000000
 
ion      s     py     pz     px    dxy    dyz    dz2    dxz  x2-y2    tot
    1  0.035  0.034  0.034  0.000  0.000  0.000  0.000  0.000  0.000  0.102
    2  0.016  0.072  0.072  0.000  0.000  0.000  0.000  0.000  0.000  0.161
tot    0.052  0.106  0.106  0.000  0.000  0.000  0.000  0.000  0.000  0.263
 
band    12 # energy   18.87826170 # occ.  0.00000000
 
ion      s     py     pz     px    dxy    dyz    dz2    dxz  x2-y2    tot
    1  0.016  0.072  0.072  0.000  0.000  0.000  0.000  0.000  0.000  0.161
    2  0.035  0.034  0.034  0.000  0.000  0.000  0.000  0.000  0.000  0.103
tot    0.052  0.106  0.106  0.000  0.000  0.000  0.000  0.000  0.000  0.263
 

 k-point   109 :    0.50000000 0.25000000 0.75000000     weight = 0.00555556

band     1 # energy   -1.81898701 # occ.  2.00000000
 
ion      s     py     pz     px    dxy    dyz    dz2    dxz  x2-y2    tot
    1  0.311  0.010  0.010  0.000  0.000  0.000  0.000  0.000  0.000  0.332
    2  0.098  0.032  0.032  0.000  0.000  0.000  0.000  0.000  0.000  0.163
tot    0.410  0.042  0.042  0.000  0.000  0.000  0.000  0.000  0.000  0.494
 
band     2 # energy   -1.81898700 # occ.  2.00000000
 
ion      s     py     pz     px    dxy    dyz    dz2    dxz  x2-y2    tot
    1  0.098  0.032  0.032  0.000  0.000  0.000  0.000  0.000  0.000  0.163
    2  0.311  0.010  0.010  0.000  0.000  0.000  0.000  0.000  0.000  0.332
tot    0.410  0.042  0.042  0.000  0.000  0.000  0.000  0.000  0.000  0.494
 
band     3 # energy    1.98017981 # occ.  2.00000000
 
ion      s     py     pz     px    dxy    dyz    dz2    dxz  x2-y2    tot
    1  0.000  0.061  0.061  0.047  0.000  0.000  0.000  0.000  0.000  0.169
    2  0.000  0.031  0.031  0.092  0.000  0.000  0.000  0.000  0.000  0.154
tot    0.000  0.092  0.092  0.139  0.000  0.000  0.000  0.000  0.000  0.322
 
band     4 # energy    1.98017986 # occ.  2.00000000
 
ion      s     py     pz     px    dxy    dyz    dz2    dxz  x2-y2    tot
    1  0.000  0.031  0.031  0.092  0.000  0.000  0.000  0.000  0.000  0.154
    2  0.000  0.061  0.061  0.047  0.000  0.000  0.000  0.000  0.000  0.169
tot    0.000  0.092  0.092  0.139  0.000  0.000  0.000  0.000  0.000  0.322
 
band     5 # energy   10.09991157 # occ.  0.00000000
 
ion      s     py     pz     px    dxy    dyz    dz2    dxz  x2-y2    tot
    1  0.000  0.000  0.000  0.032  0.000  0.000  0.000  0.000  0.000  0.032
    2  0.000  0.000  0.000  0.141  0.000  0.000  0.000  0.000  0.000  0.141
tot    0.000  0.000  0.000  0.172  0.000  0.000  0.000  0.000  0.000  0.173
 
band     6 # energy   10.09991159 # occ.  0.00000000
 
ion      s     py     pz     px    dxy    dyz    dz2    dxz  x2-y2    tot
    1  0.000  0.000  0.000  0.141  0.000  0.000  0.000  0.000  0.000  0.141
    2  0.000  0.000  0.000  0.032  0.000  0.000  0.000  0.000  0.000  0.032
tot    0.000  0.000  0.000  0.172  0.000  0.000  0.000  0.000  0.000  0.173
 
band     7 # energy   10.83878257 # occ.  0.00000000
 
ion      s     py     pz     px    dxy    dyz    dz2    dxz  x2-y2    tot
    1  0.049  0.062  0.062  0.000  0.000  0.000  0.000  0.000  0.000  0.173
    2  0.074  0.041  0.041  0.000  0.000  0.000  0.000  0.000  0.000  0.156
tot    0.123  0.103  0.103  0.000  0.000  0.000  0.000  0.000  0.000  0.329
 
band     8 # energy   10.83878260 # occ.  0.00000000
 
ion      s     py     pz     px    dxy    dyz    dz2    dxz  x2-y2    tot
    1  0.074  0.041  0.041  0.000  0.000  0.000  0.000  0.000  0.000  0.156
    2  0.049  0.062  0.062  0.000  0.000  0.000  0.000  0.000  0.000  0.173
tot    0.123  0.103  0.103  0.000  0.000  0.000  0.000  0.000  0.000  0.329
 
band     9 # energy   16.41578228 # occ.  0.00000000
 
ion      s     py     pz     px    dxy    dyz    dz2    dxz  x2-y2    tot
    1  0.000  0.024  0.024  0.057  0.000  0.000  0.000  0.000  0.000  0.106
    2  0.000  0.071  0.071  0.020  0.000  0.000  0.000  0.000  0.000  0.162
tot    0.000  0.095  0.095  0.077  0.000  0.000  0.000  0.000  0.000  0.268
 
band    10 # energy   16.41578245 # occ.  0.00000000
 
ion      s     py     pz     px    dxy    dyz    dz2    dxz  x2-y2    tot
    1  0.000  0.071  0.071  0.020  0.000  0.000  0.000  0.000  0.000  0.162
    2  0.000  0.024  0.024  0.057  0.000  0.000  0.000  0.000  0.000  0.106
tot    0.000  0.095  0.095  0.077  0.000  0.000  0.000  0.000  0.000  0.268
 
band    11 # energy   18.87826853 # occ.  0.00000000
 
ion      s     py     pz     px    dxy    dyz    dz2    dxz  x2-y2    tot
    1  0.050  0.003  0.003  0.000  0.000  0.000  0.000  0.000  0.000  0.057
    2  0.002  0.103  0.102  0.000  0.000  0.000  0.000  0.000  0.000  0.206
tot    0.052  0.106  0.106  0.000  0.000  0.000  0.000  0.000  0.000  0.263
 
band    12 # energy   18.87831235 # occ.  0.00000000
 
ion      s     py     pz     px    dxy    dyz    dz2    dxz  x2-y2    tot
    1  0.002  0.102  0.102  0.000  0.000  0.000  0.000  0.000  0.000  0.206
    2  0.050  0.003  0.003  0.000  0.000  0.000  0.000  0.000  0.000  0.057
tot    0.052  0.106  0.106  0.000  0.000  0.000  0.000  0.000  0.000  0.263
 

 k-point   110 :    0.49642857 0.25357143 0.75000000     weight = 0.00555556

band     1 # energy   -1.85137081 # occ.  2.00000000
 
ion      s     py     pz     px    dxy    dyz    dz2    dxz  x2-y2    tot
    1  0.205  0.020  0.021  0.000  0.000  0.000  0.000  0.000  0.000  0.247
    2  0.205  0.020  0.021  0.000  0.000  0.000  0.000  0.000  0.000  0.247
tot    0.411  0.041  0.042  0.000  0.000  0.000  0.000  0.000  0.000  0.494
 
band     2 # energy   -1.78691193 # occ.  2.00000000
 
ion      s     py     pz     px    dxy    dyz    dz2    dxz  x2-y2    tot
    1  0.204  0.021  0.022  0.000  0.000  0.000  0.000  0.000  0.000  0.247
    2  0.204  0.021  0.022  0.000  0.000  0.000  0.000  0.000  0.000  0.247
tot    0.409  0.041  0.044  0.000  0.000  0.000  0.000  0.000  0.000  0.494
 
band     3 # energy    1.95576153 # occ.  2.00000000
 
ion      s     py     pz     px    dxy    dyz    dz2    dxz  x2-y2    tot
    1  0.000  0.046  0.046  0.069  0.000  0.000  0.000  0.000  0.000  0.161
    2  0.000  0.046  0.046  0.069  0.000  0.000  0.000  0.000  0.000  0.161
tot    0.000  0.092  0.091  0.138  0.000  0.000  0.000  0.000  0.000  0.322
 
band     4 # energy    2.00620045 # occ.  2.00000000
 
ion      s     py     pz     px    dxy    dyz    dz2    dxz  x2-y2    tot
    1  0.000  0.047  0.044  0.070  0.000  0.000  0.000  0.000  0.000  0.162
    2  0.000  0.047  0.044  0.070  0.000  0.000  0.000  0.000  0.000  0.162
tot    0.000  0.095  0.089  0.140  0.000  0.000  0.000  0.000  0.000  0.323
 
band     5 # energy   10.05693971 # occ.  0.00000000
 
ion      s     py     pz     px    dxy    dyz    dz2    dxz  x2-y2    tot
    1  0.002  0.002  0.001  0.084  0.000  0.000  0.000  0.000  0.000  0.088
    2  0.002  0.002  0.001  0.084  0.000  0.000  0.000  0.000  0.000  0.088
tot    0.003  0.004  0.002  0.168  0.000  0.000  0.000  0.000  0.000  0.176
 
band     6 # energy   10.12139478 # occ.  0.00000000
 
ion      s     py     pz     px    dxy    dyz    dz2    dxz  x2-y2    tot
    1  0.000  0.001  0.000  0.086  0.000  0.000  0.000  0.000  0.000  0.087
    2  0.000  0.001  0.000  0.086  0.000  0.000  0.000  0.000  0.000  0.087
tot    0.001  0.001  0.000  0.172  0.000  0.000  0.000  0.000  0.000  0.174
 
band     7 # energy   10.83065844 # occ.  0.00000000
 
ion      s     py     pz     px    dxy    dyz    dz2    dxz  x2-y2    tot
    1  0.060  0.049  0.051  0.002  0.000  0.000  0.000  0.000  0.000  0.163
    2  0.060  0.049  0.051  0.002  0.000  0.000  0.000  0.000  0.000  0.163
tot    0.121  0.098  0.102  0.005  0.000  0.000  0.000  0.000  0.000  0.325
 
band     8 # energy   10.87019919 # occ.  0.00000000
 
ion      s     py     pz     px    dxy    dyz    dz2    dxz  x2-y2    tot
    1  0.061  0.052  0.052  0.000  0.000  0.000  0.000  0.000  0.000  0.165
    2  0.061  0.052  0.052  0.000  0.000  0.000  0.000  0.000  0.000  0.165
tot    0.121  0.104  0.104  0.001  0.000  0.000  0.000  0.000  0.000  0.329
 
band     9 # energy   16.35454061 # occ.  0.00000000
 
ion      s     py     pz     px    dxy    dyz    dz2    dxz  x2-y2    tot
    1  0.000  0.047  0.049  0.039  0.000  0.000  0.000  0.000  0.000  0.135
    2  0.000  0.047  0.049  0.039  0.000  0.000  0.000  0.000  0.000  0.135
tot    0.000  0.093  0.099  0.077  0.000  0.000  0.000  0.000  0.000  0.269
 
band    10 # energy   16.47360434 # occ.  0.00000000
 
ion      s     py     pz     px    dxy    dyz    dz2    dxz  x2-y2    tot
    1  0.000  0.051  0.044  0.038  0.000  0.000  0.000  0.000  0.000  0.133
    2  0.000  0.051  0.044  0.038  0.000  0.000  0.000  0.000  0.000  0.133
tot    0.000  0.102  0.088  0.076  0.000  0.000  0.000  0.000  0.000  0.266
 
band    11 # energy   18.81700520 # occ.  0.00000000
 
ion      s     py     pz     px    dxy    dyz    dz2    dxz  x2-y2    tot
    1  0.026  0.048  0.057  0.000  0.000  0.000  0.000  0.000  0.000  0.132
    2  0.026  0.048  0.057  0.000  0.000  0.000  0.000  0.000  0.000  0.132
tot    0.053  0.096  0.114  0.000  0.000  0.000  0.000  0.000  0.000  0.263
 
band    12 # energy   18.94224155 # occ.  0.00000000
 
ion      s     py     pz     px    dxy    dyz    dz2    dxz  x2-y2    tot
    1  0.025  0.055  0.051  0.000  0.000  0.000  0.000  0.000  0.000  0.131
    2  0.025  0.055  0.051  0.000  0.000  0.000  0.000  0.000  0.000  0.132
tot    0.051  0.110  0.102  0.000  0.000  0.000  0.000  0.000  0.000  0.263
 

 k-point   111 :    0.49285714 0.25714286 0.75000000     weight = 0.00555556

band     1 # energy   -1.88283533 # occ.  2.00000000
 
ion      s     py     pz     px    dxy    dyz    dz2    dxz  x2-y2    tot
    1  0.206  0.020  0.021  0.000  0.000  0.000  0.000  0.000  0.000  0.247
    2  0.206  0.020  0.021  0.000  0.000  0.000  0.000  0.000  0.000  0.247
tot    0.412  0.040  0.043  0.000  0.000  0.000  0.000  0.000  0.000  0.494
 
band     2 # energy   -1.75637812 # occ.  2.00000000
 
ion      s     py     pz     px    dxy    dyz    dz2    dxz  x2-y2    tot
    1  0.204  0.020  0.023  0.000  0.000  0.000  0.000  0.000  0.000  0.247
    2  0.204  0.020  0.023  0.000  0.000  0.000  0.000  0.000  0.000  0.247
tot    0.408  0.040  0.047  0.000  0.000  0.000  0.000  0.000  0.000  0.494
 
band     3 # energy    1.93194273 # occ.  2.00000000
 
ion      s     py     pz     px    dxy    dyz    dz2    dxz  x2-y2    tot
    1  0.000  0.047  0.046  0.068  0.000  0.000  0.000  0.000  0.000  0.161
    2  0.000  0.047  0.046  0.068  0.000  0.000  0.000  0.000  0.000  0.161
tot    0.000  0.093  0.091  0.137  0.000  0.000  0.000  0.000  0.000  0.321
 
band     4 # energy    2.03481219 # occ.  2.00000000
 
ion      s     py     pz     px    dxy    dyz    dz2    dxz  x2-y2    tot
    1  0.000  0.049  0.043  0.070  0.000  0.000  0.000  0.000  0.000  0.162
    2  0.000  0.049  0.043  0.070  0.000  0.000  0.000  0.000  0.000  0.162
tot    0.000  0.098  0.085  0.141  0.000  0.000  0.000  0.000  0.000  0.324
 
band     5 # energy    9.98196918 # occ.  0.00000000
 
ion      s     py     pz     px    dxy    dyz    dz2    dxz  x2-y2    tot
    1  0.006  0.005  0.003  0.078  0.000  0.000  0.000  0.000  0.000  0.092
    2  0.006  0.005  0.003  0.078  0.000  0.000  0.000  0.000  0.000  0.092
tot    0.011  0.010  0.007  0.156  0.000  0.000  0.000  0.000  0.000  0.185
 
band     6 # energy   10.13688172 # occ.  0.00000000
 
ion      s     py     pz     px    dxy    dyz    dz2    dxz  x2-y2    tot
    1  0.001  0.002  0.000  0.085  0.000  0.000  0.000  0.000  0.000  0.088
    2  0.001  0.002  0.000  0.085  0.000  0.000  0.000  0.000  0.000  0.088
tot    0.002  0.003  0.001  0.169  0.000  0.000  0.000  0.000  0.000  0.176
 
band     7 # energy   10.85675040 # occ.  0.00000000
 
ion      s     py     pz     px    dxy    dyz    dz2    dxz  x2-y2    tot
    1  0.057  0.045  0.049  0.008  0.000  0.000  0.000  0.000  0.000  0.158
    2  0.057  0.045  0.049  0.008  0.000  0.000  0.000  0.000  0.000  0.158
tot    0.114  0.090  0.097  0.015  0.000  0.000  0.000  0.000  0.000  0.317
 
band     8 # energy   10.90902088 # occ.  0.00000000
 
ion      s     py     pz     px    dxy    dyz    dz2    dxz  x2-y2    tot
    1  0.059  0.051  0.052  0.002  0.000  0.000  0.000  0.000  0.000  0.164
    2  0.059  0.051  0.052  0.002  0.000  0.000  0.000  0.000  0.000  0.164
tot    0.118  0.103  0.103  0.004  0.000  0.000  0.000  0.000  0.000  0.328
 
band     9 # energy   16.29117086 # occ.  0.00000000
 
ion      s     py     pz     px    dxy    dyz    dz2    dxz  x2-y2    tot
    1  0.000  0.045  0.051  0.039  0.000  0.000  0.000  0.000  0.000  0.135
    2  0.000  0.045  0.051  0.039  0.000  0.000  0.000  0.000  0.000  0.135
tot    0.000  0.091  0.102  0.077  0.000  0.000  0.000  0.000  0.000  0.271
 
band    10 # energy   16.52621826 # occ.  0.00000000
 
ion      s     py     pz     px    dxy    dyz    dz2    dxz  x2-y2    tot
    1  0.000  0.054  0.040  0.038  0.000  0.000  0.000  0.000  0.000  0.132
    2  0.000  0.054  0.040  0.038  0.000  0.000  0.000  0.000  0.000  0.132
tot    0.000  0.109  0.079  0.076  0.000  0.000  0.000  0.000  0.000  0.264
 
band    11 # energy   18.75935007 # occ.  0.00000000
 
ion      s     py     pz     px    dxy    dyz    dz2    dxz  x2-y2    tot
    1  0.027  0.043  0.061  0.000  0.000  0.000  0.000  0.000  0.000  0.132
    2  0.027  0.044  0.061  0.000  0.000  0.000  0.000  0.000  0.000  0.132
tot    0.053  0.087  0.123  0.000  0.000  0.000  0.000  0.000  0.000  0.263
 
band    12 # energy   19.00817967 # occ.  0.00000000
 
ion      s     py     pz     px    dxy    dyz    dz2    dxz  x2-y2    tot
    1  0.025  0.057  0.050  0.000  0.000  0.000  0.000  0.000  0.000  0.131
    2  0.025  0.057  0.050  0.000  0.000  0.000  0.000  0.000  0.000  0.131
tot    0.050  0.113  0.099  0.000  0.000  0.000  0.000  0.000  0.000  0.263
 

 k-point   112 :    0.48928571 0.26071429 0.75000000     weight = 0.00555556

band     1 # energy   -1.91337872 # occ.  2.00000000
 
ion      s     py     pz     px    dxy    dyz    dz2    dxz  x2-y2    tot
    1  0.206  0.019  0.021  0.000  0.000  0.000  0.000  0.000  0.000  0.247
    2  0.206  0.019  0.021  0.000  0.000  0.000  0.000  0.000  0.000  0.247
tot    0.412  0.038  0.043  0.000  0.000  0.000  0.000  0.000  0.000  0.494
 
band     2 # energy   -1.72738831 # occ.  2.00000000
 
ion      s     py     pz     px    dxy    dyz    dz2    dxz  x2-y2    tot
    1  0.203  0.019  0.024  0.000  0.000  0.000  0.000  0.000  0.000  0.247
    2  0.203  0.019  0.024  0.000  0.000  0.000  0.000  0.000  0.000  0.247
tot    0.406  0.039  0.049  0.000  0.000  0.000  0.000  0.000  0.000  0.494
 
band     3 # energy    1.90873434 # occ.  2.00000000
 
ion      s     py     pz     px    dxy    dyz    dz2    dxz  x2-y2    tot
    1  0.000  0.047  0.045  0.068  0.000  0.000  0.000  0.000  0.000  0.160
    2  0.000  0.047  0.045  0.068  0.000  0.000  0.000  0.000  0.000  0.160
tot    0.000  0.094  0.091  0.136  0.000  0.000  0.000  0.000  0.000  0.321
 
band     4 # energy    2.06597379 # occ.  2.00000000
 
ion      s     py     pz     px    dxy    dyz    dz2    dxz  x2-y2    tot
    1  0.000  0.051  0.041  0.071  0.000  0.000  0.000  0.000  0.000  0.163
    2  0.000  0.051  0.041  0.071  0.000  0.000  0.000  0.000  0.000  0.163
tot    0.000  0.101  0.082  0.142  0.000  0.000  0.000  0.000  0.000  0.325
 
band     5 # energy    9.88494011 # occ.  0.00000000
 
ion      s     py     pz     px    dxy    dyz    dz2    dxz  x2-y2    tot
    1  0.010  0.008  0.007  0.072  0.000  0.000  0.000  0.000  0.000  0.097
    2  0.010  0.008  0.007  0.072  0.000  0.000  0.000  0.000  0.000  0.097
tot    0.020  0.016  0.013  0.144  0.000  0.000  0.000  0.000  0.000  0.194
 
band     6 # energy   10.14690773 # occ.  0.00000000
 
ion      s     py     pz     px    dxy    dyz    dz2    dxz  x2-y2    tot
    1  0.003  0.003  0.001  0.083  0.000  0.000  0.000  0.000  0.000  0.089
    2  0.003  0.003  0.001  0.083  0.000  0.000  0.000  0.000  0.000  0.089
tot    0.005  0.006  0.002  0.165  0.000  0.000  0.000  0.000  0.000  0.178
 
band     7 # energy   10.90716490 # occ.  0.00000000
 
ion      s     py     pz     px    dxy    dyz    dz2    dxz  x2-y2    tot
    1  0.053  0.041  0.046  0.014  0.000  0.000  0.000  0.000  0.000  0.153
    2  0.053  0.041  0.046  0.014  0.000  0.000  0.000  0.000  0.000  0.153
tot    0.106  0.082  0.091  0.027  0.000  0.000  0.000  0.000  0.000  0.307
 
band     8 # energy   10.95469522 # occ.  0.00000000
 
ion      s     py     pz     px    dxy    dyz    dz2    dxz  x2-y2    tot
    1  0.057  0.051  0.051  0.004  0.000  0.000  0.000  0.000  0.000  0.163
    2  0.057  0.051  0.051  0.004  0.000  0.000  0.000  0.000  0.000  0.163
tot    0.114  0.102  0.102  0.008  0.000  0.000  0.000  0.000  0.000  0.325
 
band     9 # energy   16.22586772 # occ.  0.00000000
 
ion      s     py     pz     px    dxy    dyz    dz2    dxz  x2-y2    tot
    1  0.000  0.045  0.053  0.039  0.000  0.000  0.000  0.000  0.000  0.136
    2  0.000  0.045  0.053  0.039  0.000  0.000  0.000  0.000  0.000  0.136
tot    0.001  0.089  0.105  0.077  0.000  0.000  0.000  0.000  0.000  0.272
 
band    10 # energy   16.57255511 # occ.  0.00000000
 
ion      s     py     pz     px    dxy    dyz    dz2    dxz  x2-y2    tot
    1  0.000  0.058  0.035  0.038  0.000  0.000  0.000  0.000  0.000  0.131
    2  0.000  0.058  0.035  0.038  0.000  0.000  0.000  0.000  0.000  0.131
tot    0.001  0.116  0.070  0.075  0.000  0.000  0.000  0.000  0.000  0.262
 
band    11 # energy   18.70674442 # occ.  0.00000000
 
ion      s     py     pz     px    dxy    dyz    dz2    dxz  x2-y2    tot
    1  0.027  0.038  0.066  0.000  0.000  0.000  0.000  0.000  0.000  0.132
    2  0.027  0.038  0.066  0.000  0.000  0.000  0.000  0.000  0.000  0.132
tot    0.054  0.077  0.133  0.001  0.000  0.000  0.000  0.000  0.000  0.264
 
band    12 # energy   19.07585767 # occ.  0.00000000
 
ion      s     py     pz     px    dxy    dyz    dz2    dxz  x2-y2    tot
    1  0.024  0.058  0.048  0.000  0.000  0.000  0.000  0.000  0.000  0.131
    2  0.024  0.058  0.048  0.000  0.000  0.000  0.000  0.000  0.000  0.131
tot    0.049  0.117  0.097  0.000  0.000  0.000  0.000  0.000  0.000  0.263
 

 k-point   113 :    0.48571429 0.26428571 0.75000000     weight = 0.00555556

band     1 # energy   -1.94299917 # occ.  2.00000000
 
ion      s     py     pz     px    dxy    dyz    dz2    dxz  x2-y2    tot
    1  0.207  0.019  0.022  0.000  0.000  0.000  0.000  0.000  0.000  0.247
    2  0.207  0.019  0.022  0.000  0.000  0.000  0.000  0.000  0.000  0.247
tot    0.413  0.037  0.043  0.000  0.000  0.000  0.000  0.000  0.000  0.494
 
band     2 # energy   -1.69993734 # occ.  2.00000000
 
ion      s     py     pz     px    dxy    dyz    dz2    dxz  x2-y2    tot
    1  0.202  0.019  0.025  0.000  0.000  0.000  0.000  0.000  0.000  0.247
    2  0.202  0.019  0.025  0.000  0.000  0.000  0.000  0.000  0.000  0.247
tot    0.405  0.038  0.051  0.000  0.000  0.000  0.000  0.000  0.000  0.494
 
band     3 # energy    1.88614674 # occ.  2.00000000
 
ion      s     py     pz     px    dxy    dyz    dz2    dxz  x2-y2    tot
    1  0.000  0.047  0.045  0.067  0.000  0.000  0.000  0.000  0.000  0.160
    2  0.000  0.047  0.045  0.067  0.000  0.000  0.000  0.000  0.000  0.160
tot    0.000  0.094  0.091  0.135  0.000  0.000  0.000  0.000  0.000  0.320
 
band     4 # energy    2.09963149 # occ.  2.00000000
 
ion      s     py     pz     px    dxy    dyz    dz2    dxz  x2-y2    tot
    1  0.000  0.052  0.039  0.072  0.000  0.000  0.000  0.000  0.000  0.163
    2  0.000  0.052  0.039  0.072  0.000  0.000  0.000  0.000  0.000  0.163
tot    0.001  0.104  0.079  0.143  0.000  0.000  0.000  0.000  0.000  0.326
 
band     5 # energy    9.77456488 # occ.  0.00000000
 
ion      s     py     pz     px    dxy    dyz    dz2    dxz  x2-y2    tot
    1  0.014  0.011  0.009  0.067  0.000  0.000  0.000  0.000  0.000  0.101
    2  0.014  0.011  0.009  0.067  0.000  0.000  0.000  0.000  0.000  0.101
tot    0.028  0.021  0.019  0.133  0.000  0.000  0.000  0.000  0.000  0.201
 
band     6 # energy   10.15220830 # occ.  0.00000000
 
ion      s     py     pz     px    dxy    dyz    dz2    dxz  x2-y2    tot
    1  0.004  0.004  0.002  0.080  0.000  0.000  0.000  0.000  0.000  0.091
    2  0.004  0.004  0.002  0.080  0.000  0.000  0.000  0.000  0.000  0.091
tot    0.008  0.009  0.004  0.161  0.000  0.000  0.000  0.000  0.000  0.182
 
band     7 # energy   10.97323957 # occ.  0.00000000
 
ion      s     py     pz     px    dxy    dyz    dz2    dxz  x2-y2    tot
    1  0.050  0.038  0.043  0.019  0.000  0.000  0.000  0.000  0.000  0.149
    2  0.050  0.038  0.043  0.019  0.000  0.000  0.000  0.000  0.000  0.149
tot    0.099  0.075  0.086  0.038  0.000  0.000  0.000  0.000  0.000  0.298
 
band     8 # energy   11.00646954 # occ.  0.00000000
 
ion      s     py     pz     px    dxy    dyz    dz2    dxz  x2-y2    tot
    1  0.055  0.050  0.050  0.006  0.000  0.000  0.000  0.000  0.000  0.161
    2  0.055  0.050  0.050  0.006  0.000  0.000  0.000  0.000  0.000  0.161
tot    0.110  0.100  0.100  0.013  0.000  0.000  0.000  0.000  0.000  0.323
 
band     9 # energy   16.15879895 # occ.  0.00000000
 
ion      s     py     pz     px    dxy    dyz    dz2    dxz  x2-y2    tot
    1  0.001  0.044  0.054  0.039  0.000  0.000  0.000  0.000  0.000  0.137
    2  0.001  0.044  0.054  0.039  0.000  0.000  0.000  0.000  0.000  0.137
tot    0.001  0.087  0.108  0.077  0.000  0.000  0.000  0.000  0.000  0.274
 
band    10 # energy   16.61143165 # occ.  0.00000000
 
ion      s     py     pz     px    dxy    dyz    dz2    dxz  x2-y2    tot
    1  0.001  0.062  0.030  0.037  0.000  0.000  0.000  0.000  0.000  0.130
    2  0.001  0.062  0.030  0.037  0.000  0.000  0.000  0.000  0.000  0.130
tot    0.001  0.124  0.061  0.074  0.000  0.000  0.000  0.000  0.000  0.260
 
band    11 # energy   18.66040195 # occ.  0.00000000
 
ion      s     py     pz     px    dxy    dyz    dz2    dxz  x2-y2    tot
    1  0.027  0.033  0.071  0.001  0.000  0.000  0.000  0.000  0.000  0.132
    2  0.027  0.033  0.071  0.001  0.000  0.000  0.000  0.000  0.000  0.132
tot    0.054  0.066  0.143  0.001  0.000  0.000  0.000  0.000  0.000  0.264
 
band    12 # energy   19.14526454 # occ.  0.00000000
 
ion      s     py     pz     px    dxy    dyz    dz2    dxz  x2-y2    tot
    1  0.024  0.060  0.047  0.000  0.000  0.000  0.000  0.000  0.000  0.131
    2  0.024  0.060  0.047  0.000  0.000  0.000  0.000  0.000  0.000  0.131
tot    0.047  0.120  0.094  0.001  0.000  0.000  0.000  0.000  0.000  0.262
 

 k-point   114 :    0.48214286 0.26785714 0.75000000     weight = 0.00555556

band     1 # energy   -1.97170395 # occ.  2.00000000
 
ion      s     py     pz     px    dxy    dyz    dz2    dxz  x2-y2    tot
    1  0.207  0.018  0.022  0.000  0.000  0.000  0.000  0.000  0.000  0.247
    2  0.207  0.018  0.022  0.000  0.000  0.000  0.000  0.000  0.000  0.247
tot    0.414  0.036  0.043  0.000  0.000  0.000  0.000  0.000  0.000  0.494
 
band     2 # energy   -1.67401262 # occ.  2.00000000
 
ion      s     py     pz     px    dxy    dyz    dz2    dxz  x2-y2    tot
    1  0.202  0.018  0.027  0.000  0.000  0.000  0.000  0.000  0.000  0.247
    2  0.202  0.018  0.027  0.000  0.000  0.000  0.000  0.000  0.000  0.247
tot    0.404  0.037  0.053  0.000  0.000  0.000  0.000  0.000  0.000  0.494
 
band     3 # energy    1.86418761 # occ.  2.00000000
 
ion      s     py     pz     px    dxy    dyz    dz2    dxz  x2-y2    tot
    1  0.000  0.048  0.045  0.067  0.000  0.000  0.000  0.000  0.000  0.160
    2  0.000  0.048  0.045  0.067  0.000  0.000  0.000  0.000  0.000  0.160
tot    0.000  0.095  0.090  0.134  0.000  0.000  0.000  0.000  0.000  0.319
 
band     4 # energy    2.13571882 # occ.  2.00000000
 
ion      s     py     pz     px    dxy    dyz    dz2    dxz  x2-y2    tot
    1  0.000  0.054  0.038  0.072  0.000  0.000  0.000  0.000  0.000  0.164
    2  0.000  0.054  0.038  0.072  0.000  0.000  0.000  0.000  0.000  0.164
tot    0.001  0.107  0.075  0.144  0.000  0.000  0.000  0.000  0.000  0.328
 
band     5 # energy    9.65647569 # occ.  0.00000000
 
ion      s     py     pz     px    dxy    dyz    dz2    dxz  x2-y2    tot
    1  0.018  0.012  0.012  0.062  0.000  0.000  0.000  0.000  0.000  0.104
    2  0.018  0.012  0.012  0.062  0.000  0.000  0.000  0.000  0.000  0.104
tot    0.035  0.025  0.024  0.124  0.000  0.000  0.000  0.000  0.000  0.207
 
band     6 # energy   10.15356320 # occ.  0.00000000
 
ion      s     py     pz     px    dxy    dyz    dz2    dxz  x2-y2    tot
    1  0.006  0.006  0.003  0.078  0.000  0.000  0.000  0.000  0.000  0.093
    2  0.006  0.006  0.003  0.078  0.000  0.000  0.000  0.000  0.000  0.093
tot    0.012  0.012  0.006  0.155  0.000  0.000  0.000  0.000  0.000  0.185
 
band     7 # energy   11.04931127 # occ.  0.00000000
 
ion      s     py     pz     px    dxy    dyz    dz2    dxz  x2-y2    tot
    1  0.047  0.035  0.041  0.023  0.000  0.000  0.000  0.000  0.000  0.146
    2  0.047  0.035  0.041  0.023  0.000  0.000  0.000  0.000  0.000  0.146
tot    0.093  0.070  0.081  0.047  0.000  0.000  0.000  0.000  0.000  0.292
 
band     8 # energy   11.06351835 # occ.  0.00000000
 
ion      s     py     pz     px    dxy    dyz    dz2    dxz  x2-y2    tot
    1  0.053  0.049  0.049  0.009  0.000  0.000  0.000  0.000  0.000  0.160
    2  0.053  0.049  0.049  0.009  0.000  0.000  0.000  0.000  0.000  0.160
tot    0.105  0.098  0.098  0.018  0.000  0.000  0.000  0.000  0.000  0.320
 
band     9 # energy   16.09009006 # occ.  0.00000000
 
ion      s     py     pz     px    dxy    dyz    dz2    dxz  x2-y2    tot
    1  0.001  0.043  0.055  0.039  0.000  0.000  0.000  0.000  0.000  0.137
    2  0.001  0.043  0.055  0.039  0.000  0.000  0.000  0.000  0.000  0.137
tot    0.002  0.086  0.110  0.077  0.000  0.000  0.000  0.000  0.000  0.275
 
band    10 # energy   16.64158844 # occ.  0.00000000
 
ion      s     py     pz     px    dxy    dyz    dz2    dxz  x2-y2    tot
    1  0.001  0.066  0.026  0.036  0.000  0.000  0.000  0.000  0.000  0.129
    2  0.001  0.066  0.026  0.036  0.000  0.000  0.000  0.000  0.000  0.129
tot    0.002  0.132  0.051  0.073  0.000  0.000  0.000  0.000  0.000  0.258
 
band    11 # energy   18.62169287 # occ.  0.00000000
 
ion      s     py     pz     px    dxy    dyz    dz2    dxz  x2-y2    tot
    1  0.027  0.028  0.076  0.001  0.000  0.000  0.000  0.000  0.000  0.132
    2  0.027  0.028  0.076  0.001  0.000  0.000  0.000  0.000  0.000  0.132
tot    0.053  0.056  0.153  0.002  0.000  0.000  0.000  0.000  0.000  0.264
 
band    12 # energy   19.21605868 # occ.  0.00000000
 
ion      s     py     pz     px    dxy    dyz    dz2    dxz  x2-y2    tot
    1  0.023  0.062  0.046  0.001  0.000  0.000  0.000  0.000  0.000  0.131
    2  0.023  0.062  0.046  0.001  0.000  0.000  0.000  0.000  0.000  0.131
tot    0.046  0.124  0.092  0.001  0.000  0.000  0.000  0.000  0.000  0.262
 

 k-point   115 :    0.47857143 0.27142857 0.75000000     weight = 0.00555556

band     1 # energy   -1.99947546 # occ.  2.00000000
 
ion      s     py     pz     px    dxy    dyz    dz2    dxz  x2-y2    tot
    1  0.207  0.017  0.022  0.000  0.000  0.000  0.000  0.000  0.000  0.247
    2  0.207  0.017  0.022  0.000  0.000  0.000  0.000  0.000  0.000  0.247
tot    0.415  0.035  0.044  0.000  0.000  0.000  0.000  0.000  0.000  0.494
 
band     2 # energy   -1.64959426 # occ.  2.00000000
 
ion      s     py     pz     px    dxy    dyz    dz2    dxz  x2-y2    tot
    1  0.201  0.018  0.028  0.000  0.000  0.000  0.000  0.000  0.000  0.247
    2  0.201  0.018  0.028  0.000  0.000  0.000  0.000  0.000  0.000  0.247
tot    0.402  0.035  0.055  0.000  0.000  0.000  0.000  0.000  0.000  0.493
 
band     3 # energy    1.84286993 # occ.  2.00000000
 
ion      s     py     pz     px    dxy    dyz    dz2    dxz  x2-y2    tot
    1  0.000  0.048  0.045  0.067  0.000  0.000  0.000  0.000  0.000  0.159
    2  0.000  0.048  0.045  0.067  0.000  0.000  0.000  0.000  0.000  0.159
tot    0.000  0.096  0.090  0.133  0.000  0.000  0.000  0.000  0.000  0.319
 
band     4 # energy    2.17415410 # occ.  2.00000000
 
ion      s     py     pz     px    dxy    dyz    dz2    dxz  x2-y2    tot
    1  0.001  0.055  0.036  0.073  0.000  0.000  0.000  0.000  0.000  0.165
    2  0.001  0.055  0.036  0.073  0.000  0.000  0.000  0.000  0.000  0.165
tot    0.001  0.111  0.072  0.145  0.000  0.000  0.000  0.000  0.000  0.329
 
band     5 # energy    9.53424104 # occ.  0.00000000
 
ion      s     py     pz     px    dxy    dyz    dz2    dxz  x2-y2    tot
    1  0.020  0.014  0.014  0.058  0.000  0.000  0.000  0.000  0.000  0.106
    2  0.020  0.014  0.014  0.058  0.000  0.000  0.000  0.000  0.000  0.106
tot    0.041  0.027  0.028  0.116  0.000  0.000  0.000  0.000  0.000  0.212
 
band     6 # energy   10.15178937 # occ.  0.00000000
 
ion      s     py     pz     px    dxy    dyz    dz2    dxz  x2-y2    tot
    1  0.008  0.008  0.004  0.075  0.000  0.000  0.000  0.000  0.000  0.094
    2  0.008  0.008  0.004  0.075  0.000  0.000  0.000  0.000  0.000  0.094
tot    0.015  0.016  0.008  0.150  0.000  0.000  0.000  0.000  0.000  0.189
 
band     7 # energy   11.12505617 # occ.  0.00000000
 
ion      s     py     pz     px    dxy    dyz    dz2    dxz  x2-y2    tot
    1  0.050  0.048  0.048  0.012  0.000  0.000  0.000  0.000  0.000  0.158
    2  0.050  0.048  0.048  0.012  0.000  0.000  0.000  0.000  0.000  0.158
tot    0.101  0.096  0.096  0.024  0.000  0.000  0.000  0.000  0.000  0.317
 
band     8 # energy   11.13203022 # occ.  0.00000000
 
ion      s     py     pz     px    dxy    dyz    dz2    dxz  x2-y2    tot
    1  0.044  0.033  0.039  0.027  0.000  0.000  0.000  0.000  0.000  0.143
    2  0.044  0.033  0.039  0.027  0.000  0.000  0.000  0.000  0.000  0.143
tot    0.089  0.066  0.078  0.054  0.000  0.000  0.000  0.000  0.000  0.286
 
band     9 # energy   16.01989941 # occ.  0.00000000
 
ion      s     py     pz     px    dxy    dyz    dz2    dxz  x2-y2    tot
    1  0.001  0.042  0.056  0.039  0.000  0.000  0.000  0.000  0.000  0.138
    2  0.001  0.042  0.056  0.039  0.000  0.000  0.000  0.000  0.000  0.138
tot    0.002  0.085  0.112  0.077  0.000  0.000  0.000  0.000  0.000  0.276
 
band    10 # energy   16.66177417 # occ.  0.00000000
 
ion      s     py     pz     px    dxy    dyz    dz2    dxz  x2-y2    tot
    1  0.002  0.070  0.021  0.035  0.000  0.000  0.000  0.000  0.000  0.128
    2  0.002  0.070  0.021  0.035  0.000  0.000  0.000  0.000  0.000  0.128
tot    0.004  0.140  0.041  0.071  0.000  0.000  0.000  0.000  0.000  0.256
 
band    11 # energy   18.59182352 # occ.  0.00000000
 
ion      s     py     pz     px    dxy    dyz    dz2    dxz  x2-y2    tot
    1  0.026  0.023  0.082  0.002  0.000  0.000  0.000  0.000  0.000  0.132
    2  0.026  0.023  0.082  0.002  0.000  0.000  0.000  0.000  0.000  0.132
tot    0.052  0.045  0.164  0.004  0.000  0.000  0.000  0.000  0.000  0.265
 
band    12 # energy   19.28776226 # occ.  0.00000000
 
ion      s     py     pz     px    dxy    dyz    dz2    dxz  x2-y2    tot
    1  0.022  0.063  0.045  0.001  0.000  0.000  0.000  0.000  0.000  0.131
    2  0.022  0.063  0.045  0.001  0.000  0.000  0.000  0.000  0.000  0.131
tot    0.044  0.126  0.090  0.001  0.000  0.000  0.000  0.000  0.000  0.262
 

 k-point   116 :    0.47500000 0.27500000 0.75000000     weight = 0.00555556

band     1 # energy   -2.02631758 # occ.  2.00000000
 
ion      s     py     pz     px    dxy    dyz    dz2    dxz  x2-y2    tot
    1  0.208  0.017  0.022  0.000  0.000  0.000  0.000  0.000  0.000  0.247
    2  0.208  0.017  0.022  0.000  0.000  0.000  0.000  0.000  0.000  0.247
tot    0.416  0.034  0.044  0.000  0.000  0.000  0.000  0.000  0.000  0.494
 
band     2 # energy   -1.62665492 # occ.  2.00000000
 
ion      s     py     pz     px    dxy    dyz    dz2    dxz  x2-y2    tot
    1  0.200  0.017  0.029  0.000  0.000  0.000  0.000  0.000  0.000  0.246
    2  0.200  0.017  0.029  0.000  0.000  0.000  0.000  0.000  0.000  0.246
tot    0.401  0.034  0.057  0.001  0.000  0.000  0.000  0.000  0.000  0.493
 
band     3 # energy    1.82220164 # occ.  2.00000000
 
ion      s     py     pz     px    dxy    dyz    dz2    dxz  x2-y2    tot
    1  0.000  0.048  0.045  0.066  0.000  0.000  0.000  0.000  0.000  0.159
    2  0.000  0.048  0.045  0.066  0.000  0.000  0.000  0.000  0.000  0.159
tot    0.000  0.096  0.090  0.132  0.000  0.000  0.000  0.000  0.000  0.318
 
band     4 # energy    2.21484950 # occ.  2.00000000
 
ion      s     py     pz     px    dxy    dyz    dz2    dxz  x2-y2    tot
    1  0.001  0.057  0.034  0.073  0.000  0.000  0.000  0.000  0.000  0.166
    2  0.001  0.057  0.034  0.073  0.000  0.000  0.000  0.000  0.000  0.166
tot    0.002  0.114  0.068  0.147  0.000  0.000  0.000  0.000  0.000  0.331
 
band     5 # energy    9.40986942 # occ.  0.00000000
 
ion      s     py     pz     px    dxy    dyz    dz2    dxz  x2-y2    tot
    1  0.023  0.014  0.016  0.055  0.000  0.000  0.000  0.000  0.000  0.107
    2  0.023  0.014  0.016  0.055  0.000  0.000  0.000  0.000  0.000  0.107
tot    0.046  0.029  0.031  0.109  0.000  0.000  0.000  0.000  0.000  0.215
 
band     6 # energy   10.14754999 # occ.  0.00000000
 
ion      s     py     pz     px    dxy    dyz    dz2    dxz  x2-y2    tot
    1  0.009  0.009  0.005  0.072  0.000  0.000  0.000  0.000  0.000  0.096
    2  0.009  0.009  0.005  0.072  0.000  0.000  0.000  0.000  0.000  0.096
tot    0.018  0.019  0.010  0.145  0.000  0.000  0.000  0.000  0.000  0.192
 
band     7 # energy   11.19037947 # occ.  0.00000000
 
ion      s     py     pz     px    dxy    dyz    dz2    dxz  x2-y2    tot
    1  0.048  0.047  0.047  0.015  0.000  0.000  0.000  0.000  0.000  0.157
    2  0.048  0.047  0.047  0.015  0.000  0.000  0.000  0.000  0.000  0.157
tot    0.096  0.094  0.095  0.029  0.000  0.000  0.000  0.000  0.000  0.314
 
band     8 # energy   11.21938619 # occ.  0.00000000
 
ion      s     py     pz     px    dxy    dyz    dz2    dxz  x2-y2    tot
    1  0.042  0.031  0.037  0.030  0.000  0.000  0.000  0.000  0.000  0.141
    2  0.042  0.031  0.037  0.030  0.000  0.000  0.000  0.000  0.000  0.141
tot    0.085  0.062  0.075  0.060  0.000  0.000  0.000  0.000  0.000  0.282
 
band     9 # energy   15.94833083 # occ.  0.00000000
 
ion      s     py     pz     px    dxy    dyz    dz2    dxz  x2-y2    tot
    1  0.001  0.042  0.057  0.038  0.000  0.000  0.000  0.000  0.000  0.139
    2  0.001  0.042  0.057  0.038  0.000  0.000  0.000  0.000  0.000  0.139
tot    0.003  0.083  0.114  0.077  0.000  0.000  0.000  0.000  0.000  0.277
 
band    10 # energy   16.67094959 # occ.  0.00000000
 
ion      s     py     pz     px    dxy    dyz    dz2    dxz  x2-y2    tot
    1  0.003  0.074  0.016  0.034  0.000  0.000  0.000  0.000  0.000  0.127
    2  0.003  0.074  0.016  0.034  0.000  0.000  0.000  0.000  0.000  0.127
tot    0.006  0.147  0.032  0.069  0.000  0.000  0.000  0.000  0.000  0.253
 
band    11 # energy   18.57219072 # occ.  0.00000000
 
ion      s     py     pz     px    dxy    dyz    dz2    dxz  x2-y2    tot
    1  0.025  0.018  0.087  0.003  0.000  0.000  0.000  0.000  0.000  0.133
    2  0.025  0.018  0.087  0.003  0.000  0.000  0.000  0.000  0.000  0.133
tot    0.051  0.036  0.173  0.006  0.000  0.000  0.000  0.000  0.000  0.265
 
band    12 # energy   19.36077227 # occ.  0.00000000
 
ion      s     py     pz     px    dxy    dyz    dz2    dxz  x2-y2    tot
    1  0.021  0.065  0.044  0.001  0.000  0.000  0.000  0.000  0.000  0.130
    2  0.021  0.064  0.044  0.001  0.000  0.000  0.000  0.000  0.000  0.130
tot    0.043  0.129  0.088  0.002  0.000  0.000  0.000  0.000  0.000  0.261
 

 k-point   117 :    0.47142857 0.27857143 0.75000000     weight = 0.00555556

band     1 # energy   -2.05222647 # occ.  2.00000000
 
ion      s     py     pz     px    dxy    dyz    dz2    dxz  x2-y2    tot
    1  0.208  0.016  0.022  0.000  0.000  0.000  0.000  0.000  0.000  0.247
    2  0.208  0.016  0.022  0.000  0.000  0.000  0.000  0.000  0.000  0.247
tot    0.416  0.033  0.044  0.000  0.000  0.000  0.000  0.000  0.000  0.493
 
band     2 # energy   -1.60516149 # occ.  2.00000000
 
ion      s     py     pz     px    dxy    dyz    dz2    dxz  x2-y2    tot
    1  0.199  0.017  0.030  0.000  0.000  0.000  0.000  0.000  0.000  0.246
    2  0.199  0.017  0.030  0.000  0.000  0.000  0.000  0.000  0.000  0.246
tot    0.399  0.033  0.059  0.001  0.000  0.000  0.000  0.000  0.000  0.492
 
band     3 # energy    1.80219205 # occ.  2.00000000
 
ion      s     py     pz     px    dxy    dyz    dz2    dxz  x2-y2    tot
    1  0.000  0.048  0.045  0.066  0.000  0.000  0.000  0.000  0.000  0.159
    2  0.000  0.048  0.045  0.066  0.000  0.000  0.000  0.000  0.000  0.159
tot    0.000  0.097  0.089  0.131  0.000  0.000  0.000  0.000  0.000  0.318
 
band     4 # energy    2.25770228 # occ.  2.00000000
 
ion      s     py     pz     px    dxy    dyz    dz2    dxz  x2-y2    tot
    1  0.001  0.059  0.033  0.074  0.000  0.000  0.000  0.000  0.000  0.166
    2  0.001  0.059  0.033  0.074  0.000  0.000  0.000  0.000  0.000  0.166
tot    0.002  0.117  0.065  0.148  0.000  0.000  0.000  0.000  0.000  0.333
 
band     5 # energy    9.28467931 # occ.  0.00000000
 
ion      s     py     pz     px    dxy    dyz    dz2    dxz  x2-y2    tot
    1  0.025  0.015  0.017  0.052  0.000  0.000  0.000  0.000  0.000  0.109
    2  0.025  0.015  0.017  0.052  0.000  0.000  0.000  0.000  0.000  0.109
tot    0.050  0.030  0.034  0.103  0.000  0.000  0.000  0.000  0.000  0.217
 
band     6 # energy   10.14142614 # occ.  0.00000000
 
ion      s     py     pz     px    dxy    dyz    dz2    dxz  x2-y2    tot
    1  0.011  0.011  0.006  0.070  0.000  0.000  0.000  0.000  0.000  0.098
    2  0.011  0.011  0.006  0.070  0.000  0.000  0.000  0.000  0.000  0.098
tot    0.021  0.022  0.012  0.140  0.000  0.000  0.000  0.000  0.000  0.195
 
band     7 # energy   11.25890880 # occ.  0.00000000
 
ion      s     py     pz     px    dxy    dyz    dz2    dxz  x2-y2    tot
    1  0.046  0.046  0.046  0.017  0.000  0.000  0.000  0.000  0.000  0.156
    2  0.046  0.046  0.046  0.017  0.000  0.000  0.000  0.000  0.000  0.156
tot    0.092  0.093  0.093  0.034  0.000  0.000  0.000  0.000  0.000  0.312
 
band     8 # energy   11.31018434 # occ.  0.00000000
 
ion      s     py     pz     px    dxy    dyz    dz2    dxz  x2-y2    tot
    1  0.041  0.030  0.036  0.033  0.000  0.000  0.000  0.000  0.000  0.139
    2  0.041  0.030  0.036  0.033  0.000  0.000  0.000  0.000  0.000  0.139
tot    0.082  0.060  0.072  0.065  0.000  0.000  0.000  0.000  0.000  0.279
 
band     9 # energy   15.87549422 # occ.  0.00000000
 
ion      s     py     pz     px    dxy    dyz    dz2    dxz  x2-y2    tot
    1  0.002  0.041  0.058  0.038  0.000  0.000  0.000  0.000  0.000  0.139
    2  0.002  0.041  0.058  0.038  0.000  0.000  0.000  0.000  0.000  0.139
tot    0.004  0.082  0.116  0.077  0.000  0.000  0.000  0.000  0.000  0.278
 
band    10 # energy   16.66830987 # occ.  0.00000000
 
ion      s     py     pz     px    dxy    dyz    dz2    dxz  x2-y2    tot
    1  0.004  0.077  0.012  0.033  0.000  0.000  0.000  0.000  0.000  0.125
    2  0.004  0.077  0.012  0.033  0.000  0.000  0.000  0.000  0.000  0.125
tot    0.008  0.154  0.023  0.066  0.000  0.000  0.000  0.000  0.000  0.251
 
band    11 # energy   18.56361092 # occ.  0.00000000
 
ion      s     py     pz     px    dxy    dyz    dz2    dxz  x2-y2    tot
    1  0.024  0.013  0.091  0.004  0.000  0.000  0.000  0.000  0.000  0.133
    2  0.024  0.013  0.091  0.004  0.000  0.000  0.000  0.000  0.000  0.133
tot    0.049  0.026  0.183  0.008  0.000  0.000  0.000  0.000  0.000  0.266
 
band    12 # energy   19.43475674 # occ.  0.00000000
 
ion      s     py     pz     px    dxy    dyz    dz2    dxz  x2-y2    tot
    1  0.021  0.066  0.043  0.001  0.000  0.000  0.000  0.000  0.000  0.130
    2  0.021  0.066  0.043  0.001  0.000  0.000  0.000  0.000  0.000  0.130
tot    0.041  0.131  0.086  0.002  0.000  0.000  0.000  0.000  0.000  0.261
 

 k-point   118 :    0.46785714 0.28214286 0.75000000     weight = 0.00555556

band     1 # energy   -2.07720492 # occ.  2.00000000
 
ion      s     py     pz     px    dxy    dyz    dz2    dxz  x2-y2    tot
    1  0.209  0.016  0.022  0.000  0.000  0.000  0.000  0.000  0.000  0.247
    2  0.209  0.016  0.022  0.000  0.000  0.000  0.000  0.000  0.000  0.247
tot    0.417  0.032  0.044  0.001  0.000  0.000  0.000  0.000  0.000  0.493
 
band     2 # energy   -1.58507695 # occ.  2.00000000
 
ion      s     py     pz     px    dxy    dyz    dz2    dxz  x2-y2    tot
    1  0.199  0.016  0.031  0.001  0.000  0.000  0.000  0.000  0.000  0.246
    2  0.199  0.016  0.031  0.001  0.000  0.000  0.000  0.000  0.000  0.246
tot    0.397  0.032  0.061  0.001  0.000  0.000  0.000  0.000  0.000  0.492
 
band     3 # energy    1.78284629 # occ.  2.00000000
 
ion      s     py     pz     px    dxy    dyz    dz2    dxz  x2-y2    tot
    1  0.000  0.049  0.045  0.065  0.000  0.000  0.000  0.000  0.000  0.159
    2  0.000  0.049  0.045  0.065  0.000  0.000  0.000  0.000  0.000  0.159
tot    0.000  0.097  0.089  0.131  0.000  0.000  0.000  0.000  0.000  0.317
 
band     4 # energy    2.30258242 # occ.  2.00000000
 
ion      s     py     pz     px    dxy    dyz    dz2    dxz  x2-y2    tot
    1  0.001  0.060  0.031  0.075  0.000  0.000  0.000  0.000  0.000  0.167
    2  0.001  0.060  0.031  0.075  0.000  0.000  0.000  0.000  0.000  0.167
tot    0.003  0.121  0.062  0.149  0.000  0.000  0.000  0.000  0.000  0.335
 
band     5 # energy    9.15944883 # occ.  0.00000000
 
ion      s     py     pz     px    dxy    dyz    dz2    dxz  x2-y2    tot
    1  0.027  0.015  0.018  0.049  0.000  0.000  0.000  0.000  0.000  0.110
    2  0.027  0.015  0.018  0.049  0.000  0.000  0.000  0.000  0.000  0.110
tot    0.054  0.030  0.037  0.098  0.000  0.000  0.000  0.000  0.000  0.219
 
band     6 # energy   10.13389010 # occ.  0.00000000
 
ion      s     py     pz     px    dxy    dyz    dz2    dxz  x2-y2    tot
    1  0.012  0.013  0.007  0.068  0.000  0.000  0.000  0.000  0.000  0.099
    2  0.012  0.013  0.007  0.068  0.000  0.000  0.000  0.000  0.000  0.099
tot    0.024  0.025  0.013  0.135  0.000  0.000  0.000  0.000  0.000  0.198
 
band     7 # energy   11.33015286 # occ.  0.00000000
 
ion      s     py     pz     px    dxy    dyz    dz2    dxz  x2-y2    tot
    1  0.044  0.046  0.046  0.020  0.000  0.000  0.000  0.000  0.000  0.155
    2  0.044  0.046  0.046  0.020  0.000  0.000  0.000  0.000  0.000  0.155
tot    0.088  0.091  0.091  0.039  0.000  0.000  0.000  0.000  0.000  0.309
 
band     8 # energy   11.40362050 # occ.  0.00000000
 
ion      s     py     pz     px    dxy    dyz    dz2    dxz  x2-y2    tot
    1  0.040  0.029  0.035  0.035  0.000  0.000  0.000  0.000  0.000  0.138
    2  0.040  0.029  0.035  0.035  0.000  0.000  0.000  0.000  0.000  0.138
tot    0.079  0.057  0.070  0.069  0.000  0.000  0.000  0.000  0.000  0.276
 
band     9 # energy   15.80143605 # occ.  0.00000000
 
ion      s     py     pz     px    dxy    dyz    dz2    dxz  x2-y2    tot
    1  0.002  0.041  0.059  0.038  0.000  0.000  0.000  0.000  0.000  0.140
    2  0.002  0.041  0.059  0.038  0.000  0.000  0.000  0.000  0.000  0.140
tot    0.005  0.081  0.117  0.076  0.000  0.000  0.000  0.000  0.000  0.279
 
band    10 # energy   16.65339125 # occ.  0.00000000
 
ion      s     py     pz     px    dxy    dyz    dz2    dxz  x2-y2    tot
    1  0.005  0.080  0.008  0.032  0.000  0.000  0.000  0.000  0.000  0.124
    2  0.005  0.080  0.008  0.032  0.000  0.000  0.000  0.000  0.000  0.124
tot    0.010  0.159  0.016  0.063  0.000  0.000  0.000  0.000  0.000  0.249
 
band    11 # energy   18.56661917 # occ.  0.00000000
 
ion      s     py     pz     px    dxy    dyz    dz2    dxz  x2-y2    tot
    1  0.023  0.009  0.095  0.005  0.000  0.000  0.000  0.000  0.000  0.133
    2  0.023  0.009  0.095  0.005  0.000  0.000  0.000  0.000  0.000  0.133
tot    0.047  0.019  0.191  0.010  0.000  0.000  0.000  0.000  0.000  0.267
 
band    12 # energy   19.51002033 # occ.  0.00000000
 
ion      s     py     pz     px    dxy    dyz    dz2    dxz  x2-y2    tot
    1  0.020  0.067  0.042  0.001  0.000  0.000  0.000  0.000  0.000  0.130
    2  0.020  0.066  0.042  0.001  0.000  0.000  0.000  0.000  0.000  0.130
tot    0.039  0.133  0.084  0.003  0.000  0.000  0.000  0.000  0.000  0.260
 

 k-point   119 :    0.46428571 0.28571429 0.75000000     weight = 0.00555556

band     1 # energy   -2.10125509 # occ.  2.00000000
 
ion      s     py     pz     px    dxy    dyz    dz2    dxz  x2-y2    tot
    1  0.209  0.015  0.022  0.000  0.000  0.000  0.000  0.000  0.000  0.247
    2  0.209  0.015  0.022  0.000  0.000  0.000  0.000  0.000  0.000  0.247
tot    0.418  0.030  0.044  0.001  0.000  0.000  0.000  0.000  0.000  0.493
 
band     2 # energy   -1.56635911 # occ.  2.00000000
 
ion      s     py     pz     px    dxy    dyz    dz2    dxz  x2-y2    tot
    1  0.198  0.015  0.032  0.001  0.000  0.000  0.000  0.000  0.000  0.245
    2  0.198  0.015  0.032  0.001  0.000  0.000  0.000  0.000  0.000  0.246
tot    0.395  0.031  0.063  0.001  0.000  0.000  0.000  0.000  0.000  0.491
 
band     3 # energy    1.76417297 # occ.  2.00000000
 
ion      s     py     pz     px    dxy    dyz    dz2    dxz  x2-y2    tot
    1  0.000  0.049  0.044  0.065  0.000  0.000  0.000  0.000  0.000  0.158
    2  0.000  0.049  0.044  0.065  0.000  0.000  0.000  0.000  0.000  0.158
tot    0.000  0.098  0.089  0.130  0.000  0.000  0.000  0.000  0.000  0.317
 
band     4 # energy    2.34936061 # occ.  2.00000000
 
ion      s     py     pz     px    dxy    dyz    dz2    dxz  x2-y2    tot
    1  0.002  0.062  0.029  0.075  0.000  0.000  0.000  0.000  0.000  0.168
    2  0.002  0.062  0.029  0.075  0.000  0.000  0.000  0.000  0.000  0.168
tot    0.003  0.124  0.059  0.151  0.000  0.000  0.000  0.000  0.000  0.337
 
band     5 # energy    9.03480709 # occ.  0.00000000
 
ion      s     py     pz     px    dxy    dyz    dz2    dxz  x2-y2    tot
    1  0.029  0.015  0.020  0.047  0.000  0.000  0.000  0.000  0.000  0.110
    2  0.029  0.015  0.020  0.047  0.000  0.000  0.000  0.000  0.000  0.110
tot    0.057  0.030  0.039  0.093  0.000  0.000  0.000  0.000  0.000  0.220
 
band     6 # energy   10.12532688 # occ.  0.00000000
 
ion      s     py     pz     px    dxy    dyz    dz2    dxz  x2-y2    tot
    1  0.013  0.014  0.007  0.065  0.000  0.000  0.000  0.000  0.000  0.100
    2  0.013  0.014  0.007  0.065  0.000  0.000  0.000  0.000  0.000  0.100
tot    0.027  0.028  0.015  0.131  0.000  0.000  0.000  0.000  0.000  0.200
 
band     7 # energy   11.40361914 # occ.  0.00000000
 
ion      s     py     pz     px    dxy    dyz    dz2    dxz  x2-y2    tot
    1  0.042  0.045  0.045  0.022  0.000  0.000  0.000  0.000  0.000  0.154
    2  0.042  0.045  0.045  0.022  0.000  0.000  0.000  0.000  0.000  0.154
tot    0.084  0.090  0.090  0.044  0.000  0.000  0.000  0.000  0.000  0.307
 
band     8 # energy   11.49915903 # occ.  0.00000000
 
ion      s     py     pz     px    dxy    dyz    dz2    dxz  x2-y2    tot
    1  0.039  0.028  0.034  0.037  0.000  0.000  0.000  0.000  0.000  0.137
    2  0.039  0.028  0.034  0.037  0.000  0.000  0.000  0.000  0.000  0.137
tot    0.077  0.055  0.068  0.073  0.000  0.000  0.000  0.000  0.000  0.274
 
band     9 # energy   15.72625576 # occ.  0.00000000
 
ion      s     py     pz     px    dxy    dyz    dz2    dxz  x2-y2    tot
    1  0.003  0.040  0.059  0.038  0.000  0.000  0.000  0.000  0.000  0.140
    2  0.003  0.040  0.059  0.038  0.000  0.000  0.000  0.000  0.000  0.140
tot    0.005  0.080  0.119  0.076  0.000  0.000  0.000  0.000  0.000  0.280
 
band    10 # energy   16.62627403 # occ.  0.00000000
 
ion      s     py     pz     px    dxy    dyz    dz2    dxz  x2-y2    tot
    1  0.006  0.082  0.005  0.030  0.000  0.000  0.000  0.000  0.000  0.123
    2  0.006  0.082  0.005  0.030  0.000  0.000  0.000  0.000  0.000  0.123
tot    0.013  0.163  0.010  0.060  0.000  0.000  0.000  0.000  0.000  0.246
 
band    11 # energy   18.58122839 # occ.  0.00000000
 
ion      s     py     pz     px    dxy    dyz    dz2    dxz  x2-y2    tot
    1  0.022  0.006  0.099  0.007  0.000  0.000  0.000  0.000  0.000  0.134
    2  0.022  0.006  0.099  0.007  0.000  0.000  0.000  0.000  0.000  0.134
tot    0.044  0.012  0.197  0.013  0.000  0.000  0.000  0.000  0.000  0.267
 
band    12 # energy   19.58568573 # occ.  0.00000000
 
ion      s     py     pz     px    dxy    dyz    dz2    dxz  x2-y2    tot
    1  0.019  0.067  0.041  0.002  0.000  0.000  0.000  0.000  0.000  0.129
    2  0.019  0.068  0.041  0.002  0.000  0.000  0.000  0.000  0.000  0.130
tot    0.038  0.135  0.083  0.003  0.000  0.000  0.000  0.000  0.000  0.259
 

 k-point   120 :    0.46071429 0.28928571 0.75000000     weight = 0.00555556

band     1 # energy   -2.12437103 # occ.  2.00000000
 
ion      s     py     pz     px    dxy    dyz    dz2    dxz  x2-y2    tot
    1  0.209  0.015  0.022  0.000  0.000  0.000  0.000  0.000  0.000  0.247
    2  0.209  0.015  0.022  0.000  0.000  0.000  0.000  0.000  0.000  0.247
tot    0.419  0.029  0.044  0.001  0.000  0.000  0.000  0.000  0.000  0.493
 
band     2 # energy   -1.54895309 # occ.  2.00000000
 
ion      s     py     pz     px    dxy    dyz    dz2    dxz  x2-y2    tot
    1  0.197  0.015  0.033  0.001  0.000  0.000  0.000  0.000  0.000  0.245
    2  0.197  0.015  0.033  0.001  0.000  0.000  0.000  0.000  0.000  0.245
tot    0.394  0.030  0.065  0.002  0.000  0.000  0.000  0.000  0.000  0.490
 
band     3 # energy    1.74618080 # occ.  2.00000000
 
ion      s     py     pz     px    dxy    dyz    dz2    dxz  x2-y2    tot
    1  0.000  0.049  0.044  0.065  0.000  0.000  0.000  0.000  0.000  0.158
    2  0.000  0.049  0.044  0.065  0.000  0.000  0.000  0.000  0.000  0.158
tot    0.000  0.099  0.089  0.129  0.000  0.000  0.000  0.000  0.000  0.316
 
band     4 # energy    2.39789380 # occ.  2.00000000
 
ion      s     py     pz     px    dxy    dyz    dz2    dxz  x2-y2    tot
    1  0.002  0.064  0.028  0.076  0.000  0.000  0.000  0.000  0.000  0.170
    2  0.002  0.064  0.028  0.076  0.000  0.000  0.000  0.000  0.000  0.170
tot    0.004  0.128  0.055  0.152  0.000  0.000  0.000  0.000  0.000  0.339
 
band     5 # energy    8.91120407 # occ.  0.00000000
 
ion      s     py     pz     px    dxy    dyz    dz2    dxz  x2-y2    tot
    1  0.030  0.015  0.021  0.044  0.000  0.000  0.000  0.000  0.000  0.110
    2  0.030  0.015  0.021  0.044  0.000  0.000  0.000  0.000  0.000  0.110
tot    0.061  0.030  0.042  0.089  0.000  0.000  0.000  0.000  0.000  0.221
 
band     6 # energy   10.11607731 # occ.  0.00000000
 
ion      s     py     pz     px    dxy    dyz    dz2    dxz  x2-y2    tot
    1  0.015  0.015  0.008  0.063  0.000  0.000  0.000  0.000  0.000  0.101
    2  0.015  0.015  0.008  0.063  0.000  0.000  0.000  0.000  0.000  0.101
tot    0.029  0.031  0.016  0.127  0.000  0.000  0.000  0.000  0.000  0.203
 
band     7 # energy   11.47906289 # occ.  0.00000000
 
ion      s     py     pz     px    dxy    dyz    dz2    dxz  x2-y2    tot
    1  0.040  0.045  0.044  0.024  0.000  0.000  0.000  0.000  0.000  0.153
    2  0.040  0.045  0.044  0.024  0.000  0.000  0.000  0.000  0.000  0.153
tot    0.080  0.089  0.088  0.048  0.000  0.000  0.000  0.000  0.000  0.306
 
band     8 # energy   11.59656623 # occ.  0.00000000
 
ion      s     py     pz     px    dxy    dyz    dz2    dxz  x2-y2    tot
    1  0.038  0.027  0.033  0.038  0.000  0.000  0.000  0.000  0.000  0.136
    2  0.038  0.027  0.033  0.038  0.000  0.000  0.000  0.000  0.000  0.136
tot    0.075  0.054  0.066  0.077  0.000  0.000  0.000  0.000  0.000  0.272
 
band     9 # energy   15.65005219 # occ.  0.00000000
 
ion      s     py     pz     px    dxy    dyz    dz2    dxz  x2-y2    tot
    1  0.003  0.040  0.060  0.038  0.000  0.000  0.000  0.000  0.000  0.141
    2  0.003  0.040  0.060  0.038  0.000  0.000  0.000  0.000  0.000  0.141
tot    0.006  0.079  0.120  0.075  0.000  0.000  0.000  0.000  0.000  0.281
 
band    10 # energy   16.58760389 # occ.  0.00000000
 
ion      s     py     pz     px    dxy    dyz    dz2    dxz  x2-y2    tot
    1  0.008  0.083  0.003  0.029  0.000  0.000  0.000  0.000  0.000  0.122
    2  0.008  0.083  0.003  0.029  0.000  0.000  0.000  0.000  0.000  0.122
tot    0.015  0.166  0.005  0.057  0.000  0.000  0.000  0.000  0.000  0.244
 
band    11 # energy   18.60728408 # occ.  0.00000000
 
ion      s     py     pz     px    dxy    dyz    dz2    dxz  x2-y2    tot
    1  0.021  0.004  0.101  0.008  0.000  0.000  0.000  0.000  0.000  0.134
    2  0.021  0.004  0.101  0.008  0.000  0.000  0.000  0.000  0.000  0.134
tot    0.042  0.007  0.202  0.016  0.000  0.000  0.000  0.000  0.000  0.267
 
band    12 # energy   19.66214501 # occ.  0.00000000
 
ion      s     py     pz     px    dxy    dyz    dz2    dxz  x2-y2    tot
    1  0.018  0.069  0.040  0.002  0.000  0.000  0.000  0.000  0.000  0.129
    2  0.018  0.069  0.041  0.002  0.000  0.000  0.000  0.000  0.000  0.129
tot    0.036  0.137  0.081  0.004  0.000  0.000  0.000  0.000  0.000  0.258
 

 k-point   121 :    0.45714286 0.29285714 0.75000000     weight = 0.00555556

band     1 # energy   -2.14655323 # occ.  2.00000000
 
ion      s     py     pz     px    dxy    dyz    dz2    dxz  x2-y2    tot
    1  0.210  0.014  0.022  0.001  0.000  0.000  0.000  0.000  0.000  0.247
    2  0.210  0.014  0.022  0.001  0.000  0.000  0.000  0.000  0.000  0.247
tot    0.419  0.028  0.045  0.001  0.000  0.000  0.000  0.000  0.000  0.493
 
band     2 # energy   -1.53281630 # occ.  2.00000000
 
ion      s     py     pz     px    dxy    dyz    dz2    dxz  x2-y2    tot
    1  0.196  0.014  0.034  0.001  0.000  0.000  0.000  0.000  0.000  0.245
    2  0.196  0.014  0.034  0.001  0.000  0.000  0.000  0.000  0.000  0.245
tot    0.392  0.029  0.067  0.002  0.000  0.000  0.000  0.000  0.000  0.490
 
band     3 # energy    1.72887410 # occ.  2.00000000
 
ion      s     py     pz     px    dxy    dyz    dz2    dxz  x2-y2    tot
    1  0.000  0.050  0.044  0.064  0.000  0.000  0.000  0.000  0.000  0.158
    2  0.000  0.050  0.044  0.064  0.000  0.000  0.000  0.000  0.000  0.158
tot    0.000  0.099  0.088  0.128  0.000  0.000  0.000  0.000  0.000  0.316
 
band     4 # energy    2.44802161 # occ.  2.00000000
 
ion      s     py     pz     px    dxy    dyz    dz2    dxz  x2-y2    tot
    1  0.002  0.066  0.026  0.077  0.000  0.000  0.000  0.000  0.000  0.171
    2  0.002  0.066  0.026  0.077  0.000  0.000  0.000  0.000  0.000  0.171
tot    0.004  0.131  0.052  0.154  0.000  0.000  0.000  0.000  0.000  0.342
 
band     5 # energy    8.78898731 # occ.  0.00000000
 
ion      s     py     pz     px    dxy    dyz    dz2    dxz  x2-y2    tot
    1  0.032  0.015  0.022  0.042  0.000  0.000  0.000  0.000  0.000  0.110
    2  0.032  0.015  0.022  0.042  0.000  0.000  0.000  0.000  0.000  0.110
tot    0.064  0.029  0.044  0.085  0.000  0.000  0.000  0.000  0.000  0.221
 
band     6 # energy   10.10632195 # occ.  0.00000000
 
ion      s     py     pz     px    dxy    dyz    dz2    dxz  x2-y2    tot
    1  0.016  0.017  0.009  0.061  0.000  0.000  0.000  0.000  0.000  0.102
    2  0.016  0.017  0.009  0.061  0.000  0.000  0.000  0.000  0.000  0.102
tot    0.031  0.033  0.017  0.123  0.000  0.000  0.000  0.000  0.000  0.205
 
band     7 # energy   11.55614644 # occ.  0.00000000
 
ion      s     py     pz     px    dxy    dyz    dz2    dxz  x2-y2    tot
    1  0.038  0.044  0.043  0.026  0.000  0.000  0.000  0.000  0.000  0.152
    2  0.038  0.044  0.043  0.026  0.000  0.000  0.000  0.000  0.000  0.152
tot    0.077  0.089  0.087  0.052  0.000  0.000  0.000  0.000  0.000  0.304
 
band     8 # energy   11.69540857 # occ.  0.00000000
 
ion      s     py     pz     px    dxy    dyz    dz2    dxz  x2-y2    tot
    1  0.037  0.026  0.032  0.040  0.000  0.000  0.000  0.000  0.000  0.135
    2  0.037  0.026  0.032  0.040  0.000  0.000  0.000  0.000  0.000  0.135
tot    0.074  0.052  0.065  0.080  0.000  0.000  0.000  0.000  0.000  0.271
 
band     9 # energy   15.57283619 # occ.  0.00000000
 
ion      s     py     pz     px    dxy    dyz    dz2    dxz  x2-y2    tot
    1  0.004  0.039  0.061  0.037  0.000  0.000  0.000  0.000  0.000  0.141
    2  0.004  0.039  0.061  0.037  0.000  0.000  0.000  0.000  0.000  0.141
tot    0.007  0.078  0.121  0.075  0.000  0.000  0.000  0.000  0.000  0.282
 
band    10 # energy   16.53794524 # occ.  0.00000000
 
ion      s     py     pz     px    dxy    dyz    dz2    dxz  x2-y2    tot
    1  0.009  0.084  0.001  0.027  0.000  0.000  0.000  0.000  0.000  0.121
    2  0.009  0.084  0.001  0.027  0.000  0.000  0.000  0.000  0.000  0.121
tot    0.018  0.167  0.002  0.054  0.000  0.000  0.000  0.000  0.000  0.242
 
band    11 # energy   18.64358242 # occ.  0.00000000
 
ion      s     py     pz     px    dxy    dyz    dz2    dxz  x2-y2    tot
    1  0.020  0.002  0.103  0.009  0.000  0.000  0.000  0.000  0.000  0.134
    2  0.020  0.002  0.103  0.009  0.000  0.000  0.000  0.000  0.000  0.134
tot    0.039  0.004  0.206  0.019  0.000  0.000  0.000  0.000  0.000  0.268
 
band    12 # energy   19.73915528 # occ.  0.00000000
 
ion      s     py     pz     px    dxy    dyz    dz2    dxz  x2-y2    tot
    1  0.017  0.069  0.040  0.002  0.000  0.000  0.000  0.000  0.000  0.129
    2  0.017  0.070  0.040  0.002  0.000  0.000  0.000  0.000  0.000  0.129
tot    0.034  0.139  0.080  0.005  0.000  0.000  0.000  0.000  0.000  0.258
 

 k-point   122 :    0.45357143 0.29642857 0.75000000     weight = 0.00555556

band     1 # energy   -2.16779969 # occ.  2.00000000
 
ion      s     py     pz     px    dxy    dyz    dz2    dxz  x2-y2    tot
    1  0.210  0.014  0.022  0.001  0.000  0.000  0.000  0.000  0.000  0.247
    2  0.210  0.014  0.022  0.001  0.000  0.000  0.000  0.000  0.000  0.247
tot    0.420  0.027  0.045  0.001  0.000  0.000  0.000  0.000  0.000  0.493
 
band     2 # energy   -1.51789088 # occ.  2.00000000
 
ion      s     py     pz     px    dxy    dyz    dz2    dxz  x2-y2    tot
    1  0.195  0.014  0.035  0.001  0.000  0.000  0.000  0.000  0.000  0.244
    2  0.195  0.014  0.035  0.001  0.000  0.000  0.000  0.000  0.000  0.244
tot    0.390  0.028  0.069  0.002  0.000  0.000  0.000  0.000  0.000  0.489
 
band     3 # energy    1.71226054 # occ.  2.00000000
 
ion      s     py     pz     px    dxy    dyz    dz2    dxz  x2-y2    tot
    1  0.000  0.050  0.044  0.064  0.000  0.000  0.000  0.000  0.000  0.158
    2  0.000  0.050  0.044  0.064  0.000  0.000  0.000  0.000  0.000  0.158
tot    0.000  0.100  0.088  0.127  0.000  0.000  0.000  0.000  0.000  0.316
 
band     4 # energy    2.49956962 # occ.  2.00000000
 
ion      s     py     pz     px    dxy    dyz    dz2    dxz  x2-y2    tot
    1  0.002  0.067  0.024  0.078  0.000  0.000  0.000  0.000  0.000  0.172
    2  0.002  0.067  0.024  0.078  0.000  0.000  0.000  0.000  0.000  0.172
tot    0.005  0.135  0.049  0.156  0.000  0.000  0.000  0.000  0.000  0.344
 
band     5 # energy    8.66845468 # occ.  0.00000000
 
ion      s     py     pz     px    dxy    dyz    dz2    dxz  x2-y2    tot
    1  0.033  0.014  0.023  0.040  0.000  0.000  0.000  0.000  0.000  0.110
    2  0.033  0.014  0.023  0.040  0.000  0.000  0.000  0.000  0.000  0.110
tot    0.066  0.028  0.046  0.081  0.000  0.000  0.000  0.000  0.000  0.221
 
band     6 # energy   10.09629248 # occ.  0.00000000
 
ion      s     py     pz     px    dxy    dyz    dz2    dxz  x2-y2    tot
    1  0.017  0.018  0.009  0.060  0.000  0.000  0.000  0.000  0.000  0.103
    2  0.017  0.018  0.009  0.060  0.000  0.000  0.000  0.000  0.000  0.103
tot    0.033  0.035  0.019  0.119  0.000  0.000  0.000  0.000  0.000  0.206
 
band     7 # energy   11.63467578 # occ.  0.00000000
 
ion      s     py     pz     px    dxy    dyz    dz2    dxz  x2-y2    tot
    1  0.037  0.044  0.043  0.028  0.000  0.000  0.000  0.000  0.000  0.152
    2  0.037  0.044  0.043  0.028  0.000  0.000  0.000  0.000  0.000  0.152
tot    0.073  0.088  0.086  0.056  0.000  0.000  0.000  0.000  0.000  0.303
 
band     8 # energy   11.79559475 # occ.  0.00000000
 
ion      s     py     pz     px    dxy    dyz    dz2    dxz  x2-y2    tot
    1  0.036  0.026  0.032  0.041  0.000  0.000  0.000  0.000  0.000  0.135
    2  0.036  0.026  0.032  0.041  0.000  0.000  0.000  0.000  0.000  0.135
tot    0.072  0.051  0.064  0.083  0.000  0.000  0.000  0.000  0.000  0.269
 
band     9 # energy   15.49469885 # occ.  0.00000000
 
ion      s     py     pz     px    dxy    dyz    dz2    dxz  x2-y2    tot
    1  0.004  0.039  0.061  0.037  0.000  0.000  0.000  0.000  0.000  0.141
    2  0.004  0.039  0.061  0.037  0.000  0.000  0.000  0.000  0.000  0.141
tot    0.009  0.078  0.122  0.074  0.000  0.000  0.000  0.000  0.000  0.283
 
band    10 # energy   16.47850356 # occ.  0.00000000
 
ion      s     py     pz     px    dxy    dyz    dz2    dxz  x2-y2    tot
    1  0.010  0.084  0.000  0.026  0.000  0.000  0.000  0.000  0.000  0.120
    2  0.010  0.084  0.000  0.026  0.000  0.000  0.000  0.000  0.000  0.120
tot    0.021  0.168  0.001  0.051  0.000  0.000  0.000  0.000  0.000  0.240
 
band    11 # energy   18.68936831 # occ.  0.00000000
 
ion      s     py     pz     px    dxy    dyz    dz2    dxz  x2-y2    tot
    1  0.018  0.001  0.104  0.011  0.000  0.000  0.000  0.000  0.000  0.134
    2  0.018  0.001  0.104  0.011  0.000  0.000  0.000  0.000  0.000  0.134
tot    0.037  0.002  0.208  0.021  0.000  0.000  0.000  0.000  0.000  0.268
 
band    12 # energy   19.81694164 # occ.  0.00000000
 
ion      s     py     pz     px    dxy    dyz    dz2    dxz  x2-y2    tot
    1  0.016  0.069  0.039  0.003  0.000  0.000  0.000  0.000  0.000  0.128
    2  0.016  0.071  0.039  0.003  0.000  0.000  0.000  0.000  0.000  0.129
tot    0.033  0.140  0.078  0.005  0.000  0.000  0.000  0.000  0.000  0.256
 

 k-point   123 :    0.45000000 0.30000000 0.75000000     weight = 0.00555556

band     1 # energy   -2.18810934 # occ.  2.00000000
 
ion      s     py     pz     px    dxy    dyz    dz2    dxz  x2-y2    tot
    1  0.210  0.013  0.022  0.001  0.000  0.000  0.000  0.000  0.000  0.247
    2  0.210  0.013  0.022  0.001  0.000  0.000  0.000  0.000  0.000  0.247
tot    0.421  0.026  0.045  0.001  0.000  0.000  0.000  0.000  0.000  0.493
 
band     2 # energy   -1.50412132 # occ.  2.00000000
 
ion      s     py     pz     px    dxy    dyz    dz2    dxz  x2-y2    tot
    1  0.194  0.013  0.035  0.001  0.000  0.000  0.000  0.000  0.000  0.244
    2  0.194  0.013  0.035  0.001  0.000  0.000  0.000  0.000  0.000  0.244
tot    0.388  0.026  0.071  0.003  0.000  0.000  0.000  0.000  0.000  0.488
 
band     3 # energy    1.69634580 # occ.  2.00000000
 
ion      s     py     pz     px    dxy    dyz    dz2    dxz  x2-y2    tot
    1  0.000  0.050  0.044  0.063  0.000  0.000  0.000  0.000  0.000  0.158
    2  0.000  0.050  0.044  0.063  0.000  0.000  0.000  0.000  0.000  0.158
tot    0.000  0.100  0.088  0.127  0.000  0.000  0.000  0.000  0.000  0.315
 
band     4 # energy    2.55234762 # occ.  2.00000000
 
ion      s     py     pz     px    dxy    dyz    dz2    dxz  x2-y2    tot
    1  0.003  0.069  0.023  0.079  0.000  0.000  0.000  0.000  0.000  0.173
    2  0.003  0.069  0.023  0.079  0.000  0.000  0.000  0.000  0.000  0.173
tot    0.005  0.138  0.046  0.157  0.000  0.000  0.000  0.000  0.000  0.347
 
band     5 # energy    8.54987019 # occ.  0.00000000
 
ion      s     py     pz     px    dxy    dyz    dz2    dxz  x2-y2    tot
    1  0.034  0.014  0.024  0.038  0.000  0.000  0.000  0.000  0.000  0.110
    2  0.034  0.014  0.024  0.038  0.000  0.000  0.000  0.000  0.000  0.110
tot    0.069  0.027  0.047  0.077  0.000  0.000  0.000  0.000  0.000  0.220
 
band     6 # energy   10.08614820 # occ.  0.00000000
 
ion      s     py     pz     px    dxy    dyz    dz2    dxz  x2-y2    tot
    1  0.017  0.019  0.010  0.058  0.000  0.000  0.000  0.000  0.000  0.104
    2  0.017  0.019  0.010  0.058  0.000  0.000  0.000  0.000  0.000  0.104
tot    0.035  0.038  0.020  0.116  0.000  0.000  0.000  0.000  0.000  0.208
 
band     7 # energy   11.71446037 # occ.  0.00000000
 
ion      s     py     pz     px    dxy    dyz    dz2    dxz  x2-y2    tot
    1  0.035  0.044  0.042  0.030  0.000  0.000  0.000  0.000  0.000  0.151
    2  0.035  0.044  0.042  0.030  0.000  0.000  0.000  0.000  0.000  0.151
tot    0.070  0.088  0.084  0.060  0.000  0.000  0.000  0.000  0.000  0.302
 
band     8 # energy   11.89698439 # occ.  0.00000000
 
ion      s     py     pz     px    dxy    dyz    dz2    dxz  x2-y2    tot
    1  0.035  0.025  0.031  0.043  0.000  0.000  0.000  0.000  0.000  0.134
    2  0.035  0.025  0.031  0.043  0.000  0.000  0.000  0.000  0.000  0.134
tot    0.071  0.050  0.062  0.086  0.000  0.000  0.000  0.000  0.000  0.269
 
band     9 # energy   15.41570023 # occ.  0.00000000
 
ion      s     py     pz     px    dxy    dyz    dz2    dxz  x2-y2    tot
    1  0.005  0.038  0.062  0.037  0.000  0.000  0.000  0.000  0.000  0.142
    2  0.005  0.038  0.062  0.037  0.000  0.000  0.000  0.000  0.000  0.142
tot    0.010  0.077  0.124  0.074  0.000  0.000  0.000  0.000  0.000  0.284
 
band    10 # energy   16.41043607 # occ.  0.00000000
 
ion      s     py     pz     px    dxy    dyz    dz2    dxz  x2-y2    tot
    1  0.012  0.083  0.000  0.024  0.000  0.000  0.000  0.000  0.000  0.119
    2  0.012  0.083  0.000  0.024  0.000  0.000  0.000  0.000  0.000  0.119
tot    0.023  0.167  0.000  0.048  0.000  0.000  0.000  0.000  0.000  0.238
 
band    11 # energy   18.74362775 # occ.  0.00000000
 
ion      s     py     pz     px    dxy    dyz    dz2    dxz  x2-y2    tot
    1  0.017  0.000  0.105  0.012  0.000  0.000  0.000  0.000  0.000  0.134
    2  0.017  0.000  0.105  0.012  0.000  0.000  0.000  0.000  0.000  0.134
tot    0.034  0.000  0.209  0.024  0.000  0.000  0.000  0.000  0.000  0.268
 
band    12 # energy   19.89474362 # occ.  0.00000000
 
ion      s     py     pz     px    dxy    dyz    dz2    dxz  x2-y2    tot
    1  0.015  0.071  0.039  0.003  0.000  0.000  0.000  0.000  0.000  0.128
    2  0.015  0.071  0.038  0.003  0.000  0.000  0.000  0.000  0.000  0.127
tot    0.031  0.142  0.077  0.006  0.000  0.000  0.000  0.000  0.000  0.255
 

 k-point   124 :    0.44642857 0.30357143 0.75000000     weight = 0.00555556

band     1 # energy   -2.20748120 # occ.  2.00000000
 
ion      s     py     pz     px    dxy    dyz    dz2    dxz  x2-y2    tot
    1  0.211  0.013  0.022  0.001  0.000  0.000  0.000  0.000  0.000  0.246
    2  0.211  0.013  0.022  0.001  0.000  0.000  0.000  0.000  0.000  0.246
tot    0.421  0.025  0.045  0.002  0.000  0.000  0.000  0.000  0.000  0.493
 
band     2 # energy   -1.49145102 # occ.  2.00000000
 
ion      s     py     pz     px    dxy    dyz    dz2    dxz  x2-y2    tot
    1  0.193  0.013  0.036  0.001  0.000  0.000  0.000  0.000  0.000  0.244
    2  0.193  0.013  0.036  0.001  0.000  0.000  0.000  0.000  0.000  0.244
tot    0.387  0.025  0.072  0.003  0.000  0.000  0.000  0.000  0.000  0.487
 
band     3 # energy    1.68113558 # occ.  2.00000000
 
ion      s     py     pz     px    dxy    dyz    dz2    dxz  x2-y2    tot
    1  0.000  0.051  0.044  0.063  0.000  0.000  0.000  0.000  0.000  0.157
    2  0.000  0.051  0.044  0.063  0.000  0.000  0.000  0.000  0.000  0.157
tot    0.000  0.101  0.088  0.126  0.000  0.000  0.000  0.000  0.000  0.315
 
band     4 # energy    2.60614978 # occ.  2.00000000
 
ion      s     py     pz     px    dxy    dyz    dz2    dxz  x2-y2    tot
    1  0.003  0.071  0.021  0.080  0.000  0.000  0.000  0.000  0.000  0.175
    2  0.003  0.071  0.021  0.080  0.000  0.000  0.000  0.000  0.000  0.175
tot    0.005  0.142  0.043  0.159  0.000  0.000  0.000  0.000  0.000  0.349
 
band     5 # energy    8.43348110 # occ.  0.00000000
 
ion      s     py     pz     px    dxy    dyz    dz2    dxz  x2-y2    tot
    1  0.036  0.013  0.025  0.036  0.000  0.000  0.000  0.000  0.000  0.110
    2  0.036  0.013  0.025  0.036  0.000  0.000  0.000  0.000  0.000  0.110
tot    0.071  0.026  0.049  0.073  0.000  0.000  0.000  0.000  0.000  0.220
 
band     6 # energy   10.07601821 # occ.  0.00000000
 
ion      s     py     pz     px    dxy    dyz    dz2    dxz  x2-y2    tot
    1  0.018  0.020  0.010  0.056  0.000  0.000  0.000  0.000  0.000  0.105
    2  0.018  0.020  0.010  0.056  0.000  0.000  0.000  0.000  0.000  0.105
tot    0.036  0.040  0.020  0.113  0.000  0.000  0.000  0.000  0.000  0.209
 
band     7 # energy   11.79533843 # occ.  0.00000000
 
ion      s     py     pz     px    dxy    dyz    dz2    dxz  x2-y2    tot
    1  0.034  0.044  0.042  0.032  0.000  0.000  0.000  0.000  0.000  0.151
    2  0.034  0.044  0.042  0.032  0.000  0.000  0.000  0.000  0.000  0.151
tot    0.067  0.088  0.083  0.063  0.000  0.000  0.000  0.000  0.000  0.301
 
band     8 # energy   11.99946852 # occ.  0.00000000
 
ion      s     py     pz     px    dxy    dyz    dz2    dxz  x2-y2    tot
    1  0.035  0.025  0.031  0.044  0.000  0.000  0.000  0.000  0.000  0.134
    2  0.035  0.025  0.031  0.044  0.000  0.000  0.000  0.000  0.000  0.134
tot    0.070  0.049  0.061  0.088  0.000  0.000  0.000  0.000  0.000  0.268
 
band     9 # energy   15.33589862 # occ.  0.00000000
 
ion      s     py     pz     px    dxy    dyz    dz2    dxz  x2-y2    tot
    1  0.006  0.038  0.062  0.036  0.000  0.000  0.000  0.000  0.000  0.142
    2  0.006  0.038  0.062  0.036  0.000  0.000  0.000  0.000  0.000  0.142
tot    0.011  0.076  0.125  0.073  0.000  0.000  0.000  0.000  0.000  0.284
 
band    10 # energy   16.33488325 # occ.  0.00000000
 
ion      s     py     pz     px    dxy    dyz    dz2    dxz  x2-y2    tot
    1  0.013  0.083  0.000  0.023  0.000  0.000  0.000  0.000  0.000  0.118
    2  0.013  0.083  0.000  0.023  0.000  0.000  0.000  0.000  0.000  0.118
tot    0.025  0.165  0.000  0.046  0.000  0.000  0.000  0.000  0.000  0.237
 
band    11 # energy   18.80515230 # occ.  0.00000000
 
ion      s     py     pz     px    dxy    dyz    dz2    dxz  x2-y2    tot
    1  0.016  0.000  0.105  0.013  0.000  0.000  0.000  0.000  0.000  0.134
    2  0.016  0.000  0.105  0.013  0.000  0.000  0.000  0.000  0.000  0.134
tot    0.032  0.000  0.209  0.026  0.000  0.000  0.000  0.000  0.000  0.268
 
band    12 # energy   19.97335252 # occ.  0.00000000
 
ion      s     py     pz     px    dxy    dyz    dz2    dxz  x2-y2    tot
    1  0.015  0.072  0.037  0.003  0.000  0.000  0.000  0.000  0.000  0.127
    2  0.014  0.072  0.038  0.003  0.000  0.000  0.000  0.000  0.000  0.127
tot    0.029  0.144  0.075  0.007  0.000  0.000  0.000  0.000  0.000  0.254
 

 k-point   125 :    0.44285714 0.30714286 0.75000000     weight = 0.00555556

band     1 # energy   -2.22591418 # occ.  2.00000000
 
ion      s     py     pz     px    dxy    dyz    dz2    dxz  x2-y2    tot
    1  0.211  0.012  0.023  0.001  0.000  0.000  0.000  0.000  0.000  0.246
    2  0.211  0.012  0.023  0.001  0.000  0.000  0.000  0.000  0.000  0.246
tot    0.422  0.024  0.045  0.002  0.000  0.000  0.000  0.000  0.000  0.493
 
band     2 # energy   -1.47982289 # occ.  2.00000000
 
ion      s     py     pz     px    dxy    dyz    dz2    dxz  x2-y2    tot
    1  0.192  0.012  0.037  0.002  0.000  0.000  0.000  0.000  0.000  0.243
    2  0.192  0.012  0.037  0.002  0.000  0.000  0.000  0.000  0.000  0.243
tot    0.385  0.025  0.074  0.003  0.000  0.000  0.000  0.000  0.000  0.487
 
band     3 # energy    1.66663553 # occ.  2.00000000
 
ion      s     py     pz     px    dxy    dyz    dz2    dxz  x2-y2    tot
    1  0.000  0.051  0.044  0.063  0.000  0.000  0.000  0.000  0.000  0.157
    2  0.000  0.051  0.044  0.063  0.000  0.000  0.000  0.000  0.000  0.157
tot    0.000  0.102  0.088  0.125  0.000  0.000  0.000  0.000  0.000  0.315
 
band     4 # energy    2.66075381 # occ.  2.00000000
 
ion      s     py     pz     px    dxy    dyz    dz2    dxz  x2-y2    tot
    1  0.003  0.073  0.020  0.081  0.000  0.000  0.000  0.000  0.000  0.176
    2  0.003  0.073  0.020  0.081  0.000  0.000  0.000  0.000  0.000  0.176
tot    0.006  0.146  0.040  0.161  0.000  0.000  0.000  0.000  0.000  0.352
 
band     5 # energy    8.31952877 # occ.  0.00000000
 
ion      s     py     pz     px    dxy    dyz    dz2    dxz  x2-y2    tot
    1  0.037  0.012  0.026  0.034  0.000  0.000  0.000  0.000  0.000  0.109
    2  0.037  0.012  0.026  0.034  0.000  0.000  0.000  0.000  0.000  0.109
tot    0.074  0.025  0.051  0.069  0.000  0.000  0.000  0.000  0.000  0.219
 
band     6 # energy   10.06600798 # occ.  0.00000000
 
ion      s     py     pz     px    dxy    dyz    dz2    dxz  x2-y2    tot
    1  0.019  0.021  0.011  0.055  0.000  0.000  0.000  0.000  0.000  0.105
    2  0.019  0.021  0.011  0.055  0.000  0.000  0.000  0.000  0.000  0.105
tot    0.038  0.042  0.021  0.110  0.000  0.000  0.000  0.000  0.000  0.210
 
band     7 # energy   11.87717063 # occ.  0.00000000
 
ion      s     py     pz     px    dxy    dyz    dz2    dxz  x2-y2    tot
    1  0.032  0.044  0.041  0.033  0.000  0.000  0.000  0.000  0.000  0.150
    2  0.032  0.044  0.041  0.033  0.000  0.000  0.000  0.000  0.000  0.150
tot    0.064  0.088  0.082  0.066  0.000  0.000  0.000  0.000  0.000  0.301
 
band     8 # energy   12.10296024 # occ.  0.00000000
 
ion      s     py     pz     px    dxy    dyz    dz2    dxz  x2-y2    tot
    1  0.034  0.024  0.030  0.045  0.000  0.000  0.000  0.000  0.000  0.134
    2  0.034  0.024  0.030  0.045  0.000  0.000  0.000  0.000  0.000  0.134
tot    0.069  0.048  0.060  0.091  0.000  0.000  0.000  0.000  0.000  0.267
 
band     9 # energy   15.25535249 # occ.  0.00000000
 
ion      s     py     pz     px    dxy    dyz    dz2    dxz  x2-y2    tot
    1  0.006  0.038  0.063  0.036  0.000  0.000  0.000  0.000  0.000  0.142
    2  0.006  0.038  0.063  0.036  0.000  0.000  0.000  0.000  0.000  0.142
tot    0.012  0.075  0.126  0.072  0.000  0.000  0.000  0.000  0.000  0.285
 
band    10 # energy   16.25291725 # occ.  0.00000000
 
ion      s     py     pz     px    dxy    dyz    dz2    dxz  x2-y2    tot
    1  0.014  0.082  0.000  0.022  0.000  0.000  0.000  0.000  0.000  0.118
    2  0.014  0.082  0.000  0.022  0.000  0.000  0.000  0.000  0.000  0.118
tot    0.027  0.163  0.001  0.044  0.000  0.000  0.000  0.000  0.000  0.235
 
band    11 # energy   18.87308957 # occ.  0.00000000
 
ion      s     py     pz     px    dxy    dyz    dz2    dxz  x2-y2    tot
    1  0.015  0.000  0.104  0.014  0.000  0.000  0.000  0.000  0.000  0.134
    2  0.015  0.000  0.104  0.014  0.000  0.000  0.000  0.000  0.000  0.134
tot    0.030  0.000  0.209  0.028  0.000  0.000  0.000  0.000  0.000  0.268
 
band    12 # energy   20.05151119 # occ.  0.00000000
 
ion      s     py     pz     px    dxy    dyz    dz2    dxz  x2-y2    tot
    1  0.014  0.072  0.037  0.004  0.000  0.000  0.000  0.000  0.000  0.126
    2  0.013  0.073  0.036  0.004  0.000  0.000  0.000  0.000  0.000  0.126
tot    0.027  0.145  0.074  0.007  0.000  0.000  0.000  0.000  0.000  0.253
 

 k-point   126 :    0.43928571 0.31071429 0.75000000     weight = 0.00555556

band     1 # energy   -2.24341315 # occ.  2.00000000
 
ion      s     py     pz     px    dxy    dyz    dz2    dxz  x2-y2    tot
    1  0.211  0.012  0.023  0.001  0.000  0.000  0.000  0.000  0.000  0.246
    2  0.211  0.012  0.023  0.001  0.000  0.000  0.000  0.000  0.000  0.246
tot    0.422  0.023  0.045  0.002  0.000  0.000  0.000  0.000  0.000  0.493
 
band     2 # energy   -1.46918005 # occ.  2.00000000
 
ion      s     py     pz     px    dxy    dyz    dz2    dxz  x2-y2    tot
    1  0.192  0.012  0.038  0.002  0.000  0.000  0.000  0.000  0.000  0.243
    2  0.192  0.012  0.038  0.002  0.000  0.000  0.000  0.000  0.000  0.243
tot    0.383  0.024  0.075  0.004  0.000  0.000  0.000  0.000  0.000  0.486
 
band     3 # energy    1.65285016 # occ.  2.00000000
 
ion      s     py     pz     px    dxy    dyz    dz2    dxz  x2-y2    tot
    1  0.000  0.051  0.044  0.062  0.000  0.000  0.000  0.000  0.000  0.157
    2  0.000  0.051  0.044  0.062  0.000  0.000  0.000  0.000  0.000  0.157
tot    0.000  0.102  0.088  0.124  0.000  0.000  0.000  0.000  0.000  0.314
 
band     4 # energy    2.71591879 # occ.  2.00000000
 
ion      s     py     pz     px    dxy    dyz    dz2    dxz  x2-y2    tot
    1  0.003  0.075  0.018  0.082  0.000  0.000  0.000  0.000  0.000  0.178
    2  0.003  0.075  0.018  0.082  0.000  0.000  0.000  0.000  0.000  0.178
tot    0.006  0.149  0.037  0.163  0.000  0.000  0.000  0.000  0.000  0.355
 
band     5 # energy    8.20825654 # occ.  0.00000000
 
ion      s     py     pz     px    dxy    dyz    dz2    dxz  x2-y2    tot
    1  0.038  0.012  0.026  0.033  0.000  0.000  0.000  0.000  0.000  0.109
    2  0.038  0.012  0.026  0.033  0.000  0.000  0.000  0.000  0.000  0.109
tot    0.076  0.023  0.053  0.065  0.000  0.000  0.000  0.000  0.000  0.218
 
band     6 # energy   10.05619375 # occ.  0.00000000
 
ion      s     py     pz     px    dxy    dyz    dz2    dxz  x2-y2    tot
    1  0.019  0.022  0.011  0.053  0.000  0.000  0.000  0.000  0.000  0.106
    2  0.019  0.022  0.011  0.053  0.000  0.000  0.000  0.000  0.000  0.106
tot    0.039  0.044  0.022  0.107  0.000  0.000  0.000  0.000  0.000  0.212
 
band     7 # energy   11.95982884 # occ.  0.00000000
 
ion      s     py     pz     px    dxy    dyz    dz2    dxz  x2-y2    tot
    1  0.031  0.044  0.041  0.035  0.000  0.000  0.000  0.000  0.000  0.150
    2  0.031  0.044  0.041  0.035  0.000  0.000  0.000  0.000  0.000  0.150
tot    0.061  0.088  0.081  0.070  0.000  0.000  0.000  0.000  0.000  0.300
 
band     8 # energy   12.20738582 # occ.  0.00000000
 
ion      s     py     pz     px    dxy    dyz    dz2    dxz  x2-y2    tot
    1  0.034  0.024  0.029  0.046  0.000  0.000  0.000  0.000  0.000  0.133
    2  0.034  0.024  0.029  0.046  0.000  0.000  0.000  0.000  0.000  0.133
tot    0.068  0.048  0.059  0.093  0.000  0.000  0.000  0.000  0.000  0.267
 
band     9 # energy   15.17412071 # occ.  0.00000000
 
ion      s     py     pz     px    dxy    dyz    dz2    dxz  x2-y2    tot
    1  0.007  0.037  0.063  0.036  0.000  0.000  0.000  0.000  0.000  0.143
    2  0.007  0.037  0.063  0.036  0.000  0.000  0.000  0.000  0.000  0.143
tot    0.014  0.074  0.127  0.071  0.000  0.000  0.000  0.000  0.000  0.285
 
band    10 # energy   16.16549518 # occ.  0.00000000
 
ion      s     py     pz     px    dxy    dyz    dz2    dxz  x2-y2    tot
    1  0.015  0.080  0.001  0.021  0.000  0.000  0.000  0.000  0.000  0.117
    2  0.015  0.080  0.001  0.021  0.000  0.000  0.000  0.000  0.000  0.117
tot    0.029  0.161  0.002  0.041  0.000  0.000  0.000  0.000  0.000  0.234
 
band    11 # energy   18.94651313 # occ.  0.00000000
 
ion      s     py     pz     px    dxy    dyz    dz2    dxz  x2-y2    tot
    1  0.014  0.000  0.104  0.015  0.000  0.000  0.000  0.000  0.000  0.134
    2  0.014  0.000  0.104  0.015  0.000  0.000  0.000  0.000  0.000  0.134
tot    0.028  0.001  0.208  0.030  0.000  0.000  0.000  0.000  0.000  0.267
 
band    12 # energy   20.13132648 # occ.  0.00000000
 
ion      s     py     pz     px    dxy    dyz    dz2    dxz  x2-y2    tot
    1  0.012  0.074  0.035  0.004  0.000  0.000  0.000  0.000  0.000  0.125
    2  0.013  0.072  0.037  0.004  0.000  0.000  0.000  0.000  0.000  0.126
tot    0.025  0.146  0.072  0.008  0.000  0.000  0.000  0.000  0.000  0.251
 

 k-point   127 :    0.43571429 0.31428571 0.75000000     weight = 0.00555556

band     1 # energy   -2.25996562 # occ.  2.00000000
 
ion      s     py     pz     px    dxy    dyz    dz2    dxz  x2-y2    tot
    1  0.211  0.011  0.023  0.001  0.000  0.000  0.000  0.000  0.000  0.246
    2  0.211  0.011  0.023  0.001  0.000  0.000  0.000  0.000  0.000  0.246
tot    0.423  0.022  0.045  0.002  0.000  0.000  0.000  0.000  0.000  0.493
 
band     2 # energy   -1.45946633 # occ.  2.00000000
 
ion      s     py     pz     px    dxy    dyz    dz2    dxz  x2-y2    tot
    1  0.191  0.011  0.038  0.002  0.000  0.000  0.000  0.000  0.000  0.243
    2  0.191  0.011  0.038  0.002  0.000  0.000  0.000  0.000  0.000  0.243
tot    0.382  0.023  0.077  0.004  0.000  0.000  0.000  0.000  0.000  0.485
 
band     3 # energy    1.63978513 # occ.  2.00000000
 
ion      s     py     pz     px    dxy    dyz    dz2    dxz  x2-y2    tot
    1  0.000  0.051  0.044  0.062  0.000  0.000  0.000  0.000  0.000  0.157
    2  0.000  0.051  0.044  0.062  0.000  0.000  0.000  0.000  0.000  0.157
tot    0.000  0.103  0.087  0.124  0.000  0.000  0.000  0.000  0.000  0.314
 
band     4 # energy    2.77138452 # occ.  2.00000000
 
ion      s     py     pz     px    dxy    dyz    dz2    dxz  x2-y2    tot
    1  0.003  0.077  0.017  0.083  0.000  0.000  0.000  0.000  0.000  0.179
    2  0.003  0.077  0.017  0.083  0.000  0.000  0.000  0.000  0.000  0.179
tot    0.006  0.153  0.034  0.165  0.000  0.000  0.000  0.000  0.000  0.358
 
band     5 # energy    8.09991576 # occ.  0.00000000
 
ion      s     py     pz     px    dxy    dyz    dz2    dxz  x2-y2    tot
    1  0.039  0.011  0.027  0.031  0.000  0.000  0.000  0.000  0.000  0.108
    2  0.039  0.011  0.027  0.031  0.000  0.000  0.000  0.000  0.000  0.108
tot    0.079  0.022  0.055  0.061  0.000  0.000  0.000  0.000  0.000  0.216
 
band     6 # energy   10.04666716 # occ.  0.00000000
 
ion      s     py     pz     px    dxy    dyz    dz2    dxz  x2-y2    tot
    1  0.020  0.023  0.011  0.052  0.000  0.000  0.000  0.000  0.000  0.106
    2  0.020  0.023  0.011  0.052  0.000  0.000  0.000  0.000  0.000  0.106
tot    0.040  0.046  0.023  0.104  0.000  0.000  0.000  0.000  0.000  0.212
 
band     7 # energy   12.04320356 # occ.  0.00000000
 
ion      s     py     pz     px    dxy    dyz    dz2    dxz  x2-y2    tot
    1  0.029  0.044  0.040  0.036  0.000  0.000  0.000  0.000  0.000  0.150
    2  0.029  0.044  0.040  0.036  0.000  0.000  0.000  0.000  0.000  0.150
tot    0.059  0.088  0.080  0.073  0.000  0.000  0.000  0.000  0.000  0.300
 
band     8 # energy   12.31268173 # occ.  0.00000000
 
ion      s     py     pz     px    dxy    dyz    dz2    dxz  x2-y2    tot
    1  0.033  0.023  0.029  0.048  0.000  0.000  0.000  0.000  0.000  0.133
    2  0.033  0.023  0.029  0.048  0.000  0.000  0.000  0.000  0.000  0.133
tot    0.067  0.047  0.058  0.095  0.000  0.000  0.000  0.000  0.000  0.267
 
band     9 # energy   15.09226466 # occ.  0.00000000
 
ion      s     py     pz     px    dxy    dyz    dz2    dxz  x2-y2    tot
    1  0.008  0.037  0.064  0.035  0.000  0.000  0.000  0.000  0.000  0.143
    2  0.008  0.037  0.064  0.035  0.000  0.000  0.000  0.000  0.000  0.143
tot    0.015  0.073  0.128  0.070  0.000  0.000  0.000  0.000  0.000  0.286
 
band    10 # energy   16.07345573 # occ.  0.00000000
 
ion      s     py     pz     px    dxy    dyz    dz2    dxz  x2-y2    tot
    1  0.015  0.079  0.002  0.020  0.000  0.000  0.000  0.000  0.000  0.116
    2  0.015  0.079  0.002  0.020  0.000  0.000  0.000  0.000  0.000  0.116
tot    0.031  0.158  0.004  0.040  0.000  0.000  0.000  0.000  0.000  0.232
 
band    11 # energy   19.02464575 # occ.  0.00000000
 
ion      s     py     pz     px    dxy    dyz    dz2    dxz  x2-y2    tot
    1  0.013  0.001  0.103  0.016  0.000  0.000  0.000  0.000  0.000  0.134
    2  0.013  0.001  0.103  0.016  0.000  0.000  0.000  0.000  0.000  0.134
tot    0.026  0.002  0.207  0.032  0.000  0.000  0.000  0.000  0.000  0.267
 
band    12 # energy   20.20912597 # occ.  0.00000000
 
ion      s     py     pz     px    dxy    dyz    dz2    dxz  x2-y2    tot
    1  0.012  0.072  0.036  0.005  0.000  0.000  0.000  0.000  0.000  0.125
    2  0.012  0.074  0.035  0.004  0.000  0.000  0.000  0.000  0.000  0.125
tot    0.023  0.146  0.071  0.009  0.000  0.000  0.000  0.000  0.000  0.250
 

 k-point   128 :    0.43214286 0.31785714 0.75000000     weight = 0.00555556

band     1 # energy   -2.27557654 # occ.  2.00000000
 
ion      s     py     pz     px    dxy    dyz    dz2    dxz  x2-y2    tot
    1  0.212  0.011  0.023  0.001  0.000  0.000  0.000  0.000  0.000  0.246
    2  0.212  0.011  0.023  0.001  0.000  0.000  0.000  0.000  0.000  0.246
tot    0.423  0.022  0.045  0.003  0.000  0.000  0.000  0.000  0.000  0.493
 
band     2 # energy   -1.45062682 # occ.  2.00000000
 
ion      s     py     pz     px    dxy    dyz    dz2    dxz  x2-y2    tot
    1  0.190  0.011  0.039  0.002  0.000  0.000  0.000  0.000  0.000  0.242
    2  0.190  0.011  0.039  0.002  0.000  0.000  0.000  0.000  0.000  0.242
tot    0.380  0.022  0.078  0.004  0.000  0.000  0.000  0.000  0.000  0.484
 
band     3 # energy    1.62744432 # occ.  2.00000000
 
ion      s     py     pz     px    dxy    dyz    dz2    dxz  x2-y2    tot
    1  0.000  0.052  0.044  0.061  0.000  0.000  0.000  0.000  0.000  0.157
    2  0.000  0.052  0.044  0.061  0.000  0.000  0.000  0.000  0.000  0.157
tot    0.000  0.103  0.087  0.123  0.000  0.000  0.000  0.000  0.000  0.314
 
band     4 # energy    2.82686996 # occ.  2.00000000
 
ion      s     py     pz     px    dxy    dyz    dz2    dxz  x2-y2    tot
    1  0.003  0.078  0.015  0.084  0.000  0.000  0.000  0.000  0.000  0.181
    2  0.003  0.078  0.015  0.084  0.000  0.000  0.000  0.000  0.000  0.181
tot    0.006  0.157  0.031  0.168  0.000  0.000  0.000  0.000  0.000  0.361
 
band     5 # energy    7.99477065 # occ.  0.00000000
 
ion      s     py     pz     px    dxy    dyz    dz2    dxz  x2-y2    tot
    1  0.040  0.010  0.028  0.029  0.000  0.000  0.000  0.000  0.000  0.107
    2  0.040  0.010  0.028  0.029  0.000  0.000  0.000  0.000  0.000  0.107
tot    0.081  0.020  0.057  0.057  0.000  0.000  0.000  0.000  0.000  0.215
 
band     6 # energy   10.03747744 # occ.  0.00000000
 
ion      s     py     pz     px    dxy    dyz    dz2    dxz  x2-y2    tot
    1  0.021  0.024  0.012  0.051  0.000  0.000  0.000  0.000  0.000  0.107
    2  0.021  0.024  0.012  0.051  0.000  0.000  0.000  0.000  0.000  0.107
tot    0.041  0.047  0.023  0.102  0.000  0.000  0.000  0.000  0.000  0.213
 
band     7 # energy   12.12718422 # occ.  0.00000000
 
ion      s     py     pz     px    dxy    dyz    dz2    dxz  x2-y2    tot
    1  0.028  0.045  0.040  0.038  0.000  0.000  0.000  0.000  0.000  0.150
    2  0.028  0.045  0.040  0.038  0.000  0.000  0.000  0.000  0.000  0.150
tot    0.056  0.089  0.079  0.076  0.000  0.000  0.000  0.000  0.000  0.300
 
band     8 # energy   12.41879111 # occ.  0.00000000
 
ion      s     py     pz     px    dxy    dyz    dz2    dxz  x2-y2    tot
    1  0.033  0.023  0.028  0.049  0.000  0.000  0.000  0.000  0.000  0.133
    2  0.033  0.023  0.028  0.049  0.000  0.000  0.000  0.000  0.000  0.133
tot    0.066  0.046  0.057  0.097  0.000  0.000  0.000  0.000  0.000  0.267
 
band     9 # energy   15.00984886 # occ.  0.00000000
 
ion      s     py     pz     px    dxy    dyz    dz2    dxz  x2-y2    tot
    1  0.008  0.036  0.064  0.034  0.000  0.000  0.000  0.000  0.000  0.143
    2  0.008  0.036  0.064  0.034  0.000  0.000  0.000  0.000  0.000  0.143
tot    0.017  0.072  0.129  0.069  0.000  0.000  0.000  0.000  0.000  0.286
 
band    10 # energy   15.97752158 # occ.  0.00000000
 
ion      s     py     pz     px    dxy    dyz    dz2    dxz  x2-y2    tot
    1  0.016  0.078  0.003  0.019  0.000  0.000  0.000  0.000  0.000  0.115
    2  0.016  0.078  0.003  0.019  0.000  0.000  0.000  0.000  0.000  0.115
tot    0.032  0.155  0.005  0.038  0.000  0.000  0.000  0.000  0.000  0.231
 
band    11 # energy   19.10682119 # occ.  0.00000000
 
ion      s     py     pz     px    dxy    dyz    dz2    dxz  x2-y2    tot
    1  0.012  0.002  0.103  0.017  0.000  0.000  0.000  0.000  0.000  0.134
    2  0.012  0.002  0.103  0.017  0.000  0.000  0.000  0.000  0.000  0.134
tot    0.025  0.003  0.206  0.034  0.000  0.000  0.000  0.000  0.000  0.268
 
band    12 # energy   20.28865640 # occ.  0.00000000
 
ion      s     py     pz     px    dxy    dyz    dz2    dxz  x2-y2    tot
    1  0.011  0.073  0.035  0.005  0.000  0.000  0.000  0.000  0.000  0.124
    2  0.010  0.075  0.034  0.005  0.000  0.000  0.000  0.000  0.000  0.123
tot    0.021  0.148  0.069  0.010  0.000  0.000  0.000  0.000  0.000  0.248
 

 k-point   129 :    0.42857143 0.32142857 0.75000000     weight = 0.00555556

band     1 # energy   -2.29024460 # occ.  2.00000000
 
ion      s     py     pz     px    dxy    dyz    dz2    dxz  x2-y2    tot
    1  0.212  0.010  0.023  0.002  0.000  0.000  0.000  0.000  0.000  0.246
    2  0.212  0.010  0.023  0.002  0.000  0.000  0.000  0.000  0.000  0.246
tot    0.424  0.021  0.045  0.003  0.000  0.000  0.000  0.000  0.000  0.493
 
band     2 # energy   -1.44260828 # occ.  2.00000000
 
ion      s     py     pz     px    dxy    dyz    dz2    dxz  x2-y2    tot
    1  0.189  0.010  0.040  0.002  0.000  0.000  0.000  0.000  0.000  0.242
    2  0.189  0.010  0.040  0.002  0.000  0.000  0.000  0.000  0.000  0.242
tot    0.379  0.021  0.079  0.005  0.000  0.000  0.000  0.000  0.000  0.484
 
band     3 # energy    1.61583162 # occ.  2.00000000
 
ion      s     py     pz     px    dxy    dyz    dz2    dxz  x2-y2    tot
    1  0.000  0.052  0.044  0.061  0.000  0.000  0.000  0.000  0.000  0.157
    2  0.000  0.052  0.044  0.061  0.000  0.000  0.000  0.000  0.000  0.157
tot    0.000  0.104  0.087  0.122  0.000  0.000  0.000  0.000  0.000  0.313
 
band     4 # energy    2.88207635 # occ.  2.00000000
 
ion      s     py     pz     px    dxy    dyz    dz2    dxz  x2-y2    tot
    1  0.003  0.080  0.014  0.085  0.000  0.000  0.000  0.000  0.000  0.182
    2  0.003  0.080  0.014  0.085  0.000  0.000  0.000  0.000  0.000  0.182
tot    0.006  0.161  0.028  0.170  0.000  0.000  0.000  0.000  0.000  0.364
 
band     5 # energy    7.89306178 # occ.  0.00000000
 
ion      s     py     pz     px    dxy    dyz    dz2    dxz  x2-y2    tot
    1  0.042  0.009  0.029  0.027  0.000  0.000  0.000  0.000  0.000  0.107
    2  0.042  0.009  0.029  0.027  0.000  0.000  0.000  0.000  0.000  0.107
tot    0.083  0.018  0.058  0.053  0.000  0.000  0.000  0.000  0.000  0.213
 
band     6 # energy   10.02867077 # occ.  0.00000000
 
ion      s     py     pz     px    dxy    dyz    dz2    dxz  x2-y2    tot
    1  0.021  0.025  0.012  0.050  0.000  0.000  0.000  0.000  0.000  0.107
    2  0.021  0.025  0.012  0.050  0.000  0.000  0.000  0.000  0.000  0.107
tot    0.042  0.049  0.024  0.099  0.000  0.000  0.000  0.000  0.000  0.214
 
band     7 # energy   12.21161906 # occ.  0.00000000
 
ion      s     py     pz     px    dxy    dyz    dz2    dxz  x2-y2    tot
    1  0.027  0.045  0.039  0.039  0.000  0.000  0.000  0.000  0.000  0.150
    2  0.027  0.045  0.039  0.039  0.000  0.000  0.000  0.000  0.000  0.150
tot    0.053  0.090  0.078  0.078  0.000  0.000  0.000  0.000  0.000  0.300
 
band     8 # energy   12.52563735 # occ.  0.00000000
 
ion      s     py     pz     px    dxy    dyz    dz2    dxz  x2-y2    tot
    1  0.033  0.023  0.028  0.050  0.000  0.000  0.000  0.000  0.000  0.134
    2  0.033  0.023  0.028  0.050  0.000  0.000  0.000  0.000  0.000  0.133
tot    0.065  0.046  0.056  0.100  0.000  0.000  0.000  0.000  0.000  0.267
 
band     9 # energy   14.92685576 # occ.  0.00000000
 
ion      s     py     pz     px    dxy    dyz    dz2    dxz  x2-y2    tot
    1  0.009  0.035  0.065  0.034  0.000  0.000  0.000  0.000  0.000  0.143
    2  0.009  0.035  0.065  0.034  0.000  0.000  0.000  0.000  0.000  0.143
tot    0.018  0.071  0.130  0.068  0.000  0.000  0.000  0.000  0.000  0.286
 
band    10 # energy   15.87812094 # occ.  0.00000000
 
ion      s     py     pz     px    dxy    dyz    dz2    dxz  x2-y2    tot
    1  0.017  0.076  0.004  0.018  0.000  0.000  0.000  0.000  0.000  0.115
    2  0.017  0.076  0.004  0.018  0.000  0.000  0.000  0.000  0.000  0.115
tot    0.033  0.152  0.007  0.036  0.000  0.000  0.000  0.000  0.000  0.229
 
band    11 # energy   19.19246979 # occ.  0.00000000
 
ion      s     py     pz     px    dxy    dyz    dz2    dxz  x2-y2    tot
    1  0.012  0.002  0.102  0.017  0.000  0.000  0.000  0.000  0.000  0.134
    2  0.012  0.002  0.102  0.017  0.000  0.000  0.000  0.000  0.000  0.134
tot    0.023  0.005  0.204  0.035  0.000  0.000  0.000  0.000  0.000  0.267
 
band    12 # energy   20.37158563 # occ.  0.00000000
 
ion      s     py     pz     px    dxy    dyz    dz2    dxz  x2-y2    tot
    1  0.009  0.075  0.032  0.005  0.000  0.000  0.000  0.000  0.000  0.121
    2  0.011  0.072  0.035  0.006  0.000  0.000  0.000  0.000  0.000  0.124
tot    0.019  0.148  0.067  0.011  0.000  0.000  0.000  0.000  0.000  0.245
 

 k-point   130 :    0.42500000 0.32500000 0.75000000     weight = 0.00555556

band     1 # energy   -2.30397006 # occ.  2.00000000
 
ion      s     py     pz     px    dxy    dyz    dz2    dxz  x2-y2    tot
    1  0.212  0.010  0.023  0.002  0.000  0.000  0.000  0.000  0.000  0.246
    2  0.212  0.010  0.023  0.002  0.000  0.000  0.000  0.000  0.000  0.246
tot    0.424  0.020  0.046  0.003  0.000  0.000  0.000  0.000  0.000  0.493
 
band     2 # energy   -1.43535955 # occ.  2.00000000
 
ion      s     py     pz     px    dxy    dyz    dz2    dxz  x2-y2    tot
    1  0.189  0.010  0.040  0.003  0.000  0.000  0.000  0.000  0.000  0.241
    2  0.189  0.010  0.040  0.003  0.000  0.000  0.000  0.000  0.000  0.241
tot    0.377  0.020  0.080  0.005  0.000  0.000  0.000  0.000  0.000  0.483
 
band     3 # energy    1.60495119 # occ.  2.00000000
 
ion      s     py     pz     px    dxy    dyz    dz2    dxz  x2-y2    tot
    1  0.000  0.052  0.043  0.061  0.000  0.000  0.000  0.000  0.000  0.157
    2  0.000  0.052  0.043  0.061  0.000  0.000  0.000  0.000  0.000  0.157
tot    0.000  0.105  0.087  0.122  0.000  0.000  0.000  0.000  0.000  0.313
 
band     4 # energy    2.93666758 # occ.  2.00000000
 
ion      s     py     pz     px    dxy    dyz    dz2    dxz  x2-y2    tot
    1  0.003  0.082  0.012  0.086  0.000  0.000  0.000  0.000  0.000  0.184
    2  0.003  0.082  0.012  0.086  0.000  0.000  0.000  0.000  0.000  0.184
tot    0.006  0.164  0.025  0.172  0.000  0.000  0.000  0.000  0.000  0.368
 
band     5 # energy    7.79517144 # occ.  0.00000000
 
ion      s     py     pz     px    dxy    dyz    dz2    dxz  x2-y2    tot
    1  0.043  0.008  0.030  0.025  0.000  0.000  0.000  0.000  0.000  0.106
    2  0.043  0.008  0.030  0.025  0.000  0.000  0.000  0.000  0.000  0.106
tot    0.085  0.016  0.060  0.049  0.000  0.000  0.000  0.000  0.000  0.211
 
band     6 # energy   10.02029484 # occ.  0.00000000
 
ion      s     py     pz     px    dxy    dyz    dz2    dxz  x2-y2    tot
    1  0.021  0.025  0.012  0.049  0.000  0.000  0.000  0.000  0.000  0.107
    2  0.021  0.025  0.012  0.049  0.000  0.000  0.000  0.000  0.000  0.107
tot    0.043  0.051  0.024  0.097  0.000  0.000  0.000  0.000  0.000  0.215
 
band     7 # energy   12.29649260 # occ.  0.00000000
 
ion      s     py     pz     px    dxy    dyz    dz2    dxz  x2-y2    tot
    1  0.025  0.045  0.038  0.041  0.000  0.000  0.000  0.000  0.000  0.150
    2  0.025  0.045  0.038  0.041  0.000  0.000  0.000  0.000  0.000  0.150
tot    0.051  0.091  0.077  0.081  0.000  0.000  0.000  0.000  0.000  0.300
 
band     8 # energy   12.63321756 # occ.  0.00000000
 
ion      s     py     pz     px    dxy    dyz    dz2    dxz  x2-y2    tot
    1  0.032  0.023  0.028  0.051  0.000  0.000  0.000  0.000  0.000  0.134
    2  0.032  0.023  0.028  0.051  0.000  0.000  0.000  0.000  0.000  0.134
tot    0.065  0.046  0.055  0.102  0.000  0.000  0.000  0.000  0.000  0.267
 
band     9 # energy   14.84353813 # occ.  0.00000000
 
ion      s     py     pz     px    dxy    dyz    dz2    dxz  x2-y2    tot
    1  0.010  0.035  0.065  0.033  0.000  0.000  0.000  0.000  0.000  0.143
    2  0.010  0.035  0.065  0.033  0.000  0.000  0.000  0.000  0.000  0.143
tot    0.020  0.070  0.131  0.066  0.000  0.000  0.000  0.000  0.000  0.287
 
band    10 # energy   15.77615847 # occ.  0.00000000
 
ion      s     py     pz     px    dxy    dyz    dz2    dxz  x2-y2    tot
    1  0.017  0.075  0.004  0.017  0.000  0.000  0.000  0.000  0.000  0.114
    2  0.017  0.075  0.004  0.017  0.000  0.000  0.000  0.000  0.000  0.114
tot    0.034  0.149  0.009  0.035  0.000  0.000  0.000  0.000  0.000  0.227
 
band    11 # energy   19.28107411 # occ.  0.00000000
 
ion      s     py     pz     px    dxy    dyz    dz2    dxz  x2-y2    tot
    1  0.011  0.003  0.101  0.018  0.000  0.000  0.000  0.000  0.000  0.133
    2  0.011  0.003  0.101  0.018  0.000  0.000  0.000  0.000  0.000  0.133
tot    0.022  0.006  0.202  0.036  0.000  0.000  0.000  0.000  0.000  0.267
 
band    12 # energy   20.44668331 # occ.  0.00000000
 
ion      s     py     pz     px    dxy    dyz    dz2    dxz  x2-y2    tot
    1  0.009  0.074  0.033  0.006  0.000  0.000  0.000  0.000  0.000  0.122
    2  0.009  0.073  0.032  0.006  0.000  0.000  0.000  0.000  0.000  0.120
tot    0.018  0.148  0.065  0.012  0.000  0.000  0.000  0.000  0.000  0.243
 

 k-point   131 :    0.42142857 0.32857143 0.75000000     weight = 0.00555556

band     1 # energy   -2.31675179 # occ.  2.00000000
 
ion      s     py     pz     px    dxy    dyz    dz2    dxz  x2-y2    tot
    1  0.212  0.009  0.023  0.002  0.000  0.000  0.000  0.000  0.000  0.246
    2  0.212  0.009  0.023  0.002  0.000  0.000  0.000  0.000  0.000  0.246
tot    0.424  0.019  0.046  0.004  0.000  0.000  0.000  0.000  0.000  0.493
 
band     2 # energy   -1.42883174 # occ.  2.00000000
 
ion      s     py     pz     px    dxy    dyz    dz2    dxz  x2-y2    tot
    1  0.188  0.010  0.041  0.003  0.000  0.000  0.000  0.000  0.000  0.241
    2  0.188  0.010  0.041  0.003  0.000  0.000  0.000  0.000  0.000  0.241
tot    0.376  0.019  0.082  0.006  0.000  0.000  0.000  0.000  0.000  0.482
 
band     3 # energy    1.59480638 # occ.  2.00000000
 
ion      s     py     pz     px    dxy    dyz    dz2    dxz  x2-y2    tot
    1  0.000  0.053  0.043  0.060  0.000  0.000  0.000  0.000  0.000  0.156
    2  0.000  0.053  0.043  0.060  0.000  0.000  0.000  0.000  0.000  0.156
tot    0.000  0.105  0.087  0.121  0.000  0.000  0.000  0.000  0.000  0.313
 
band     4 # energy    2.99029712 # occ.  2.00000000
 
ion      s     py     pz     px    dxy    dyz    dz2    dxz  x2-y2    tot
    1  0.003  0.084  0.011  0.088  0.000  0.000  0.000  0.000  0.000  0.185
    2  0.003  0.084  0.011  0.088  0.000  0.000  0.000  0.000  0.000  0.185
tot    0.006  0.168  0.022  0.175  0.000  0.000  0.000  0.000  0.000  0.371
 
band     5 # energy    7.70138318 # occ.  0.00000000
 
ion      s     py     pz     px    dxy    dyz    dz2    dxz  x2-y2    tot
    1  0.044  0.007  0.031  0.023  0.000  0.000  0.000  0.000  0.000  0.105
    2  0.044  0.007  0.031  0.023  0.000  0.000  0.000  0.000  0.000  0.105
tot    0.087  0.014  0.062  0.045  0.000  0.000  0.000  0.000  0.000  0.209
 
band     6 # energy   10.01238230 # occ.  0.00000000
 
ion      s     py     pz     px    dxy    dyz    dz2    dxz  x2-y2    tot
    1  0.022  0.026  0.012  0.048  0.000  0.000  0.000  0.000  0.000  0.108
    2  0.022  0.026  0.012  0.048  0.000  0.000  0.000  0.000  0.000  0.108
tot    0.043  0.052  0.024  0.095  0.000  0.000  0.000  0.000  0.000  0.215
 
band     7 # energy   12.38164762 # occ.  0.00000000
 
ion      s     py     pz     px    dxy    dyz    dz2    dxz  x2-y2    tot
    1  0.024  0.046  0.038  0.042  0.000  0.000  0.000  0.000  0.000  0.150
    2  0.024  0.046  0.038  0.042  0.000  0.000  0.000  0.000  0.000  0.150
tot    0.048  0.092  0.075  0.084  0.000  0.000  0.000  0.000  0.000  0.300
 
band     8 # energy   12.74145883 # occ.  0.00000000
 
ion      s     py     pz     px    dxy    dyz    dz2    dxz  x2-y2    tot
    1  0.032  0.023  0.027  0.052  0.000  0.000  0.000  0.000  0.000  0.134
    2  0.032  0.023  0.027  0.052  0.000  0.000  0.000  0.000  0.000  0.134
tot    0.064  0.046  0.054  0.104  0.000  0.000  0.000  0.000  0.000  0.268
 
band     9 # energy   14.75989736 # occ.  0.00000000
 
ion      s     py     pz     px    dxy    dyz    dz2    dxz  x2-y2    tot
    1  0.011  0.034  0.066  0.032  0.000  0.000  0.000  0.000  0.000  0.143
    2  0.011  0.034  0.066  0.032  0.000  0.000  0.000  0.000  0.000  0.143
tot    0.022  0.068  0.132  0.065  0.000  0.000  0.000  0.000  0.000  0.287
 
band    10 # energy   15.67189824 # occ.  0.00000000
 
ion      s     py     pz     px    dxy    dyz    dz2    dxz  x2-y2    tot
    1  0.018  0.073  0.005  0.017  0.000  0.000  0.000  0.000  0.000  0.113
    2  0.018  0.073  0.005  0.017  0.000  0.000  0.000  0.000  0.000  0.113
tot    0.035  0.146  0.011  0.034  0.000  0.000  0.000  0.000  0.000  0.226
 
band    11 # energy   19.37223704 # occ.  0.00000000
 
ion      s     py     pz     px    dxy    dyz    dz2    dxz  x2-y2    tot
    1  0.010  0.004  0.101  0.019  0.000  0.000  0.000  0.000  0.000  0.134
    2  0.010  0.004  0.101  0.019  0.000  0.000  0.000  0.000  0.000  0.134
tot    0.021  0.008  0.201  0.037  0.000  0.000  0.000  0.000  0.000  0.267
 
band    12 # energy   20.52434302 # occ.  0.00000000
 
ion      s     py     pz     px    dxy    dyz    dz2    dxz  x2-y2    tot
    1  0.008  0.073  0.032  0.006  0.000  0.000  0.000  0.000  0.000  0.119
    2  0.008  0.074  0.032  0.006  0.000  0.000  0.000  0.000  0.000  0.120
tot    0.016  0.147  0.064  0.013  0.000  0.000  0.000  0.000  0.000  0.240
 

 k-point   132 :    0.41785714 0.33214286 0.75000000     weight = 0.00555556

band     1 # energy   -2.32858682 # occ.  2.00000000
 
ion      s     py     pz     px    dxy    dyz    dz2    dxz  x2-y2    tot
    1  0.212  0.009  0.023  0.002  0.000  0.000  0.000  0.000  0.000  0.246
    2  0.212  0.009  0.023  0.002  0.000  0.000  0.000  0.000  0.000  0.246
tot    0.425  0.018  0.046  0.004  0.000  0.000  0.000  0.000  0.000  0.493
 
band     2 # energy   -1.42297845 # occ.  2.00000000
 
ion      s     py     pz     px    dxy    dyz    dz2    dxz  x2-y2    tot
    1  0.187  0.009  0.041  0.003  0.000  0.000  0.000  0.000  0.000  0.241
    2  0.187  0.009  0.041  0.003  0.000  0.000  0.000  0.000  0.000  0.241
tot    0.374  0.019  0.083  0.006  0.000  0.000  0.000  0.000  0.000  0.482
 
band     3 # energy    1.58540157 # occ.  2.00000000
 
ion      s     py     pz     px    dxy    dyz    dz2    dxz  x2-y2    tot
    1  0.000  0.053  0.043  0.060  0.000  0.000  0.000  0.000  0.000  0.156
    2  0.000  0.053  0.043  0.060  0.000  0.000  0.000  0.000  0.000  0.156
tot    0.000  0.106  0.087  0.120  0.000  0.000  0.000  0.000  0.000  0.313
 
band     4 # energy    3.04259156 # occ.  2.00000000
 
ion      s     py     pz     px    dxy    dyz    dz2    dxz  x2-y2    tot
    1  0.003  0.086  0.010  0.089  0.000  0.000  0.000  0.000  0.000  0.187
    2  0.003  0.086  0.010  0.089  0.000  0.000  0.000  0.000  0.000  0.187
tot    0.005  0.172  0.019  0.178  0.000  0.000  0.000  0.000  0.000  0.374
 
band     5 # energy    7.61205561 # occ.  0.00000000
 
ion      s     py     pz     px    dxy    dyz    dz2    dxz  x2-y2    tot
    1  0.045  0.006  0.032  0.021  0.000  0.000  0.000  0.000  0.000  0.103
    2  0.045  0.006  0.032  0.021  0.000  0.000  0.000  0.000  0.000  0.103
tot    0.090  0.012  0.064  0.041  0.000  0.000  0.000  0.000  0.000  0.207
 
band     6 # energy   10.00501857 # occ.  0.00000000
 
ion      s     py     pz     px    dxy    dyz    dz2    dxz  x2-y2    tot
    1  0.022  0.027  0.012  0.046  0.000  0.000  0.000  0.000  0.000  0.108
    2  0.022  0.027  0.012  0.046  0.000  0.000  0.000  0.000  0.000  0.108
tot    0.044  0.054  0.025  0.093  0.000  0.000  0.000  0.000  0.000  0.216
 
band     7 # energy   12.46698464 # occ.  0.00000000
 
ion      s     py     pz     px    dxy    dyz    dz2    dxz  x2-y2    tot
    1  0.023  0.047  0.037  0.044  0.000  0.000  0.000  0.000  0.000  0.150
    2  0.023  0.047  0.037  0.044  0.000  0.000  0.000  0.000  0.000  0.150
tot    0.045  0.093  0.074  0.087  0.000  0.000  0.000  0.000  0.000  0.300
 
band     8 # energy   12.85036459 # occ.  0.00000000
 
ion      s     py     pz     px    dxy    dyz    dz2    dxz  x2-y2    tot
    1  0.032  0.023  0.027  0.053  0.000  0.000  0.000  0.000  0.000  0.135
    2  0.032  0.023  0.027  0.053  0.000  0.000  0.000  0.000  0.000  0.135
tot    0.064  0.046  0.053  0.106  0.000  0.000  0.000  0.000  0.000  0.269
 
band     9 # energy   14.67608070 # occ.  0.00000000
 
ion      s     py     pz     px    dxy    dyz    dz2    dxz  x2-y2    tot
    1  0.012  0.033  0.067  0.031  0.000  0.000  0.000  0.000  0.000  0.143
    2  0.012  0.033  0.067  0.031  0.000  0.000  0.000  0.000  0.000  0.143
tot    0.024  0.066  0.134  0.063  0.000  0.000  0.000  0.000  0.000  0.287
 
band    10 # energy   15.56584192 # occ.  0.00000000
 
ion      s     py     pz     px    dxy    dyz    dz2    dxz  x2-y2    tot
    1  0.018  0.071  0.006  0.016  0.000  0.000  0.000  0.000  0.000  0.112
    2  0.018  0.071  0.006  0.016  0.000  0.000  0.000  0.000  0.000  0.112
tot    0.036  0.143  0.012  0.032  0.000  0.000  0.000  0.000  0.000  0.224
 
band    11 # energy   19.46590769 # occ.  0.00000000
 
ion      s     py     pz     px    dxy    dyz    dz2    dxz  x2-y2    tot
    1  0.010  0.005  0.100  0.019  0.000  0.000  0.000  0.000  0.000  0.134
    2  0.010  0.005  0.100  0.019  0.000  0.000  0.000  0.000  0.000  0.134
tot    0.019  0.010  0.200  0.039  0.000  0.000  0.000  0.000  0.000  0.268
 
band    12 # energy   20.60677407 # occ.  0.00000000
 
ion      s     py     pz     px    dxy    dyz    dz2    dxz  x2-y2    tot
    1  0.007  0.069  0.035  0.008  0.000  0.000  0.000  0.000  0.000  0.119
    2  0.006  0.077  0.028  0.006  0.000  0.000  0.000  0.000  0.000  0.116
tot    0.013  0.146  0.063  0.014  0.000  0.000  0.000  0.000  0.000  0.236
 

 k-point   133 :    0.41428571 0.33571429 0.75000000     weight = 0.00555556

band     1 # energy   -2.33948163 # occ.  2.00000000
 
ion      s     py     pz     px    dxy    dyz    dz2    dxz  x2-y2    tot
    1  0.213  0.009  0.023  0.002  0.000  0.000  0.000  0.000  0.000  0.246
    2  0.213  0.009  0.023  0.002  0.000  0.000  0.000  0.000  0.000  0.246
tot    0.425  0.017  0.046  0.004  0.000  0.000  0.000  0.000  0.000  0.493
 
band     2 # energy   -1.41775891 # occ.  2.00000000
 
ion      s     py     pz     px    dxy    dyz    dz2    dxz  x2-y2    tot
    1  0.187  0.009  0.042  0.003  0.000  0.000  0.000  0.000  0.000  0.240
    2  0.187  0.009  0.042  0.003  0.000  0.000  0.000  0.000  0.000  0.240
tot    0.373  0.018  0.083  0.006  0.000  0.000  0.000  0.000  0.000  0.481
 
band     3 # energy    1.57673509 # occ.  2.00000000
 
ion      s     py     pz     px    dxy    dyz    dz2    dxz  x2-y2    tot
    1  0.000  0.053  0.043  0.060  0.000  0.000  0.000  0.000  0.000  0.156
    2  0.000  0.053  0.043  0.060  0.000  0.000  0.000  0.000  0.000  0.156
tot    0.000  0.106  0.087  0.120  0.000  0.000  0.000  0.000  0.000  0.313
 
band     4 # energy    3.09314056 # occ.  2.00000000
 
ion      s     py     pz     px    dxy    dyz    dz2    dxz  x2-y2    tot
    1  0.002  0.088  0.008  0.090  0.000  0.000  0.000  0.000  0.000  0.189
    2  0.002  0.088  0.008  0.090  0.000  0.000  0.000  0.000  0.000  0.189
tot    0.005  0.176  0.017  0.180  0.000  0.000  0.000  0.000  0.000  0.378
 
band     5 # energy    7.52753234 # occ.  0.00000000
 
ion      s     py     pz     px    dxy    dyz    dz2    dxz  x2-y2    tot
    1  0.046  0.005  0.033  0.019  0.000  0.000  0.000  0.000  0.000  0.102
    2  0.046  0.005  0.033  0.019  0.000  0.000  0.000  0.000  0.000  0.102
tot    0.092  0.011  0.065  0.037  0.000  0.000  0.000  0.000  0.000  0.205
 
band     6 # energy    9.99809454 # occ.  0.00000000
 
ion      s     py     pz     px    dxy    dyz    dz2    dxz  x2-y2    tot
    1  0.022  0.028  0.013  0.045  0.000  0.000  0.000  0.000  0.000  0.108
    2  0.022  0.028  0.013  0.045  0.000  0.000  0.000  0.000  0.000  0.108
tot    0.045  0.056  0.025  0.091  0.000  0.000  0.000  0.000  0.000  0.216
 
band     7 # energy   12.55229698 # occ.  0.00000000
 
ion      s     py     pz     px    dxy    dyz    dz2    dxz  x2-y2    tot
    1  0.021  0.048  0.036  0.045  0.000  0.000  0.000  0.000  0.000  0.150
    2  0.021  0.048  0.036  0.045  0.000  0.000  0.000  0.000  0.000  0.150
tot    0.043  0.095  0.072  0.090  0.000  0.000  0.000  0.000  0.000  0.300
 
band     8 # energy   12.95976834 # occ.  0.00000000
 
ion      s     py     pz     px    dxy    dyz    dz2    dxz  x2-y2    tot
    1  0.032  0.023  0.026  0.054  0.000  0.000  0.000  0.000  0.000  0.135
    2  0.032  0.023  0.026  0.054  0.000  0.000  0.000  0.000  0.000  0.135
tot    0.063  0.046  0.053  0.109  0.000  0.000  0.000  0.000  0.000  0.270
 
band     9 # energy   14.59208062 # occ.  0.00000000
 
ion      s     py     pz     px    dxy    dyz    dz2    dxz  x2-y2    tot
    1  0.013  0.032  0.068  0.030  0.000  0.000  0.000  0.000  0.000  0.143
    2  0.013  0.032  0.068  0.030  0.000  0.000  0.000  0.000  0.000  0.143
tot    0.026  0.064  0.136  0.061  0.000  0.000  0.000  0.000  0.000  0.287
 
band    10 # energy   15.45807231 # occ.  0.00000000
 
ion      s     py     pz     px    dxy    dyz    dz2    dxz  x2-y2    tot
    1  0.018  0.070  0.007  0.016  0.000  0.000  0.000  0.000  0.000  0.111
    2  0.018  0.070  0.007  0.016  0.000  0.000  0.000  0.000  0.000  0.111
tot    0.037  0.140  0.014  0.031  0.000  0.000  0.000  0.000  0.000  0.221
 
band    11 # energy   19.56100125 # occ.  0.00000000
 
ion      s     py     pz     px    dxy    dyz    dz2    dxz  x2-y2    tot
    1  0.009  0.006  0.100  0.020  0.000  0.000  0.000  0.000  0.000  0.134
    2  0.009  0.006  0.099  0.020  0.000  0.000  0.000  0.000  0.000  0.134
tot    0.018  0.011  0.199  0.040  0.000  0.000  0.000  0.000  0.000  0.268
 
band    12 # energy   20.73193256 # occ.  0.00000000
 
ion      s     py     pz     px    dxy    dyz    dz2    dxz  x2-y2    tot
    1  0.004  0.092  0.016  0.003  0.000  0.000  0.000  0.000  0.000  0.114
    2  0.008  0.047  0.042  0.013  0.000  0.000  0.000  0.000  0.000  0.110
tot    0.012  0.139  0.058  0.016  0.000  0.000  0.000  0.000  0.000  0.224
 

 k-point   134 :    0.41071429 0.33928571 0.75000000     weight = 0.00555556

band     1 # energy   -2.34942873 # occ.  2.00000000
 
ion      s     py     pz     px    dxy    dyz    dz2    dxz  x2-y2    tot
    1  0.213  0.008  0.023  0.002  0.000  0.000  0.000  0.000  0.000  0.246
    2  0.213  0.008  0.023  0.002  0.000  0.000  0.000  0.000  0.000  0.246
tot    0.425  0.017  0.046  0.005  0.000  0.000  0.000  0.000  0.000  0.493
 
band     2 # energy   -1.41312843 # occ.  2.00000000
 
ion      s     py     pz     px    dxy    dyz    dz2    dxz  x2-y2    tot
    1  0.186  0.009  0.042  0.003  0.000  0.000  0.000  0.000  0.000  0.240
    2  0.186  0.009  0.042  0.003  0.000  0.000  0.000  0.000  0.000  0.240
tot    0.372  0.017  0.084  0.007  0.000  0.000  0.000  0.000  0.000  0.480
 
band     3 # energy    1.56881537 # occ.  2.00000000
 
ion      s     py     pz     px    dxy    dyz    dz2    dxz  x2-y2    tot
    1  0.000  0.053  0.043  0.059  0.000  0.000  0.000  0.000  0.000  0.156
    2  0.000  0.053  0.043  0.059  0.000  0.000  0.000  0.000  0.000  0.156
tot    0.000  0.107  0.087  0.119  0.000  0.000  0.000  0.000  0.000  0.312
 
band     4 # energy    3.14152682 # occ.  2.00000000
 
ion      s     py     pz     px    dxy    dyz    dz2    dxz  x2-y2    tot
    1  0.002  0.090  0.007  0.091  0.000  0.000  0.000  0.000  0.000  0.190
    2  0.002  0.090  0.007  0.091  0.000  0.000  0.000  0.000  0.000  0.190
tot    0.004  0.179  0.014  0.183  0.000  0.000  0.000  0.000  0.000  0.381
 
band     5 # energy    7.44823906 # occ.  0.00000000
 
ion      s     py     pz     px    dxy    dyz    dz2    dxz  x2-y2    tot
    1  0.047  0.004  0.034  0.017  0.000  0.000  0.000  0.000  0.000  0.101
    2  0.047  0.004  0.034  0.017  0.000  0.000  0.000  0.000  0.000  0.101
tot    0.094  0.009  0.067  0.033  0.000  0.000  0.000  0.000  0.000  0.202
 
band     6 # energy    9.99173305 # occ.  0.00000000
 
ion      s     py     pz     px    dxy    dyz    dz2    dxz  x2-y2    tot
    1  0.023  0.029  0.013  0.045  0.000  0.000  0.000  0.000  0.000  0.108
    2  0.023  0.029  0.013  0.045  0.000  0.000  0.000  0.000  0.000  0.108
tot    0.045  0.057  0.025  0.089  0.000  0.000  0.000  0.000  0.000  0.217
 
band     7 # energy   12.63747294 # occ.  0.00000000
 
ion      s     py     pz     px    dxy    dyz    dz2    dxz  x2-y2    tot
    1  0.020  0.049  0.035  0.047  0.000  0.000  0.000  0.000  0.000  0.150
    2  0.020  0.049  0.035  0.047  0.000  0.000  0.000  0.000  0.000  0.150
tot    0.040  0.097  0.070  0.094  0.000  0.000  0.000  0.000  0.000  0.300
 
band     8 # energy   13.06966189 # occ.  0.00000000
 
ion      s     py     pz     px    dxy    dyz    dz2    dxz  x2-y2    tot
    1  0.032  0.023  0.026  0.056  0.000  0.000  0.000  0.000  0.000  0.136
    2  0.032  0.023  0.026  0.056  0.000  0.000  0.000  0.000  0.000  0.136
tot    0.063  0.046  0.052  0.111  0.000  0.000  0.000  0.000  0.000  0.272
 
band     9 # energy   14.50818992 # occ.  0.00000000
 
ion      s     py     pz     px    dxy    dyz    dz2    dxz  x2-y2    tot
    1  0.014  0.031  0.069  0.029  0.000  0.000  0.000  0.000  0.000  0.143
    2  0.014  0.031  0.069  0.029  0.000  0.000  0.000  0.000  0.000  0.143
tot    0.028  0.062  0.138  0.059  0.000  0.000  0.000  0.000  0.000  0.286
 
band    10 # energy   15.34905629 # occ.  0.00000000
 
ion      s     py     pz     px    dxy    dyz    dz2    dxz  x2-y2    tot
    1  0.019  0.068  0.008  0.015  0.000  0.000  0.000  0.000  0.000  0.109
    2  0.019  0.068  0.008  0.015  0.000  0.000  0.000  0.000  0.000  0.109
tot    0.037  0.136  0.016  0.030  0.000  0.000  0.000  0.000  0.000  0.219
 
band    11 # energy   19.65790892 # occ.  0.00000000
 
ion      s     py     pz     px    dxy    dyz    dz2    dxz  x2-y2    tot
    1  0.009  0.007  0.099  0.020  0.000  0.000  0.000  0.000  0.000  0.134
    2  0.009  0.007  0.099  0.020  0.000  0.000  0.000  0.000  0.000  0.134
tot    0.017  0.013  0.198  0.041  0.000  0.000  0.000  0.000  0.000  0.269
 
band    12 # energy   20.75494089 # occ.  0.00000000
 
ion      s     py     pz     px    dxy    dyz    dz2    dxz  x2-y2    tot
    1  0.005  0.075  0.027  0.009  0.000  0.000  0.000  0.000  0.000  0.116
    2  0.006  0.073  0.028  0.009  0.000  0.000  0.000  0.000  0.000  0.116
tot    0.011  0.148  0.055  0.017  0.000  0.000  0.000  0.000  0.000  0.231
 

 k-point   135 :    0.40714286 0.34285714 0.75000000     weight = 0.00555556

band     1 # energy   -2.35842993 # occ.  2.00000000
 
ion      s     py     pz     px    dxy    dyz    dz2    dxz  x2-y2    tot
    1  0.213  0.008  0.023  0.003  0.000  0.000  0.000  0.000  0.000  0.246
    2  0.213  0.008  0.023  0.003  0.000  0.000  0.000  0.000  0.000  0.246
tot    0.426  0.016  0.046  0.005  0.000  0.000  0.000  0.000  0.000  0.492
 
band     2 # energy   -1.40905206 # occ.  2.00000000
 
ion      s     py     pz     px    dxy    dyz    dz2    dxz  x2-y2    tot
    1  0.186  0.008  0.042  0.004  0.000  0.000  0.000  0.000  0.000  0.240
    2  0.186  0.008  0.042  0.004  0.000  0.000  0.000  0.000  0.000  0.240
tot    0.371  0.017  0.085  0.007  0.000  0.000  0.000  0.000  0.000  0.480
 
band     3 # energy    1.56164268 # occ.  2.00000000
 
ion      s     py     pz     px    dxy    dyz    dz2    dxz  x2-y2    tot
    1  0.000  0.054  0.043  0.059  0.000  0.000  0.000  0.000  0.000  0.156
    2  0.000  0.054  0.043  0.059  0.000  0.000  0.000  0.000  0.000  0.156
tot    0.000  0.107  0.087  0.118  0.000  0.000  0.000  0.000  0.000  0.312
 
band     4 # energy    3.18730237 # occ.  2.00000000
 
ion      s     py     pz     px    dxy    dyz    dz2    dxz  x2-y2    tot
    1  0.002  0.091  0.006  0.093  0.000  0.000  0.000  0.000  0.000  0.192
    2  0.002  0.091  0.006  0.093  0.000  0.000  0.000  0.000  0.000  0.192
tot    0.004  0.183  0.012  0.186  0.000  0.000  0.000  0.000  0.000  0.384
 
band     5 # energy    7.37458674 # occ.  0.00000000
 
ion      s     py     pz     px    dxy    dyz    dz2    dxz  x2-y2    tot
    1  0.048  0.003  0.034  0.015  0.000  0.000  0.000  0.000  0.000  0.100
    2  0.048  0.003  0.034  0.015  0.000  0.000  0.000  0.000  0.000  0.100
tot    0.095  0.007  0.069  0.029  0.000  0.000  0.000  0.000  0.000  0.200
 
band     6 # energy    9.98593021 # occ.  0.00000000
 
ion      s     py     pz     px    dxy    dyz    dz2    dxz  x2-y2    tot
    1  0.023  0.029  0.013  0.044  0.000  0.000  0.000  0.000  0.000  0.109
    2  0.023  0.029  0.013  0.044  0.000  0.000  0.000  0.000  0.000  0.109
tot    0.046  0.059  0.026  0.087  0.000  0.000  0.000  0.000  0.000  0.217
 
band     7 # energy   12.72228090 # occ.  0.00000000
 
ion      s     py     pz     px    dxy    dyz    dz2    dxz  x2-y2    tot
    1  0.018  0.050  0.033  0.049  0.000  0.000  0.000  0.000  0.000  0.150
    2  0.018  0.050  0.033  0.049  0.000  0.000  0.000  0.000  0.000  0.150
tot    0.037  0.100  0.067  0.097  0.000  0.000  0.000  0.000  0.000  0.301
 
band     8 # energy   13.17997369 # occ.  0.00000000
 
ion      s     py     pz     px    dxy    dyz    dz2    dxz  x2-y2    tot
    1  0.032  0.023  0.026  0.057  0.000  0.000  0.000  0.000  0.000  0.137
    2  0.032  0.023  0.026  0.057  0.000  0.000  0.000  0.000  0.000  0.137
tot    0.063  0.046  0.051  0.114  0.000  0.000  0.000  0.000  0.000  0.274
 
band     9 # energy   14.42457046 # occ.  0.00000000
 
ion      s     py     pz     px    dxy    dyz    dz2    dxz  x2-y2    tot
    1  0.015  0.030  0.070  0.028  0.000  0.000  0.000  0.000  0.000  0.143
    2  0.015  0.030  0.070  0.028  0.000  0.000  0.000  0.000  0.000  0.143
tot    0.030  0.060  0.140  0.056  0.000  0.000  0.000  0.000  0.000  0.286
 
band    10 # energy   15.23904334 # occ.  0.00000000
 
ion      s     py     pz     px    dxy    dyz    dz2    dxz  x2-y2    tot
    1  0.019  0.067  0.008  0.014  0.000  0.000  0.000  0.000  0.000  0.108
    2  0.019  0.067  0.008  0.014  0.000  0.000  0.000  0.000  0.000  0.108
tot    0.037  0.133  0.017  0.029  0.000  0.000  0.000  0.000  0.000  0.216
 
band    11 # energy   19.75688601 # occ.  0.00000000
 
ion      s     py     pz     px    dxy    dyz    dz2    dxz  x2-y2    tot
    1  0.008  0.007  0.100  0.021  0.000  0.000  0.000  0.000  0.000  0.136
    2  0.008  0.008  0.097  0.021  0.000  0.000  0.000  0.000  0.000  0.134
tot    0.016  0.015  0.197  0.042  0.000  0.000  0.000  0.000  0.000  0.270
 
band    12 # energy   21.12454619 # occ.  0.00000000
 
ion      s     py     pz     px    dxy    dyz    dz2    dxz  x2-y2    tot
    1  0.000  0.066  0.004  0.003  0.000  0.000  0.000  0.000  0.000  0.072
    2  0.006  0.001  0.050  0.021  0.000  0.000  0.000  0.000  0.000  0.077
tot    0.006  0.067  0.053  0.024  0.000  0.000  0.000  0.000  0.000  0.149
 

 k-point   136 :    0.40357143 0.34642857 0.75000000     weight = 0.00555556

band     1 # energy   -2.36648482 # occ.  2.00000000
 
ion      s     py     pz     px    dxy    dyz    dz2    dxz  x2-y2    tot
    1  0.213  0.008  0.023  0.003  0.000  0.000  0.000  0.000  0.000  0.246
    2  0.213  0.008  0.023  0.003  0.000  0.000  0.000  0.000  0.000  0.246
tot    0.426  0.015  0.046  0.006  0.000  0.000  0.000  0.000  0.000  0.492
 
band     2 # energy   -1.40549815 # occ.  2.00000000
 
ion      s     py     pz     px    dxy    dyz    dz2    dxz  x2-y2    tot
    1  0.185  0.008  0.043  0.004  0.000  0.000  0.000  0.000  0.000  0.240
    2  0.185  0.008  0.043  0.004  0.000  0.000  0.000  0.000  0.000  0.240
tot    0.370  0.016  0.086  0.008  0.000  0.000  0.000  0.000  0.000  0.479
 
band     3 # energy    1.55521923 # occ.  2.00000000
 
ion      s     py     pz     px    dxy    dyz    dz2    dxz  x2-y2    tot
    1  0.000  0.054  0.043  0.059  0.000  0.000  0.000  0.000  0.000  0.156
    2  0.000  0.054  0.043  0.059  0.000  0.000  0.000  0.000  0.000  0.156
tot    0.000  0.108  0.086  0.118  0.000  0.000  0.000  0.000  0.000  0.312
 
band     4 # energy    3.23000036 # occ.  2.00000000
 
ion      s     py     pz     px    dxy    dyz    dz2    dxz  x2-y2    tot
    1  0.002  0.093  0.005  0.094  0.000  0.000  0.000  0.000  0.000  0.194
    2  0.002  0.093  0.005  0.094  0.000  0.000  0.000  0.000  0.000  0.194
tot    0.003  0.186  0.010  0.188  0.000  0.000  0.000  0.000  0.000  0.387
 
band     5 # energy    7.30701063 # occ.  0.00000000
 
ion      s     py     pz     px    dxy    dyz    dz2    dxz  x2-y2    tot
    1  0.049  0.003  0.035  0.013  0.000  0.000  0.000  0.000  0.000  0.099
    2  0.049  0.003  0.035  0.013  0.000  0.000  0.000  0.000  0.000  0.099
tot    0.097  0.005  0.070  0.025  0.000  0.000  0.000  0.000  0.000  0.198
 
band     6 # energy    9.98070132 # occ.  0.00000000
 
ion      s     py     pz     px    dxy    dyz    dz2    dxz  x2-y2    tot
    1  0.023  0.030  0.013  0.043  0.000  0.000  0.000  0.000  0.000  0.109
    2  0.023  0.030  0.013  0.043  0.000  0.000  0.000  0.000  0.000  0.109
tot    0.046  0.060  0.026  0.085  0.000  0.000  0.000  0.000  0.000  0.217
 
band     7 # energy   12.80642824 # occ.  0.00000000
 
ion      s     py     pz     px    dxy    dyz    dz2    dxz  x2-y2    tot
    1  0.017  0.051  0.032  0.051  0.000  0.000  0.000  0.000  0.000  0.151
    2  0.017  0.051  0.032  0.051  0.000  0.000  0.000  0.000  0.000  0.151
tot    0.034  0.103  0.064  0.101  0.000  0.000  0.000  0.000  0.000  0.302
 
band     8 # energy   13.29060739 # occ.  0.00000000
 
ion      s     py     pz     px    dxy    dyz    dz2    dxz  x2-y2    tot
    1  0.032  0.023  0.025  0.058  0.000  0.000  0.000  0.000  0.000  0.139
    2  0.032  0.023  0.025  0.058  0.000  0.000  0.000  0.000  0.000  0.139
tot    0.063  0.047  0.051  0.116  0.000  0.000  0.000  0.000  0.000  0.277
 
band     9 # energy   14.34150151 # occ.  0.00000000
 
ion      s     py     pz     px    dxy    dyz    dz2    dxz  x2-y2    tot
    1  0.016  0.028  0.072  0.026  0.000  0.000  0.000  0.000  0.000  0.143
    2  0.016  0.028  0.072  0.026  0.000  0.000  0.000  0.000  0.000  0.143
tot    0.033  0.056  0.144  0.053  0.000  0.000  0.000  0.000  0.000  0.285
 
band    10 # energy   15.12829397 # occ.  0.00000000
 
ion      s     py     pz     px    dxy    dyz    dz2    dxz  x2-y2    tot
    1  0.019  0.065  0.009  0.014  0.000  0.000  0.000  0.000  0.000  0.106
    2  0.019  0.065  0.009  0.014  0.000  0.000  0.000  0.000  0.000  0.106
tot    0.038  0.129  0.018  0.027  0.000  0.000  0.000  0.000  0.000  0.212
 
band    11 # energy   19.85729148 # occ.  0.00000000
 
ion      s     py     pz     px    dxy    dyz    dz2    dxz  x2-y2    tot
    1  0.007  0.008  0.094  0.020  0.000  0.000  0.000  0.000  0.000  0.129
    2  0.008  0.008  0.094  0.020  0.000  0.000  0.000  0.000  0.000  0.130
tot    0.015  0.015  0.188  0.041  0.000  0.000  0.000  0.000  0.000  0.259
 
band    12 # energy   20.90449371 # occ.  0.00000000
 
ion      s     py     pz     px    dxy    dyz    dz2    dxz  x2-y2    tot
    1  0.004  0.069  0.027  0.012  0.000  0.000  0.000  0.000  0.000  0.111
    2  0.003  0.078  0.022  0.009  0.000  0.000  0.000  0.000  0.000  0.112
tot    0.007  0.147  0.049  0.020  0.000  0.000  0.000  0.000  0.000  0.223
 

 k-point   137 :    0.40000000 0.35000000 0.75000000     weight = 0.00555556

band     1 # energy   -2.37359312 # occ.  2.00000000
 
ion      s     py     pz     px    dxy    dyz    dz2    dxz  x2-y2    tot
    1  0.213  0.007  0.023  0.003  0.000  0.000  0.000  0.000  0.000  0.246
    2  0.213  0.007  0.023  0.003  0.000  0.000  0.000  0.000  0.000  0.246
tot    0.426  0.014  0.046  0.006  0.000  0.000  0.000  0.000  0.000  0.492
 
band     2 # energy   -1.40243487 # occ.  2.00000000
 
ion      s     py     pz     px    dxy    dyz    dz2    dxz  x2-y2    tot
    1  0.185  0.008  0.043  0.004  0.000  0.000  0.000  0.000  0.000  0.240
    2  0.185  0.008  0.043  0.004  0.000  0.000  0.000  0.000  0.000  0.240
tot    0.369  0.015  0.086  0.008  0.000  0.000  0.000  0.000  0.000  0.479
 
band     3 # energy    1.54954692 # occ.  2.00000000
 
ion      s     py     pz     px    dxy    dyz    dz2    dxz  x2-y2    tot
    1  0.000  0.054  0.043  0.058  0.000  0.000  0.000  0.000  0.000  0.156
    2  0.000  0.054  0.043  0.058  0.000  0.000  0.000  0.000  0.000  0.156
tot    0.000  0.109  0.086  0.117  0.000  0.000  0.000  0.000  0.000  0.312
 
band     4 # energy    3.26915263 # occ.  2.00000000
 
ion      s     py     pz     px    dxy    dyz    dz2    dxz  x2-y2    tot
    1  0.001  0.095  0.004  0.095  0.000  0.000  0.000  0.000  0.000  0.195
    2  0.001  0.095  0.004  0.095  0.000  0.000  0.000  0.000  0.000  0.195
tot    0.003  0.189  0.008  0.191  0.000  0.000  0.000  0.000  0.000  0.390
 
band     5 # energy    7.24587396 # occ.  0.00000000
 
ion      s     py     pz     px    dxy    dyz    dz2    dxz  x2-y2    tot
    1  0.049  0.002  0.036  0.011  0.000  0.000  0.000  0.000  0.000  0.098
    2  0.049  0.002  0.036  0.011  0.000  0.000  0.000  0.000  0.000  0.098
tot    0.099  0.003  0.072  0.021  0.000  0.000  0.000  0.000  0.000  0.195
 
band     6 # energy    9.97605982 # occ.  0.00000000
 
ion      s     py     pz     px    dxy    dyz    dz2    dxz  x2-y2    tot
    1  0.023  0.031  0.013  0.042  0.000  0.000  0.000  0.000  0.000  0.109
    2  0.023  0.031  0.013  0.042  0.000  0.000  0.000  0.000  0.000  0.109
tot    0.046  0.062  0.026  0.084  0.000  0.000  0.000  0.000  0.000  0.218
 
band     7 # energy   12.88950657 # occ.  0.00000000
 
ion      s     py     pz     px    dxy    dyz    dz2    dxz  x2-y2    tot
    1  0.015  0.053  0.030  0.053  0.000  0.000  0.000  0.000  0.000  0.151
    2  0.015  0.053  0.030  0.053  0.000  0.000  0.000  0.000  0.000  0.151
tot    0.031  0.106  0.060  0.106  0.000  0.000  0.000  0.000  0.000  0.303
 
band     8 # energy   13.40144040 # occ.  0.00000000
 
ion      s     py     pz     px    dxy    dyz    dz2    dxz  x2-y2    tot
    1  0.032  0.024  0.025  0.060  0.000  0.000  0.000  0.000  0.000  0.141
    2  0.032  0.024  0.025  0.060  0.000  0.000  0.000  0.000  0.000  0.141
tot    0.063  0.048  0.050  0.119  0.000  0.000  0.000  0.000  0.000  0.281
 
band     9 # energy   14.25936880 # occ.  0.00000000
 
ion      s     py     pz     px    dxy    dyz    dz2    dxz  x2-y2    tot
    1  0.018  0.026  0.074  0.024  0.000  0.000  0.000  0.000  0.000  0.142
    2  0.018  0.026  0.074  0.024  0.000  0.000  0.000  0.000  0.000  0.142
tot    0.036  0.053  0.147  0.049  0.000  0.000  0.000  0.000  0.000  0.285
 
band    10 # energy   15.01707291 # occ.  0.00000000
 
ion      s     py     pz     px    dxy    dyz    dz2    dxz  x2-y2    tot
    1  0.019  0.063  0.010  0.013  0.000  0.000  0.000  0.000  0.000  0.104
    2  0.019  0.063  0.010  0.013  0.000  0.000  0.000  0.000  0.000  0.104
tot    0.037  0.126  0.019  0.026  0.000  0.000  0.000  0.000  0.000  0.208
 
band    11 # energy   19.96429185 # occ.  0.00000000
 
ion      s     py     pz     px    dxy    dyz    dz2    dxz  x2-y2    tot
    1  0.008  0.009  0.092  0.021  0.000  0.000  0.000  0.000  0.000  0.130
    2  0.008  0.008  0.096  0.020  0.000  0.000  0.000  0.000  0.000  0.132
tot    0.015  0.018  0.188  0.041  0.000  0.000  0.000  0.000  0.000  0.262
 
band    12 # energy   21.03001543 # occ.  0.00000000
 
ion      s     py     pz     px    dxy    dyz    dz2    dxz  x2-y2    tot
    1  0.003  0.071  0.012  0.006  0.000  0.000  0.000  0.000  0.000  0.092
    2  0.003  0.041  0.033  0.016  0.000  0.000  0.000  0.000  0.000  0.094
tot    0.006  0.112  0.045  0.022  0.000  0.000  0.000  0.000  0.000  0.186
 

 k-point   138 :    0.39642857 0.35357143 0.75000000     weight = 0.00555556

band     1 # energy   -2.37975427 # occ.  2.00000000
 
ion      s     py     pz     px    dxy    dyz    dz2    dxz  x2-y2    tot
    1  0.213  0.007  0.023  0.003  0.000  0.000  0.000  0.000  0.000  0.246
    2  0.213  0.007  0.023  0.003  0.000  0.000  0.000  0.000  0.000  0.246
tot    0.426  0.014  0.046  0.007  0.000  0.000  0.000  0.000  0.000  0.492
 
band     2 # energy   -1.39983465 # occ.  2.00000000
 
ion      s     py     pz     px    dxy    dyz    dz2    dxz  x2-y2    tot
    1  0.184  0.007  0.043  0.004  0.000  0.000  0.000  0.000  0.000  0.239
    2  0.184  0.007  0.043  0.004  0.000  0.000  0.000  0.000  0.000  0.239
tot    0.369  0.015  0.087  0.009  0.000  0.000  0.000  0.000  0.000  0.479
 
band     3 # energy    1.54462755 # occ.  2.00000000
 
ion      s     py     pz     px    dxy    dyz    dz2    dxz  x2-y2    tot
    1  0.000  0.055  0.043  0.058  0.000  0.000  0.000  0.000  0.000  0.156
    2  0.000  0.055  0.043  0.058  0.000  0.000  0.000  0.000  0.000  0.156
tot    0.000  0.109  0.086  0.116  0.000  0.000  0.000  0.000  0.000  0.312
 
band     4 # energy    3.30429034 # occ.  2.00000000
 
ion      s     py     pz     px    dxy    dyz    dz2    dxz  x2-y2    tot
    1  0.001  0.096  0.003  0.097  0.000  0.000  0.000  0.000  0.000  0.196
    2  0.001  0.096  0.003  0.097  0.000  0.000  0.000  0.000  0.000  0.196
tot    0.002  0.192  0.006  0.193  0.000  0.000  0.000  0.000  0.000  0.393
 
band     5 # energy    7.19180021 # occ.  0.00000000
 
ion      s     py     pz     px    dxy    dyz    dz2    dxz  x2-y2    tot
    1  0.050  0.001  0.037  0.009  0.000  0.000  0.000  0.000  0.000  0.097
    2  0.050  0.001  0.037  0.009  0.000  0.000  0.000  0.000  0.000  0.097
tot    0.100  0.002  0.073  0.017  0.000  0.000  0.000  0.000  0.000  0.193
 
band     6 # energy    9.97201646 # occ.  0.00000000
 
ion      s     py     pz     px    dxy    dyz    dz2    dxz  x2-y2    tot
    1  0.023  0.032  0.013  0.041  0.000  0.000  0.000  0.000  0.000  0.109
    2  0.023  0.032  0.013  0.041  0.000  0.000  0.000  0.000  0.000  0.109
tot    0.047  0.063  0.026  0.082  0.000  0.000  0.000  0.000  0.000  0.218
 
band     7 # energy   12.97094261 # occ.  0.00000000
 
ion      s     py     pz     px    dxy    dyz    dz2    dxz  x2-y2    tot
    1  0.014  0.055  0.027  0.056  0.000  0.000  0.000  0.000  0.000  0.152
    2  0.014  0.055  0.027  0.056  0.000  0.000  0.000  0.000  0.000  0.152
tot    0.027  0.111  0.055  0.111  0.000  0.000  0.000  0.000  0.000  0.304
 
band     8 # energy   13.51228633 # occ.  0.00000000
 
ion      s     py     pz     px    dxy    dyz    dz2    dxz  x2-y2    tot
    1  0.032  0.025  0.025  0.061  0.000  0.000  0.000  0.000  0.000  0.143
    2  0.032  0.025  0.025  0.061  0.000  0.000  0.000  0.000  0.000  0.143
tot    0.064  0.050  0.050  0.123  0.000  0.000  0.000  0.000  0.000  0.286
 
band     9 # energy   14.17877834 # occ.  0.00000000
 
ion      s     py     pz     px    dxy    dyz    dz2    dxz  x2-y2    tot
    1  0.019  0.024  0.076  0.022  0.000  0.000  0.000  0.000  0.000  0.142
    2  0.019  0.024  0.076  0.022  0.000  0.000  0.000  0.000  0.000  0.142
tot    0.039  0.048  0.153  0.044  0.000  0.000  0.000  0.000  0.000  0.284
 
band    10 # energy   14.90567894 # occ.  0.00000000
 
ion      s     py     pz     px    dxy    dyz    dz2    dxz  x2-y2    tot
    1  0.018  0.061  0.010  0.012  0.000  0.000  0.000  0.000  0.000  0.101
    2  0.018  0.061  0.010  0.012  0.000  0.000  0.000  0.000  0.000  0.101
tot    0.037  0.121  0.020  0.024  0.000  0.000  0.000  0.000  0.000  0.202
 
band    11 # energy   20.05699812 # occ.  0.00000000
 
ion      s     py     pz     px    dxy    dyz    dz2    dxz  x2-y2    tot
    1  0.006  0.011  0.095  0.022  0.000  0.000  0.000  0.000  0.000  0.134
    2  0.006  0.010  0.097  0.023  0.000  0.000  0.000  0.000  0.000  0.136
tot    0.012  0.021  0.192  0.045  0.000  0.000  0.000  0.000  0.000  0.270
 
band    12 # energy   21.08421677 # occ.  0.00000000
 
ion      s     py     pz     px    dxy    dyz    dz2    dxz  x2-y2    tot
    1  0.001  0.058  0.011  0.005  0.000  0.000  0.000  0.000  0.000  0.075
    2  0.003  0.013  0.042  0.019  0.000  0.000  0.000  0.000  0.000  0.077
tot    0.004  0.070  0.053  0.025  0.000  0.000  0.000  0.000  0.000  0.152
 

 k-point   139 :    0.39285714 0.35714286 0.75000000     weight = 0.00555556

band     1 # energy   -2.38496803 # occ.  2.00000000
 
ion      s     py     pz     px    dxy    dyz    dz2    dxz  x2-y2    tot
    1  0.213  0.006  0.023  0.004  0.000  0.000  0.000  0.000  0.000  0.246
    2  0.213  0.006  0.023  0.004  0.000  0.000  0.000  0.000  0.000  0.246
tot    0.426  0.013  0.046  0.007  0.000  0.000  0.000  0.000  0.000  0.492
 
band     2 # energy   -1.39767414 # occ.  2.00000000
 
ion      s     py     pz     px    dxy    dyz    dz2    dxz  x2-y2    tot
    1  0.184  0.007  0.044  0.004  0.000  0.000  0.000  0.000  0.000  0.239
    2  0.184  0.007  0.044  0.004  0.000  0.000  0.000  0.000  0.000  0.239
tot    0.368  0.014  0.087  0.009  0.000  0.000  0.000  0.000  0.000  0.478
 
band     3 # energy    1.54046259 # occ.  2.00000000
 
ion      s     py     pz     px    dxy    dyz    dz2    dxz  x2-y2    tot
    1  0.000  0.055  0.043  0.058  0.000  0.000  0.000  0.000  0.000  0.156
    2  0.000  0.055  0.043  0.058  0.000  0.000  0.000  0.000  0.000  0.156
tot    0.000  0.110  0.086  0.116  0.000  0.000  0.000  0.000  0.000  0.312
 
band     4 # energy    3.33495684 # occ.  2.00000000
 
ion      s     py     pz     px    dxy    dyz    dz2    dxz  x2-y2    tot
    1  0.001  0.097  0.002  0.098  0.000  0.000  0.000  0.000  0.000  0.198
    2  0.001  0.097  0.002  0.098  0.000  0.000  0.000  0.000  0.000  0.198
tot    0.002  0.194  0.004  0.195  0.000  0.000  0.000  0.000  0.000  0.395
 
band     5 # energy    7.14514229 # occ.  0.00000000
 
ion      s     py     pz     px    dxy    dyz    dz2    dxz  x2-y2    tot
    1  0.051  0.001  0.037  0.007  0.000  0.000  0.000  0.000  0.000  0.096
    2  0.051  0.001  0.037  0.007  0.000  0.000  0.000  0.000  0.000  0.096
tot    0.102  0.001  0.075  0.014  0.000  0.000  0.000  0.000  0.000  0.191
 
band     6 # energy    9.96858068 # occ.  0.00000000
 
ion      s     py     pz     px    dxy    dyz    dz2    dxz  x2-y2    tot
    1  0.023  0.032  0.013  0.040  0.000  0.000  0.000  0.000  0.000  0.109
    2  0.023  0.032  0.013  0.040  0.000  0.000  0.000  0.000  0.000  0.109
tot    0.047  0.065  0.026  0.080  0.000  0.000  0.000  0.000  0.000  0.218
 
band     7 # energy   13.04981314 # occ.  0.00000000
 
ion      s     py     pz     px    dxy    dyz    dz2    dxz  x2-y2    tot
    1  0.011  0.058  0.024  0.059  0.000  0.000  0.000  0.000  0.000  0.153
    2  0.011  0.058  0.024  0.059  0.000  0.000  0.000  0.000  0.000  0.153
tot    0.023  0.117  0.048  0.117  0.000  0.000  0.000  0.000  0.000  0.305
 
band     8 # energy   13.62285326 # occ.  0.00000000
 
ion      s     py     pz     px    dxy    dyz    dz2    dxz  x2-y2    tot
    1  0.033  0.026  0.025  0.063  0.000  0.000  0.000  0.000  0.000  0.147
    2  0.033  0.026  0.025  0.063  0.000  0.000  0.000  0.000  0.000  0.147
tot    0.065  0.052  0.050  0.126  0.000  0.000  0.000  0.000  0.000  0.294
 
band     9 # energy   14.10063090 # occ.  0.00000000
 
ion      s     py     pz     px    dxy    dyz    dz2    dxz  x2-y2    tot
    1  0.021  0.021  0.079  0.019  0.000  0.000  0.000  0.000  0.000  0.141
    2  0.021  0.021  0.079  0.019  0.000  0.000  0.000  0.000  0.000  0.141
tot    0.043  0.042  0.159  0.039  0.000  0.000  0.000  0.000  0.000  0.282
 
band    10 # energy   14.79450161 # occ.  0.00000000
 
ion      s     py     pz     px    dxy    dyz    dz2    dxz  x2-y2    tot
    1  0.018  0.058  0.010  0.011  0.000  0.000  0.000  0.000  0.000  0.097
    2  0.018  0.058  0.010  0.011  0.000  0.000  0.000  0.000  0.000  0.097
tot    0.036  0.116  0.020  0.022  0.000  0.000  0.000  0.000  0.000  0.194
 
band    11 # energy   20.16028960 # occ.  0.00000000
 
ion      s     py     pz     px    dxy    dyz    dz2    dxz  x2-y2    tot
    1  0.006  0.015  0.099  0.022  0.000  0.000  0.000  0.000  0.000  0.142
    2  0.006  0.010  0.102  0.026  0.000  0.000  0.000  0.000  0.000  0.145
tot    0.012  0.025  0.201  0.049  0.000  0.000  0.000  0.000  0.000  0.287
 
band    12 # energy   21.05788822 # occ.  0.00000000
 
ion      s     py     pz     px    dxy    dyz    dz2    dxz  x2-y2    tot
    1  0.001  0.004  0.060  0.023  0.000  0.000  0.000  0.000  0.000  0.087
    2  0.000  0.053  0.025  0.005  0.000  0.000  0.000  0.000  0.000  0.083
tot    0.001  0.057  0.084  0.028  0.000  0.000  0.000  0.000  0.000  0.170
 

 k-point   140 :    0.38928571 0.36071429 0.75000000     weight = 0.00555556

band     1 # energy   -2.38922923 # occ.  2.00000000
 
ion      s     py     pz     px    dxy    dyz    dz2    dxz  x2-y2    tot
    1  0.213  0.006  0.023  0.004  0.000  0.000  0.000  0.000  0.000  0.246
    2  0.213  0.006  0.023  0.004  0.000  0.000  0.000  0.000  0.000  0.246
tot    0.427  0.012  0.046  0.008  0.000  0.000  0.000  0.000  0.000  0.492
 
band     2 # energy   -1.39593325 # occ.  2.00000000
 
ion      s     py     pz     px    dxy    dyz    dz2    dxz  x2-y2    tot
    1  0.184  0.007  0.044  0.005  0.000  0.000  0.000  0.000  0.000  0.239
    2  0.184  0.007  0.044  0.005  0.000  0.000  0.000  0.000  0.000  0.239
tot    0.368  0.013  0.087  0.009  0.000  0.000  0.000  0.000  0.000  0.478
 
band     3 # energy    1.53705403 # occ.  2.00000000
 
ion      s     py     pz     px    dxy    dyz    dz2    dxz  x2-y2    tot
    1  0.000  0.055  0.043  0.058  0.000  0.000  0.000  0.000  0.000  0.156
    2  0.000  0.055  0.043  0.058  0.000  0.000  0.000  0.000  0.000  0.156
tot    0.000  0.110  0.086  0.115  0.000  0.000  0.000  0.000  0.000  0.312
 
band     4 # energy    3.36073251 # occ.  2.00000000
 
ion      s     py     pz     px    dxy    dyz    dz2    dxz  x2-y2    tot
    1  0.001  0.098  0.001  0.099  0.000  0.000  0.000  0.000  0.000  0.199
    2  0.001  0.098  0.001  0.099  0.000  0.000  0.000  0.000  0.000  0.199
tot    0.001  0.197  0.003  0.197  0.000  0.000  0.000  0.000  0.000  0.397
 
band     5 # energy    7.10641916 # occ.  0.00000000
 
ion      s     py     pz     px    dxy    dyz    dz2    dxz  x2-y2    tot
    1  0.051  0.000  0.038  0.005  0.000  0.000  0.000  0.000  0.000  0.095
    2  0.051  0.000  0.038  0.005  0.000  0.000  0.000  0.000  0.000  0.095
tot    0.103  0.000  0.076  0.011  0.000  0.000  0.000  0.000  0.000  0.190
 
band     6 # energy    9.96576552 # occ.  0.00000000
 
ion      s     py     pz     px    dxy    dyz    dz2    dxz  x2-y2    tot
    1  0.024  0.033  0.013  0.039  0.000  0.000  0.000  0.000  0.000  0.109
    2  0.024  0.033  0.013  0.039  0.000  0.000  0.000  0.000  0.000  0.109
tot    0.047  0.066  0.026  0.079  0.000  0.000  0.000  0.000  0.000  0.218
 
band     7 # energy   13.12464171 # occ.  0.00000000
 
ion      s     py     pz     px    dxy    dyz    dz2    dxz  x2-y2    tot
    1  0.009  0.062  0.020  0.062  0.000  0.000  0.000  0.000  0.000  0.153
    2  0.009  0.062  0.020  0.062  0.000  0.000  0.000  0.000  0.000  0.153
tot    0.018  0.124  0.040  0.125  0.000  0.000  0.000  0.000  0.000  0.307
 
band     8 # energy   13.73264200 # occ.  0.00000000
 
ion      s     py     pz     px    dxy    dyz    dz2    dxz  x2-y2    tot
    1  0.034  0.028  0.025  0.066  0.000  0.000  0.000  0.000  0.000  0.152
    2  0.034  0.028  0.025  0.066  0.000  0.000  0.000  0.000  0.000  0.152
tot    0.067  0.056  0.051  0.131  0.000  0.000  0.000  0.000  0.000  0.305
 
band     9 # energy   14.02642135 # occ.  0.00000000
 
ion      s     py     pz     px    dxy    dyz    dz2    dxz  x2-y2    tot
    1  0.024  0.017  0.084  0.016  0.000  0.000  0.000  0.000  0.000  0.140
    2  0.024  0.017  0.084  0.016  0.000  0.000  0.000  0.000  0.000  0.140
tot    0.047  0.035  0.167  0.031  0.000  0.000  0.000  0.000  0.000  0.281
 
band    10 # energy   14.68416491 # occ.  0.00000000
 
ion      s     py     pz     px    dxy    dyz    dz2    dxz  x2-y2    tot
    1  0.017  0.055  0.010  0.009  0.000  0.000  0.000  0.000  0.000  0.092
    2  0.017  0.055  0.010  0.009  0.000  0.000  0.000  0.000  0.000  0.092
tot    0.034  0.110  0.020  0.019  0.000  0.000  0.000  0.000  0.000  0.183
 
band    11 # energy   20.26103099 # occ.  0.00000000
 
ion      s     py     pz     px    dxy    dyz    dz2    dxz  x2-y2    tot
    1  0.005  0.013  0.105  0.027  0.000  0.000  0.000  0.000  0.000  0.150
    2  0.006  0.017  0.100  0.024  0.000  0.000  0.000  0.000  0.000  0.146
tot    0.011  0.029  0.205  0.051  0.000  0.000  0.000  0.000  0.000  0.296
 
band    12 # energy   20.98665837 # occ.  0.00000000
 
ion      s     py     pz     px    dxy    dyz    dz2    dxz  x2-y2    tot
    1  0.000  0.023  0.041  0.012  0.000  0.000  0.000  0.000  0.000  0.077
    2  0.000  0.020  0.045  0.013  0.000  0.000  0.000  0.000  0.000  0.078
tot    0.000  0.043  0.086  0.025  0.000  0.000  0.000  0.000  0.000  0.155
 

 k-point   141 :    0.38571429 0.36428571 0.75000000     weight = 0.00555556

band     1 # energy   -2.39254761 # occ.  2.00000000
 
ion      s     py     pz     px    dxy    dyz    dz2    dxz  x2-y2    tot
    1  0.213  0.006  0.023  0.004  0.000  0.000  0.000  0.000  0.000  0.246
    2  0.213  0.006  0.023  0.004  0.000  0.000  0.000  0.000  0.000  0.246
tot    0.427  0.012  0.046  0.008  0.000  0.000  0.000  0.000  0.000  0.492
 
band     2 # energy   -1.39459633 # occ.  2.00000000
 
ion      s     py     pz     px    dxy    dyz    dz2    dxz  x2-y2    tot
    1  0.184  0.006  0.044  0.005  0.000  0.000  0.000  0.000  0.000  0.239
    2  0.184  0.006  0.044  0.005  0.000  0.000  0.000  0.000  0.000  0.239
tot    0.367  0.013  0.088  0.010  0.000  0.000  0.000  0.000  0.000  0.478
 
band     3 # energy    1.53440104 # occ.  2.00000000
 
ion      s     py     pz     px    dxy    dyz    dz2    dxz  x2-y2    tot
    1  0.000  0.055  0.043  0.057  0.000  0.000  0.000  0.000  0.000  0.156
    2  0.000  0.055  0.043  0.057  0.000  0.000  0.000  0.000  0.000  0.156
tot    0.000  0.111  0.086  0.114  0.000  0.000  0.000  0.000  0.000  0.312
 
band     4 # energy    3.38121389 # occ.  2.00000000
 
ion      s     py     pz     px    dxy    dyz    dz2    dxz  x2-y2    tot
    1  0.000  0.099  0.001  0.099  0.000  0.000  0.000  0.000  0.000  0.200
    2  0.000  0.099  0.001  0.099  0.000  0.000  0.000  0.000  0.000  0.200
tot    0.001  0.198  0.002  0.199  0.000  0.000  0.000  0.000  0.000  0.399
 
band     5 # energy    7.07578954 # occ.  0.00000000
 
ion      s     py     pz     px    dxy    dyz    dz2    dxz  x2-y2    tot
    1  0.052  0.000  0.038  0.004  0.000  0.000  0.000  0.000  0.000  0.094
    2  0.052  0.000  0.038  0.004  0.000  0.000  0.000  0.000  0.000  0.094
tot    0.104  0.000  0.077  0.008  0.000  0.000  0.000  0.000  0.000  0.188
 
band     6 # energy    9.96356556 # occ.  0.00000000
 
ion      s     py     pz     px    dxy    dyz    dz2    dxz  x2-y2    tot
    1  0.024  0.034  0.013  0.038  0.000  0.000  0.000  0.000  0.000  0.109
    2  0.024  0.034  0.013  0.038  0.000  0.000  0.000  0.000  0.000  0.109
tot    0.047  0.068  0.026  0.077  0.000  0.000  0.000  0.000  0.000  0.218
 
band     7 # energy   13.19290250 # occ.  0.00000000
 
ion      s     py     pz     px    dxy    dyz    dz2    dxz  x2-y2    tot
    1  0.007  0.066  0.015  0.067  0.000  0.000  0.000  0.000  0.000  0.155
    2  0.007  0.066  0.015  0.067  0.000  0.000  0.000  0.000  0.000  0.155
tot    0.013  0.133  0.029  0.134  0.000  0.000  0.000  0.000  0.000  0.309
 
band     8 # energy   13.84046876 # occ.  0.00000000
 
ion      s     py     pz     px    dxy    dyz    dz2    dxz  x2-y2    tot
    1  0.035  0.031  0.026  0.069  0.000  0.000  0.000  0.000  0.000  0.161
    2  0.035  0.031  0.026  0.069  0.000  0.000  0.000  0.000  0.000  0.161
tot    0.071  0.062  0.052  0.137  0.000  0.000  0.000  0.000  0.000  0.322
 
band     9 # energy   13.95862403 # occ.  0.00000000
 
ion      s     py     pz     px    dxy    dyz    dz2    dxz  x2-y2    tot
    1  0.026  0.013  0.089  0.011  0.000  0.000  0.000  0.000  0.000  0.139
    2  0.026  0.013  0.089  0.011  0.000  0.000  0.000  0.000  0.000  0.139
tot    0.052  0.026  0.178  0.023  0.000  0.000  0.000  0.000  0.000  0.278
 
band    10 # energy   14.57581114 # occ.  0.00000000
 
ion      s     py     pz     px    dxy    dyz    dz2    dxz  x2-y2    tot
    1  0.015  0.051  0.009  0.007  0.000  0.000  0.000  0.000  0.000  0.083
    2  0.015  0.051  0.009  0.007  0.000  0.000  0.000  0.000  0.000  0.083
tot    0.030  0.102  0.019  0.014  0.000  0.000  0.000  0.000  0.000  0.165
 
band    11 # energy   20.35754112 # occ.  0.00000000
 
ion      s     py     pz     px    dxy    dyz    dz2    dxz  x2-y2    tot
    1  0.004  0.017  0.104  0.027  0.000  0.000  0.000  0.000  0.000  0.153
    2  0.004  0.017  0.104  0.028  0.000  0.000  0.000  0.000  0.000  0.153
tot    0.008  0.034  0.209  0.055  0.000  0.000  0.000  0.000  0.000  0.306
 
band    12 # energy   21.00254142 # occ.  0.00000000
 
ion      s     py     pz     px    dxy    dyz    dz2    dxz  x2-y2    tot
    1  0.001  0.007  0.060  0.016  0.000  0.000  0.000  0.000  0.000  0.084
    2  0.002  0.044  0.024  0.005  0.000  0.000  0.000  0.000  0.000  0.076
tot    0.003  0.051  0.084  0.021  0.000  0.000  0.000  0.000  0.000  0.160
 

 k-point   142 :    0.38214286 0.36785714 0.75000000     weight = 0.00555556

band     1 # energy   -2.39491803 # occ.  2.00000000
 
ion      s     py     pz     px    dxy    dyz    dz2    dxz  x2-y2    tot
    1  0.213  0.005  0.023  0.004  0.000  0.000  0.000  0.000  0.000  0.246
    2  0.213  0.005  0.023  0.004  0.000  0.000  0.000  0.000  0.000  0.246
tot    0.427  0.011  0.046  0.009  0.000  0.000  0.000  0.000  0.000  0.492
 
band     2 # energy   -1.39365044 # occ.  2.00000000
 
ion      s     py     pz     px    dxy    dyz    dz2    dxz  x2-y2    tot
    1  0.184  0.006  0.044  0.005  0.000  0.000  0.000  0.000  0.000  0.239
    2  0.184  0.006  0.044  0.005  0.000  0.000  0.000  0.000  0.000  0.239
tot    0.367  0.012  0.088  0.010  0.000  0.000  0.000  0.000  0.000  0.478
 
band     3 # energy    1.53250539 # occ.  2.00000000
 
ion      s     py     pz     px    dxy    dyz    dz2    dxz  x2-y2    tot
    1  0.000  0.056  0.043  0.057  0.000  0.000  0.000  0.000  0.000  0.156
    2  0.000  0.056  0.043  0.057  0.000  0.000  0.000  0.000  0.000  0.156
tot    0.000  0.111  0.086  0.114  0.000  0.000  0.000  0.000  0.000  0.312
 
band     4 # energy    3.39608979 # occ.  2.00000000
 
ion      s     py     pz     px    dxy    dyz    dz2    dxz  x2-y2    tot
    1  0.000  0.100  0.000  0.100  0.000  0.000  0.000  0.000  0.000  0.200
    2  0.000  0.100  0.000  0.100  0.000  0.000  0.000  0.000  0.000  0.200
tot    0.000  0.200  0.001  0.200  0.000  0.000  0.000  0.000  0.000  0.400
 
band     5 # energy    7.05367198 # occ.  0.00000000
 
ion      s     py     pz     px    dxy    dyz    dz2    dxz  x2-y2    tot
    1  0.052  0.000  0.039  0.003  0.000  0.000  0.000  0.000  0.000  0.094
    2  0.052  0.000  0.039  0.003  0.000  0.000  0.000  0.000  0.000  0.094
tot    0.105  0.000  0.077  0.005  0.000  0.000  0.000  0.000  0.000  0.187
 
band     6 # energy    9.96199106 # occ.  0.00000000
 
ion      s     py     pz     px    dxy    dyz    dz2    dxz  x2-y2    tot
    1  0.024  0.035  0.013  0.038  0.000  0.000  0.000  0.000  0.000  0.109
    2  0.024  0.035  0.013  0.038  0.000  0.000  0.000  0.000  0.000  0.109
tot    0.047  0.069  0.026  0.075  0.000  0.000  0.000  0.000  0.000  0.218
 
band     7 # energy   13.25035528 # occ.  0.00000000
 
ion      s     py     pz     px    dxy    dyz    dz2    dxz  x2-y2    tot
    1  0.004  0.072  0.008  0.072  0.000  0.000  0.000  0.000  0.000  0.156
    2  0.004  0.072  0.008  0.072  0.000  0.000  0.000  0.000  0.000  0.156
tot    0.007  0.143  0.017  0.145  0.000  0.000  0.000  0.000  0.000  0.312
 
band     8 # energy   13.90150361 # occ.  0.00000000
 
ion      s     py     pz     px    dxy    dyz    dz2    dxz  x2-y2    tot
    1  0.029  0.007  0.095  0.006  0.000  0.000  0.000  0.000  0.000  0.138
    2  0.029  0.007  0.095  0.006  0.000  0.000  0.000  0.000  0.000  0.138
tot    0.058  0.015  0.190  0.013  0.000  0.000  0.000  0.000  0.000  0.276
 
band     9 # energy   13.94354101 # occ.  0.00000000
 
ion      s     py     pz     px    dxy    dyz    dz2    dxz  x2-y2    tot
    1  0.039  0.037  0.028  0.073  0.000  0.000  0.000  0.000  0.000  0.176
    2  0.038  0.037  0.028  0.073  0.000  0.000  0.000  0.000  0.000  0.176
tot    0.077  0.074  0.056  0.145  0.000  0.000  0.000  0.000  0.000  0.353
 
band    10 # energy   14.47233043 # occ.  0.00000000
 
ion      s     py     pz     px    dxy    dyz    dz2    dxz  x2-y2    tot
    1  0.012  0.044  0.008  0.004  0.000  0.000  0.000  0.000  0.000  0.067
    2  0.012  0.044  0.008  0.004  0.000  0.000  0.000  0.000  0.000  0.067
tot    0.024  0.087  0.015  0.008  0.000  0.000  0.000  0.000  0.000  0.135
 
band    11 # energy   20.45124104 # occ.  0.00000000
 
ion      s     py     pz     px    dxy    dyz    dz2    dxz  x2-y2    tot
    1  0.004  0.020  0.108  0.029  0.000  0.000  0.000  0.000  0.000  0.160
    2  0.004  0.018  0.108  0.030  0.000  0.000  0.000  0.000  0.000  0.160
tot    0.008  0.038  0.216  0.058  0.000  0.000  0.000  0.000  0.000  0.320
 
band    12 # energy   20.85736904 # occ.  0.00000000
 
ion      s     py     pz     px    dxy    dyz    dz2    dxz  x2-y2    tot
    1  0.001  0.025  0.041  0.008  0.000  0.000  0.000  0.000  0.000  0.075
    2  0.000  0.013  0.048  0.012  0.000  0.000  0.000  0.000  0.000  0.074
tot    0.001  0.039  0.089  0.020  0.000  0.000  0.000  0.000  0.000  0.148
 

 k-point   143 :    0.37857143 0.37142857 0.75000000     weight = 0.00555556

band     1 # energy   -2.39634271 # occ.  2.00000000
 
ion      s     py     pz     px    dxy    dyz    dz2    dxz  x2-y2    tot
    1  0.213  0.005  0.023  0.005  0.000  0.000  0.000  0.000  0.000  0.246
    2  0.213  0.005  0.023  0.005  0.000  0.000  0.000  0.000  0.000  0.246
tot    0.427  0.010  0.046  0.009  0.000  0.000  0.000  0.000  0.000  0.492
 
band     2 # energy   -1.39308775 # occ.  2.00000000
 
ion      s     py     pz     px    dxy    dyz    dz2    dxz  x2-y2    tot
    1  0.183  0.006  0.044  0.005  0.000  0.000  0.000  0.000  0.000  0.239
    2  0.183  0.006  0.044  0.005  0.000  0.000  0.000  0.000  0.000  0.239
tot    0.367  0.012  0.088  0.011  0.000  0.000  0.000  0.000  0.000  0.478
 
band     3 # energy    1.53136764 # occ.  2.00000000
 
ion      s     py     pz     px    dxy    dyz    dz2    dxz  x2-y2    tot
    1  0.000  0.056  0.043  0.057  0.000  0.000  0.000  0.000  0.000  0.156
    2  0.000  0.056  0.043  0.057  0.000  0.000  0.000  0.000  0.000  0.156
tot    0.000  0.112  0.086  0.113  0.000  0.000  0.000  0.000  0.000  0.312
 
band     4 # energy    3.40511323 # occ.  2.00000000
 
ion      s     py     pz     px    dxy    dyz    dz2    dxz  x2-y2    tot
    1  0.000  0.100  0.000  0.100  0.000  0.000  0.000  0.000  0.000  0.201
    2  0.000  0.100  0.000  0.100  0.000  0.000  0.000  0.000  0.000  0.201
tot    0.000  0.200  0.000  0.200  0.000  0.000  0.000  0.000  0.000  0.401
 
band     5 # energy    7.04027929 # occ.  0.00000000
 
ion      s     py     pz     px    dxy    dyz    dz2    dxz  x2-y2    tot
    1  0.052  0.000  0.039  0.002  0.000  0.000  0.000  0.000  0.000  0.093
    2  0.052  0.000  0.039  0.002  0.000  0.000  0.000  0.000  0.000  0.093
tot    0.105  0.001  0.078  0.003  0.000  0.000  0.000  0.000  0.000  0.187
 
band     6 # energy    9.96103474 # occ.  0.00000000
 
ion      s     py     pz     px    dxy    dyz    dz2    dxz  x2-y2    tot
    1  0.024  0.035  0.013  0.037  0.000  0.000  0.000  0.000  0.000  0.109
    2  0.024  0.035  0.013  0.037  0.000  0.000  0.000  0.000  0.000  0.109
tot    0.047  0.071  0.027  0.074  0.000  0.000  0.000  0.000  0.000  0.218
 
band     7 # energy   13.29032335 # occ.  0.00000000
 
ion      s     py     pz     px    dxy    dyz    dz2    dxz  x2-y2    tot
    1  0.001  0.077  0.003  0.077  0.000  0.000  0.000  0.000  0.000  0.157
    2  0.001  0.077  0.003  0.077  0.000  0.000  0.000  0.000  0.000  0.157
tot    0.002  0.153  0.005  0.154  0.000  0.000  0.000  0.000  0.000  0.314
 
band     8 # energy   13.86172176 # occ.  0.00000000
 
ion      s     py     pz     px    dxy    dyz    dz2    dxz  x2-y2    tot
    1  0.031  0.002  0.101  0.002  0.000  0.000  0.000  0.000  0.000  0.137
    2  0.031  0.002  0.101  0.002  0.000  0.000  0.000  0.000  0.000  0.137
tot    0.063  0.005  0.202  0.004  0.000  0.000  0.000  0.000  0.000  0.273
 
band     9 # energy   14.03265001 # occ.  0.00000000
 
ion      s     py     pz     px    dxy    dyz    dz2    dxz  x2-y2    tot
    1  0.045  0.050  0.032  0.077  0.000  0.000  0.000  0.000  0.000  0.204
    2  0.045  0.050  0.032  0.077  0.000  0.000  0.000  0.000  0.000  0.204
tot    0.089  0.100  0.064  0.155  0.000  0.000  0.000  0.000  0.000  0.408
 
band    10 # energy   14.38285827 # occ.  0.00000000
 
ion      s     py     pz     px    dxy    dyz    dz2    dxz  x2-y2    tot
    1  0.006  0.030  0.004  0.000  0.000  0.000  0.000  0.000  0.000  0.040
    2  0.006  0.030  0.004  0.000  0.000  0.000  0.000  0.000  0.000  0.040
tot    0.012  0.059  0.008  0.001  0.000  0.000  0.000  0.000  0.000  0.080
 
band    11 # energy   20.55866758 # occ.  0.00000000
 
ion      s     py     pz     px    dxy    dyz    dz2    dxz  x2-y2    tot
    1  0.004  0.020  0.124  0.033  0.000  0.000  0.000  0.000  0.000  0.181
    2  0.004  0.029  0.114  0.032  0.000  0.000  0.000  0.000  0.000  0.179
tot    0.008  0.049  0.239  0.064  0.000  0.000  0.000  0.000  0.000  0.360
 
band    12 # energy   20.78237457 # occ.  0.00000000
 
ion      s     py     pz     px    dxy    dyz    dz2    dxz  x2-y2    tot
    1  0.001  0.020  0.030  0.005  0.000  0.000  0.000  0.000  0.000  0.055
    2  0.001  0.009  0.039  0.007  0.000  0.000  0.000  0.000  0.000  0.056
tot    0.002  0.029  0.069  0.012  0.000  0.000  0.000  0.000  0.000  0.111
 

 k-point   144 :    0.37500000 0.37500000 0.75000000     weight = 0.00555556

band     1 # energy   -2.39681680 # occ.  2.00000000
 
ion      s     py     pz     px    dxy    dyz    dz2    dxz  x2-y2    tot
    1  0.213  0.005  0.023  0.005  0.000  0.000  0.000  0.000  0.000  0.246
    2  0.213  0.005  0.023  0.005  0.000  0.000  0.000  0.000  0.000  0.246
tot    0.427  0.010  0.046  0.010  0.000  0.000  0.000  0.000  0.000  0.492
 
band     2 # energy   -1.39290037 # occ.  2.00000000
 
ion      s     py     pz     px    dxy    dyz    dz2    dxz  x2-y2    tot
    1  0.183  0.006  0.044  0.006  0.000  0.000  0.000  0.000  0.000  0.239
    2  0.183  0.006  0.044  0.006  0.000  0.000  0.000  0.000  0.000  0.239
tot    0.367  0.011  0.088  0.011  0.000  0.000  0.000  0.000  0.000  0.478
 
band     3 # energy    1.53098840 # occ.  2.00000000
 
ion      s     py     pz     px    dxy    dyz    dz2    dxz  x2-y2    tot
    1  0.000  0.056  0.043  0.056  0.000  0.000  0.000  0.000  0.000  0.156
    2  0.000  0.056  0.043  0.056  0.000  0.000  0.000  0.000  0.000  0.156
tot    0.000  0.113  0.086  0.113  0.000  0.000  0.000  0.000  0.000  0.312
 
band     4 # energy    3.40813942 # occ.  2.00000000
 
ion      s     py     pz     px    dxy    dyz    dz2    dxz  x2-y2    tot
    1  0.000  0.100  0.000  0.100  0.000  0.000  0.000  0.000  0.000  0.201
    2  0.000  0.100  0.000  0.100  0.000  0.000  0.000  0.000  0.000  0.201
tot    0.000  0.201  0.000  0.201  0.000  0.000  0.000  0.000  0.000  0.401
 
band     5 # energy    7.03580621 # occ.  0.00000000
 
ion      s     py     pz     px    dxy    dyz    dz2    dxz  x2-y2    tot
    1  0.053  0.001  0.039  0.001  0.000  0.000  0.000  0.000  0.000  0.093
    2  0.053  0.001  0.039  0.001  0.000  0.000  0.000  0.000  0.000  0.093
tot    0.105  0.002  0.078  0.002  0.000  0.000  0.000  0.000  0.000  0.186
 
band     6 # energy    9.96071922 # occ.  0.00000000
 
ion      s     py     pz     px    dxy    dyz    dz2    dxz  x2-y2    tot
    1  0.024  0.036  0.013  0.036  0.000  0.000  0.000  0.000  0.000  0.109
    2  0.024  0.036  0.013  0.036  0.000  0.000  0.000  0.000  0.000  0.109
tot    0.047  0.072  0.027  0.072  0.000  0.000  0.000  0.000  0.000  0.218
 
band     7 # energy   13.30496279 # occ.  0.00000000
 
ion      s     py     pz     px    dxy    dyz    dz2    dxz  x2-y2    tot
    1  0.000  0.079  0.000  0.079  0.000  0.000  0.000  0.000  0.000  0.158
    2  0.000  0.079  0.000  0.079  0.000  0.000  0.000  0.000  0.000  0.158
tot    0.000  0.158  0.000  0.158  0.000  0.000  0.000  0.000  0.000  0.316
 
band     8 # energy   13.84715059 # occ.  0.00000000
 
ion      s     py     pz     px    dxy    dyz    dz2    dxz  x2-y2    tot
    1  0.033  0.000  0.104  0.000  0.000  0.000  0.000  0.000  0.000  0.136
    2  0.033  0.000  0.104  0.000  0.000  0.000  0.000  0.000  0.000  0.136
tot    0.065  0.000  0.207  0.000  0.000  0.000  0.000  0.000  0.000  0.272
 
band     9 # energy   14.07514087 # occ.  0.00000000
 
ion      s     py     pz     px    dxy    dyz    dz2    dxz  x2-y2    tot
    1  0.051  0.072  0.036  0.072  0.000  0.000  0.000  0.000  0.000  0.230
    2  0.051  0.072  0.036  0.072  0.000  0.000  0.000  0.000  0.000  0.230
tot    0.101  0.144  0.072  0.144  0.000  0.000  0.000  0.000  0.000  0.460
 
band    10 # energy   14.34027920 # occ.  0.00000000
 
ion      s     py     pz     px    dxy    dyz    dz2    dxz  x2-y2    tot
    1  0.000  0.007  0.000  0.007  0.000  0.000  0.000  0.000  0.000  0.013
    2  0.000  0.007  0.000  0.007  0.000  0.000  0.000  0.000  0.000  0.013
tot    0.000  0.013  0.000  0.013  0.000  0.000  0.000  0.000  0.000  0.027
 
band    11 # energy   20.59073311 # occ.  0.00000000
 
ion      s     py     pz     px    dxy    dyz    dz2    dxz  x2-y2    tot
    1  0.004  0.033  0.156  0.039  0.000  0.000  0.000  0.000  0.000  0.232
    2  0.003  0.041  0.145  0.036  0.000  0.000  0.000  0.000  0.000  0.225
tot    0.007  0.074  0.302  0.075  0.000  0.000  0.000  0.000  0.000  0.457
 
band    12 # energy   20.74064881 # occ.  0.00000000
 
ion      s     py     pz     px    dxy    dyz    dz2    dxz  x2-y2    tot
    1  0.000  0.000  0.000  0.001  0.000  0.000  0.000  0.000  0.000  0.001
    2  0.000  0.003  0.000  0.002  0.000  0.000  0.000  0.000  0.000  0.006
tot    0.000  0.003  0.001  0.003  0.000  0.000  0.000  0.000  0.000  0.007
 

 k-point   145 :    0.37500000 0.37500000 0.75000000     weight = 0.00555556

band     1 # energy   -2.39681681 # occ.  2.00000000
 
ion      s     py     pz     px    dxy    dyz    dz2    dxz  x2-y2    tot
    1  0.213  0.005  0.023  0.005  0.000  0.000  0.000  0.000  0.000  0.246
    2  0.213  0.005  0.023  0.005  0.000  0.000  0.000  0.000  0.000  0.246
tot    0.427  0.010  0.046  0.010  0.000  0.000  0.000  0.000  0.000  0.492
 
band     2 # energy   -1.39290037 # occ.  2.00000000
 
ion      s     py     pz     px    dxy    dyz    dz2    dxz  x2-y2    tot
    1  0.183  0.006  0.044  0.006  0.000  0.000  0.000  0.000  0.000  0.239
    2  0.183  0.006  0.044  0.006  0.000  0.000  0.000  0.000  0.000  0.239
tot    0.367  0.011  0.088  0.011  0.000  0.000  0.000  0.000  0.000  0.478
 
band     3 # energy    1.53098840 # occ.  2.00000000
 
ion      s     py     pz     px    dxy    dyz    dz2    dxz  x2-y2    tot
    1  0.000  0.056  0.043  0.056  0.000  0.000  0.000  0.000  0.000  0.156
    2  0.000  0.056  0.043  0.056  0.000  0.000  0.000  0.000  0.000  0.156
tot    0.000  0.113  0.086  0.113  0.000  0.000  0.000  0.000  0.000  0.312
 
band     4 # energy    3.40813940 # occ.  2.00000000
 
ion      s     py     pz     px    dxy    dyz    dz2    dxz  x2-y2    tot
    1  0.000  0.100  0.000  0.100  0.000  0.000  0.000  0.000  0.000  0.201
    2  0.000  0.100  0.000  0.100  0.000  0.000  0.000  0.000  0.000  0.201
tot    0.000  0.201  0.000  0.201  0.000  0.000  0.000  0.000  0.000  0.401
 
band     5 # energy    7.03580620 # occ.  0.00000000
 
ion      s     py     pz     px    dxy    dyz    dz2    dxz  x2-y2    tot
    1  0.053  0.001  0.039  0.001  0.000  0.000  0.000  0.000  0.000  0.093
    2  0.053  0.001  0.039  0.001  0.000  0.000  0.000  0.000  0.000  0.093
tot    0.105  0.002  0.078  0.002  0.000  0.000  0.000  0.000  0.000  0.186
 
band     6 # energy    9.96071915 # occ.  0.00000000
 
ion      s     py     pz     px    dxy    dyz    dz2    dxz  x2-y2    tot
    1  0.024  0.036  0.013  0.036  0.000  0.000  0.000  0.000  0.000  0.109
    2  0.024  0.036  0.013  0.036  0.000  0.000  0.000  0.000  0.000  0.109
tot    0.047  0.072  0.027  0.072  0.000  0.000  0.000  0.000  0.000  0.218
 
band     7 # energy   13.30495907 # occ.  0.00000000
 
ion      s     py     pz     px    dxy    dyz    dz2    dxz  x2-y2    tot
    1  0.000  0.079  0.000  0.079  0.000  0.000  0.000  0.000  0.000  0.158
    2  0.000  0.079  0.000  0.079  0.000  0.000  0.000  0.000  0.000  0.158
tot    0.000  0.158  0.000  0.158  0.000  0.000  0.000  0.000  0.000  0.316
 
band     8 # energy   13.84715108 # occ.  0.00000000
 
ion      s     py     pz     px    dxy    dyz    dz2    dxz  x2-y2    tot
    1  0.033  0.000  0.104  0.000  0.000  0.000  0.000  0.000  0.000  0.136
    2  0.033  0.000  0.104  0.000  0.000  0.000  0.000  0.000  0.000  0.136
tot    0.065  0.000  0.207  0.000  0.000  0.000  0.000  0.000  0.000  0.272
 
band     9 # energy   14.07514087 # occ.  0.00000000
 
ion      s     py     pz     px    dxy    dyz    dz2    dxz  x2-y2    tot
    1  0.051  0.072  0.036  0.072  0.000  0.000  0.000  0.000  0.000  0.230
    2  0.051  0.072  0.036  0.072  0.000  0.000  0.000  0.000  0.000  0.230
tot    0.101  0.144  0.072  0.144  0.000  0.000  0.000  0.000  0.000  0.460
 
band    10 # energy   14.34027920 # occ.  0.00000000
 
ion      s     py     pz     px    dxy    dyz    dz2    dxz  x2-y2    tot
    1  0.000  0.007  0.000  0.007  0.000  0.000  0.000  0.000  0.000  0.013
    2  0.000  0.007  0.000  0.007  0.000  0.000  0.000  0.000  0.000  0.013
tot    0.000  0.013  0.000  0.013  0.000  0.000  0.000  0.000  0.000  0.027
 
band    11 # energy   20.63303035 # occ.  0.00000000
 
ion      s     py     pz     px    dxy    dyz    dz2    dxz  x2-y2    tot
    1  0.004  0.030  0.134  0.033  0.000  0.000  0.000  0.000  0.000  0.200
    2  0.004  0.029  0.129  0.036  0.000  0.000  0.000  0.000  0.000  0.198
tot    0.008  0.059  0.262  0.068  0.000  0.000  0.000  0.000  0.000  0.398
 
band    12 # energy   20.77733438 # occ.  0.00000000
 
ion      s     py     pz     px    dxy    dyz    dz2    dxz  x2-y2    tot
    1  0.001  0.010  0.021  0.000  0.000  0.000  0.000  0.000  0.000  0.033
    2  0.001  0.004  0.010  0.009  0.000  0.000  0.000  0.000  0.000  0.024
tot    0.003  0.014  0.031  0.010  0.000  0.000  0.000  0.000  0.000  0.057
 

 k-point   146 :    0.36428571 0.36428571 0.72857143     weight = 0.00555556

band     1 # energy   -2.49929252 # occ.  2.00000000
 
ion      s     py     pz     px    dxy    dyz    dz2    dxz  x2-y2    tot
    1  0.214  0.006  0.020  0.006  0.000  0.000  0.000  0.000  0.000  0.246
    2  0.214  0.006  0.020  0.006  0.000  0.000  0.000  0.000  0.000  0.246
tot    0.429  0.011  0.040  0.011  0.000  0.000  0.000  0.000  0.000  0.491
 
band     2 # energy   -1.28778566 # occ.  2.00000000
 
ion      s     py     pz     px    dxy    dyz    dz2    dxz  x2-y2    tot
    1  0.182  0.007  0.044  0.007  0.000  0.000  0.000  0.000  0.000  0.239
    2  0.182  0.007  0.044  0.007  0.000  0.000  0.000  0.000  0.000  0.239
tot    0.363  0.013  0.088  0.013  0.000  0.000  0.000  0.000  0.000  0.478
 
band     3 # energy    1.46801397 # occ.  2.00000000
 
ion      s     py     pz     px    dxy    dyz    dz2    dxz  x2-y2    tot
    1  0.000  0.053  0.048  0.053  0.000  0.000  0.000  0.000  0.000  0.155
    2  0.000  0.053  0.048  0.053  0.000  0.000  0.000  0.000  0.000  0.155
tot    0.001  0.107  0.095  0.107  0.000  0.000  0.000  0.000  0.000  0.310
 
band     4 # energy    3.48169083 # occ.  2.00000000
 
ion      s     py     pz     px    dxy    dyz    dz2    dxz  x2-y2    tot
    1  0.000  0.101  0.000  0.101  0.000  0.000  0.000  0.000  0.000  0.201
    2  0.000  0.101  0.000  0.101  0.000  0.000  0.000  0.000  0.000  0.201
tot    0.000  0.201  0.000  0.201  0.000  0.000  0.000  0.000  0.000  0.403
 
band     5 # energy    7.12118323 # occ.  0.00000000
 
ion      s     py     pz     px    dxy    dyz    dz2    dxz  x2-y2    tot
    1  0.053  0.001  0.040  0.001  0.000  0.000  0.000  0.000  0.000  0.095
    2  0.053  0.001  0.040  0.001  0.000  0.000  0.000  0.000  0.000  0.095
tot    0.106  0.002  0.080  0.002  0.000  0.000  0.000  0.000  0.000  0.189
 
band     6 # energy   10.39485268 # occ.  0.00000000
 
ion      s     py     pz     px    dxy    dyz    dz2    dxz  x2-y2    tot
    1  0.020  0.038  0.011  0.038  0.000  0.000  0.000  0.000  0.000  0.107
    2  0.020  0.038  0.011  0.038  0.000  0.000  0.000  0.000  0.000  0.107
tot    0.041  0.075  0.022  0.075  0.000  0.000  0.000  0.000  0.000  0.214
 
band     7 # energy   13.04182654 # occ.  0.00000000
 
ion      s     py     pz     px    dxy    dyz    dz2    dxz  x2-y2    tot
    1  0.000  0.078  0.000  0.078  0.000  0.000  0.000  0.000  0.000  0.156
    2  0.000  0.078  0.000  0.078  0.000  0.000  0.000  0.000  0.000  0.156
tot    0.000  0.156  0.000  0.156  0.000  0.000  0.000  0.000  0.000  0.312
 
band     8 # energy   13.57977080 # occ.  0.00000000
 
ion      s     py     pz     px    dxy    dyz    dz2    dxz  x2-y2    tot
    1  0.035  0.000  0.108  0.000  0.000  0.000  0.000  0.000  0.000  0.143
    2  0.035  0.000  0.108  0.000  0.000  0.000  0.000  0.000  0.000  0.143
tot    0.069  0.000  0.217  0.000  0.000  0.000  0.000  0.000  0.000  0.286
 
band     9 # energy   13.86371316 # occ.  0.00000000
 
ion      s     py     pz     px    dxy    dyz    dz2    dxz  x2-y2    tot
    1  0.054  0.069  0.036  0.069  0.000  0.000  0.000  0.000  0.000  0.228
    2  0.054  0.069  0.036  0.069  0.000  0.000  0.000  0.000  0.000  0.228
tot    0.108  0.138  0.073  0.138  0.000  0.000  0.000  0.000  0.000  0.456
 
band    10 # energy   14.11240382 # occ.  0.00000000
 
ion      s     py     pz     px    dxy    dyz    dz2    dxz  x2-y2    tot
    1  0.000  0.007  0.000  0.007  0.000  0.000  0.000  0.000  0.000  0.014
    2  0.000  0.007  0.000  0.007  0.000  0.000  0.000  0.000  0.000  0.014
tot    0.000  0.014  0.000  0.014  0.000  0.000  0.000  0.000  0.000  0.027
 
band    11 # energy   20.67305037 # occ.  0.00000000
 
ion      s     py     pz     px    dxy    dyz    dz2    dxz  x2-y2    tot
    1  0.000  0.031  0.114  0.042  0.000  0.000  0.000  0.000  0.000  0.188
    2  0.000  0.037  0.124  0.029  0.000  0.000  0.000  0.000  0.000  0.191
tot    0.000  0.069  0.239  0.072  0.000  0.000  0.000  0.000  0.000  0.379
 
band    12 # energy   20.96295785 # occ.  0.00000000
 
ion      s     py     pz     px    dxy    dyz    dz2    dxz  x2-y2    tot
    1  0.000  0.002  0.001  0.001  0.000  0.000  0.000  0.000  0.000  0.003
    2  0.001  0.003  0.005  0.002  0.000  0.000  0.000  0.000  0.000  0.011
tot    0.001  0.005  0.005  0.003  0.000  0.000  0.000  0.000  0.000  0.014
 

 k-point   147 :    0.35357143 0.35357143 0.70714286     weight = 0.00555556

band     1 # energy   -2.61466294 # occ.  2.00000000
 
ion      s     py     pz     px    dxy    dyz    dz2    dxz  x2-y2    tot
    1  0.215  0.007  0.017  0.007  0.000  0.000  0.000  0.000  0.000  0.245
    2  0.215  0.007  0.017  0.007  0.000  0.000  0.000  0.000  0.000  0.245
tot    0.429  0.013  0.034  0.013  0.000  0.000  0.000  0.000  0.000  0.490
 
band     2 # energy   -1.17416590 # occ.  2.00000000
 
ion      s     py     pz     px    dxy    dyz    dz2    dxz  x2-y2    tot
    1  0.180  0.008  0.043  0.008  0.000  0.000  0.000  0.000  0.000  0.239
    2  0.180  0.008  0.043  0.008  0.000  0.000  0.000  0.000  0.000  0.239
tot    0.360  0.016  0.087  0.016  0.000  0.000  0.000  0.000  0.000  0.478
 
band     3 # energy    1.42924038 # occ.  2.00000000
 
ion      s     py     pz     px    dxy    dyz    dz2    dxz  x2-y2    tot
    1  0.001  0.051  0.052  0.051  0.000  0.000  0.000  0.000  0.000  0.155
    2  0.001  0.051  0.052  0.051  0.000  0.000  0.000  0.000  0.000  0.155
tot    0.003  0.101  0.104  0.101  0.000  0.000  0.000  0.000  0.000  0.309
 
band     4 # energy    3.56026426 # occ.  2.00000000
 
ion      s     py     pz     px    dxy    dyz    dz2    dxz  x2-y2    tot
    1  0.000  0.101  0.000  0.101  0.000  0.000  0.000  0.000  0.000  0.202
    2  0.000  0.101  0.000  0.101  0.000  0.000  0.000  0.000  0.000  0.202
tot    0.000  0.202  0.000  0.202  0.000  0.000  0.000  0.000  0.000  0.404
 
band     5 # energy    7.21240066 # occ.  0.00000000
 
ion      s     py     pz     px    dxy    dyz    dz2    dxz  x2-y2    tot
    1  0.053  0.001  0.041  0.001  0.000  0.000  0.000  0.000  0.000  0.096
    2  0.053  0.001  0.041  0.001  0.000  0.000  0.000  0.000  0.000  0.096
tot    0.106  0.002  0.081  0.002  0.000  0.000  0.000  0.000  0.000  0.192
 
band     6 # energy   10.83296107 # occ.  0.00000000
 
ion      s     py     pz     px    dxy    dyz    dz2    dxz  x2-y2    tot
    1  0.017  0.039  0.008  0.039  0.000  0.000  0.000  0.000  0.000  0.102
    2  0.017  0.039  0.008  0.039  0.000  0.000  0.000  0.000  0.000  0.102
tot    0.033  0.078  0.016  0.078  0.000  0.000  0.000  0.000  0.000  0.205
 
band     7 # energy   12.78383875 # occ.  0.00000000
 
ion      s     py     pz     px    dxy    dyz    dz2    dxz  x2-y2    tot
    1  0.000  0.077  0.000  0.077  0.000  0.000  0.000  0.000  0.000  0.154
    2  0.000  0.077  0.000  0.077  0.000  0.000  0.000  0.000  0.000  0.154
tot    0.000  0.154  0.000  0.154  0.000  0.000  0.000  0.000  0.000  0.309
 
band     8 # energy   13.32488489 # occ.  0.00000000
 
ion      s     py     pz     px    dxy    dyz    dz2    dxz  x2-y2    tot
    1  0.037  0.000  0.114  0.000  0.000  0.000  0.000  0.000  0.000  0.152
    2  0.037  0.000  0.114  0.000  0.000  0.000  0.000  0.000  0.000  0.152
tot    0.074  0.001  0.227  0.001  0.000  0.000  0.000  0.000  0.000  0.303
 
band     9 # energy   13.65523458 # occ.  0.00000000
 
ion      s     py     pz     px    dxy    dyz    dz2    dxz  x2-y2    tot
    1  0.058  0.066  0.037  0.066  0.000  0.000  0.000  0.000  0.000  0.226
    2  0.058  0.066  0.037  0.066  0.000  0.000  0.000  0.000  0.000  0.226
tot    0.115  0.132  0.074  0.132  0.000  0.000  0.000  0.000  0.000  0.452
 
band    10 # energy   13.89194136 # occ.  0.00000000
 
ion      s     py     pz     px    dxy    dyz    dz2    dxz  x2-y2    tot
    1  0.000  0.007  0.000  0.007  0.000  0.000  0.000  0.000  0.000  0.013
    2  0.000  0.007  0.000  0.007  0.000  0.000  0.000  0.000  0.000  0.013
tot    0.000  0.013  0.000  0.013  0.000  0.000  0.000  0.000  0.000  0.027
 
band    11 # energy   20.60029043 # occ.  0.00000000
 
ion      s     py     pz     px    dxy    dyz    dz2    dxz  x2-y2    tot
    1  0.003  0.019  0.055  0.021  0.000  0.000  0.000  0.000  0.000  0.098
    2  0.005  0.026  0.047  0.022  0.000  0.000  0.000  0.000  0.000  0.100
tot    0.008  0.045  0.102  0.043  0.000  0.000  0.000  0.000  0.000  0.198
 
band    12 # energy   21.20400487 # occ.  0.00000000
 
ion      s     py     pz     px    dxy    dyz    dz2    dxz  x2-y2    tot
    1  0.007  0.003  0.031  0.002  0.000  0.000  0.000  0.000  0.000  0.044
    2  0.001  0.007  0.005  0.014  0.000  0.000  0.000  0.000  0.000  0.026
tot    0.008  0.010  0.036  0.016  0.000  0.000  0.000  0.000  0.000  0.070
 

 k-point   148 :    0.34285714 0.34285714 0.68571429     weight = 0.00555556

band     1 # energy   -2.74178064 # occ.  2.00000000
 
ion      s     py     pz     px    dxy    dyz    dz2    dxz  x2-y2    tot
    1  0.215  0.007  0.014  0.007  0.000  0.000  0.000  0.000  0.000  0.244
    2  0.215  0.007  0.014  0.007  0.000  0.000  0.000  0.000  0.000  0.244
tot    0.429  0.015  0.028  0.015  0.000  0.000  0.000  0.000  0.000  0.487
 
band     2 # energy   -1.05207508 # occ.  2.00000000
 
ion      s     py     pz     px    dxy    dyz    dz2    dxz  x2-y2    tot
    1  0.178  0.009  0.043  0.009  0.000  0.000  0.000  0.000  0.000  0.239
    2  0.178  0.009  0.043  0.009  0.000  0.000  0.000  0.000  0.000  0.239
tot    0.355  0.018  0.086  0.018  0.000  0.000  0.000  0.000  0.000  0.478
 
band     3 # energy    1.41425190 # occ.  2.00000000
 
ion      s     py     pz     px    dxy    dyz    dz2    dxz  x2-y2    tot
    1  0.002  0.048  0.056  0.048  0.000  0.000  0.000  0.000  0.000  0.155
    2  0.002  0.048  0.056  0.048  0.000  0.000  0.000  0.000  0.000  0.155
tot    0.005  0.096  0.112  0.096  0.000  0.000  0.000  0.000  0.000  0.310
 
band     4 # energy    3.64358854 # occ.  2.00000000
 
ion      s     py     pz     px    dxy    dyz    dz2    dxz  x2-y2    tot
    1  0.000  0.101  0.000  0.101  0.000  0.000  0.000  0.000  0.000  0.203
    2  0.000  0.101  0.000  0.101  0.000  0.000  0.000  0.000  0.000  0.203
tot    0.000  0.203  0.000  0.203  0.000  0.000  0.000  0.000  0.000  0.405
 
band     5 # energy    7.30912450 # occ.  0.00000000
 
ion      s     py     pz     px    dxy    dyz    dz2    dxz  x2-y2    tot
    1  0.054  0.001  0.042  0.001  0.000  0.000  0.000  0.000  0.000  0.098
    2  0.054  0.001  0.042  0.001  0.000  0.000  0.000  0.000  0.000  0.098
tot    0.107  0.003  0.084  0.003  0.000  0.000  0.000  0.000  0.000  0.196
 
band     6 # energy   11.26690821 # occ.  0.00000000
 
ion      s     py     pz     px    dxy    dyz    dz2    dxz  x2-y2    tot
    1  0.012  0.039  0.004  0.039  0.000  0.000  0.000  0.000  0.000  0.094
    2  0.012  0.039  0.004  0.039  0.000  0.000  0.000  0.000  0.000  0.094
tot    0.023  0.078  0.008  0.078  0.000  0.000  0.000  0.000  0.000  0.188
 
band     7 # energy   12.53151852 # occ.  0.00000000
 
ion      s     py     pz     px    dxy    dyz    dz2    dxz  x2-y2    tot
    1  0.000  0.077  0.000  0.077  0.000  0.000  0.000  0.000  0.000  0.153
    2  0.000  0.077  0.000  0.077  0.000  0.000  0.000  0.000  0.000  0.153
tot    0.000  0.153  0.000  0.153  0.000  0.000  0.000  0.000  0.000  0.306
 
band     8 # energy   13.08963774 # occ.  0.00000000
 
ion      s     py     pz     px    dxy    dyz    dz2    dxz  x2-y2    tot
    1  0.041  0.002  0.120  0.002  0.000  0.000  0.000  0.000  0.000  0.163
    2  0.041  0.002  0.120  0.002  0.000  0.000  0.000  0.000  0.000  0.163
tot    0.081  0.003  0.239  0.003  0.000  0.000  0.000  0.000  0.000  0.327
 
band     9 # energy   13.45076126 # occ.  0.00000000
 
ion      s     py     pz     px    dxy    dyz    dz2    dxz  x2-y2    tot
    1  0.061  0.063  0.037  0.063  0.000  0.000  0.000  0.000  0.000  0.224
    2  0.061  0.063  0.037  0.063  0.000  0.000  0.000  0.000  0.000  0.224
tot    0.122  0.126  0.074  0.126  0.000  0.000  0.000  0.000  0.000  0.448
 
band    10 # energy   13.67966088 # occ.  0.00000000
 
ion      s     py     pz     px    dxy    dyz    dz2    dxz  x2-y2    tot
    1  0.000  0.007  0.000  0.007  0.000  0.000  0.000  0.000  0.000  0.013
    2  0.000  0.007  0.000  0.007  0.000  0.000  0.000  0.000  0.000  0.013
tot    0.000  0.013  0.000  0.013  0.000  0.000  0.000  0.000  0.000  0.027
 
band    11 # energy   20.40965418 # occ.  0.00000000
 
ion      s     py     pz     px    dxy    dyz    dz2    dxz  x2-y2    tot
    1  0.010  0.015  0.025  0.015  0.000  0.000  0.000  0.000  0.000  0.064
    2  0.010  0.015  0.025  0.014  0.000  0.000  0.000  0.000  0.000  0.064
tot    0.019  0.030  0.050  0.029  0.000  0.000  0.000  0.000  0.000  0.128
 
band    12 # energy   21.01338828 # occ.  0.00000000
 
ion      s     py     pz     px    dxy    dyz    dz2    dxz  x2-y2    tot
    1  0.011  0.012  0.027  0.013  0.000  0.000  0.000  0.000  0.000  0.064
    2  0.011  0.013  0.024  0.014  0.000  0.000  0.000  0.000  0.000  0.062
tot    0.022  0.025  0.051  0.026  0.000  0.000  0.000  0.000  0.000  0.125
 

 k-point   149 :    0.33214286 0.33214286 0.66428571     weight = 0.00555556

band     1 # energy   -2.87911834 # occ.  2.00000000
 
ion      s     py     pz     px    dxy    dyz    dz2    dxz  x2-y2    tot
    1  0.214  0.008  0.012  0.008  0.000  0.000  0.000  0.000  0.000  0.242
    2  0.214  0.008  0.012  0.008  0.000  0.000  0.000  0.000  0.000  0.242
tot    0.429  0.016  0.024  0.016  0.000  0.000  0.000  0.000  0.000  0.484
 
band     2 # energy   -0.92154961 # occ.  2.00000000
 
ion      s     py     pz     px    dxy    dyz    dz2    dxz  x2-y2    tot
    1  0.176  0.010  0.043  0.010  0.000  0.000  0.000  0.000  0.000  0.239
    2  0.176  0.010  0.043  0.010  0.000  0.000  0.000  0.000  0.000  0.239
tot    0.351  0.020  0.086  0.020  0.000  0.000  0.000  0.000  0.000  0.477
 
band     3 # energy    1.42205480 # occ.  2.00000000
 
ion      s     py     pz     px    dxy    dyz    dz2    dxz  x2-y2    tot
    1  0.004  0.046  0.060  0.046  0.000  0.000  0.000  0.000  0.000  0.156
    2  0.004  0.046  0.060  0.046  0.000  0.000  0.000  0.000  0.000  0.156
tot    0.008  0.092  0.120  0.092  0.000  0.000  0.000  0.000  0.000  0.312
 
band     4 # energy    3.73134421 # occ.  2.00000000
 
ion      s     py     pz     px    dxy    dyz    dz2    dxz  x2-y2    tot
    1  0.000  0.102  0.000  0.102  0.000  0.000  0.000  0.000  0.000  0.204
    2  0.000  0.102  0.000  0.102  0.000  0.000  0.000  0.000  0.000  0.204
tot    0.000  0.204  0.000  0.204  0.000  0.000  0.000  0.000  0.000  0.407
 
band     5 # energy    7.41088169 # occ.  0.00000000
 
ion      s     py     pz     px    dxy    dyz    dz2    dxz  x2-y2    tot
    1  0.054  0.001  0.043  0.001  0.000  0.000  0.000  0.000  0.000  0.100
    2  0.054  0.001  0.043  0.001  0.000  0.000  0.000  0.000  0.000  0.100
tot    0.108  0.003  0.086  0.003  0.000  0.000  0.000  0.000  0.000  0.200
 
band     6 # energy   11.67396330 # occ.  0.00000000
 
ion      s     py     pz     px    dxy    dyz    dz2    dxz  x2-y2    tot
    1  0.005  0.037  0.000  0.037  0.000  0.000  0.000  0.000  0.000  0.079
    2  0.005  0.037  0.000  0.037  0.000  0.000  0.000  0.000  0.000  0.079
tot    0.010  0.074  0.000  0.074  0.000  0.000  0.000  0.000  0.000  0.158
 
band     7 # energy   12.28522482 # occ.  0.00000000
 
ion      s     py     pz     px    dxy    dyz    dz2    dxz  x2-y2    tot
    1  0.000  0.076  0.000  0.076  0.000  0.000  0.000  0.000  0.000  0.152
    2  0.000  0.076  0.000  0.076  0.000  0.000  0.000  0.000  0.000  0.152
tot    0.000  0.152  0.000  0.152  0.000  0.000  0.000  0.000  0.000  0.304
 
band     8 # energy   12.89567668 # occ.  0.00000000
 
ion      s     py     pz     px    dxy    dyz    dz2    dxz  x2-y2    tot
    1  0.046  0.005  0.126  0.005  0.000  0.000  0.000  0.000  0.000  0.182
    2  0.046  0.005  0.126  0.005  0.000  0.000  0.000  0.000  0.000  0.182
tot    0.092  0.010  0.251  0.010  0.000  0.000  0.000  0.000  0.000  0.363
 
band     9 # energy   13.25127027 # occ.  0.00000000
 
ion      s     py     pz     px    dxy    dyz    dz2    dxz  x2-y2    tot
    1  0.064  0.061  0.037  0.061  0.000  0.000  0.000  0.000  0.000  0.221
    2  0.064  0.061  0.037  0.061  0.000  0.000  0.000  0.000  0.000  0.221
tot    0.127  0.121  0.073  0.121  0.000  0.000  0.000  0.000  0.000  0.443
 
band    10 # energy   13.47617835 # occ.  0.00000000
 
ion      s     py     pz     px    dxy    dyz    dz2    dxz  x2-y2    tot
    1  0.000  0.007  0.000  0.007  0.000  0.000  0.000  0.000  0.000  0.013
    2  0.000  0.007  0.000  0.007  0.000  0.000  0.000  0.000  0.000  0.013
tot    0.000  0.013  0.000  0.013  0.000  0.000  0.000  0.000  0.000  0.026
 
band    11 # energy   20.18156377 # occ.  0.00000000
 
ion      s     py     pz     px    dxy    dyz    dz2    dxz  x2-y2    tot
    1  0.013  0.011  0.016  0.011  0.000  0.000  0.000  0.000  0.000  0.052
    2  0.013  0.011  0.016  0.011  0.000  0.000  0.000  0.000  0.000  0.051
tot    0.027  0.023  0.031  0.022  0.000  0.000  0.000  0.000  0.000  0.103
 
band    12 # energy   20.76155716 # occ.  0.00000000
 
ion      s     py     pz     px    dxy    dyz    dz2    dxz  x2-y2    tot
    1  0.015  0.011  0.027  0.010  0.000  0.000  0.000  0.000  0.000  0.063
    2  0.013  0.013  0.020  0.013  0.000  0.000  0.000  0.000  0.000  0.059
tot    0.028  0.024  0.047  0.023  0.000  0.000  0.000  0.000  0.000  0.122
 

 k-point   150 :    0.32142857 0.32142857 0.64285714     weight = 0.00555556

band     1 # energy   -3.02490715 # occ.  2.00000000
 
ion      s     py     pz     px    dxy    dyz    dz2    dxz  x2-y2    tot
    1  0.214  0.009  0.010  0.009  0.000  0.000  0.000  0.000  0.000  0.240
    2  0.214  0.009  0.010  0.009  0.000  0.000  0.000  0.000  0.000  0.240
tot    0.427  0.017  0.019  0.017  0.000  0.000  0.000  0.000  0.000  0.481
 
band     2 # energy   -0.78263598 # occ.  2.00000000
 
ion      s     py     pz     px    dxy    dyz    dz2    dxz  x2-y2    tot
    1  0.173  0.012  0.042  0.012  0.000  0.000  0.000  0.000  0.000  0.239
    2  0.173  0.012  0.042  0.012  0.000  0.000  0.000  0.000  0.000  0.239
tot    0.346  0.023  0.085  0.023  0.000  0.000  0.000  0.000  0.000  0.477
 
band     3 # energy    1.45128075 # occ.  2.00000000
 
ion      s     py     pz     px    dxy    dyz    dz2    dxz  x2-y2    tot
    1  0.005  0.044  0.063  0.044  0.000  0.000  0.000  0.000  0.000  0.157
    2  0.005  0.044  0.063  0.044  0.000  0.000  0.000  0.000  0.000  0.157
tot    0.011  0.088  0.127  0.088  0.000  0.000  0.000  0.000  0.000  0.314
 
band     4 # energy    3.82315734 # occ.  2.00000000
 
ion      s     py     pz     px    dxy    dyz    dz2    dxz  x2-y2    tot
    1  0.000  0.102  0.000  0.102  0.000  0.000  0.000  0.000  0.000  0.204
    2  0.000  0.102  0.000  0.102  0.000  0.000  0.000  0.000  0.000  0.204
tot    0.000  0.204  0.000  0.204  0.000  0.000  0.000  0.000  0.000  0.409
 
band     5 # energy    7.51711052 # occ.  0.00000000
 
ion      s     py     pz     px    dxy    dyz    dz2    dxz  x2-y2    tot
    1  0.055  0.002  0.044  0.002  0.000  0.000  0.000  0.000  0.000  0.102
    2  0.055  0.002  0.044  0.002  0.000  0.000  0.000  0.000  0.000  0.102
tot    0.109  0.003  0.089  0.003  0.000  0.000  0.000  0.000  0.000  0.204
 
band     6 # energy   11.97288512 # occ.  0.00000000
 
ion      s     py     pz     px    dxy    dyz    dz2    dxz  x2-y2    tot
    1  0.000  0.026  0.009  0.026  0.000  0.000  0.000  0.000  0.000  0.060
    2  0.000  0.026  0.009  0.026  0.000  0.000  0.000  0.000  0.000  0.060
tot    0.000  0.051  0.018  0.051  0.000  0.000  0.000  0.000  0.000  0.121
 
band     7 # energy   12.04527682 # occ.  0.00000000
 
ion      s     py     pz     px    dxy    dyz    dz2    dxz  x2-y2    tot
    1  0.000  0.076  0.000  0.076  0.000  0.000  0.000  0.000  0.000  0.151
    2  0.000  0.076  0.000  0.076  0.000  0.000  0.000  0.000  0.000  0.151
tot    0.000  0.151  0.000  0.151  0.000  0.000  0.000  0.000  0.000  0.302
 
band     8 # energy   12.82281787 # occ.  0.00000000
 
ion      s     py     pz     px    dxy    dyz    dz2    dxz  x2-y2    tot
    1  0.049  0.018  0.119  0.018  0.000  0.000  0.000  0.000  0.000  0.203
    2  0.049  0.018  0.119  0.018  0.000  0.000  0.000  0.000  0.000  0.203
tot    0.098  0.036  0.237  0.036  0.000  0.000  0.000  0.000  0.000  0.407
 
band     9 # energy   13.05762198 # occ.  0.00000000
 
ion      s     py     pz     px    dxy    dyz    dz2    dxz  x2-y2    tot
    1  0.066  0.058  0.036  0.058  0.000  0.000  0.000  0.000  0.000  0.219
    2  0.066  0.058  0.036  0.058  0.000  0.000  0.000  0.000  0.000  0.219
tot    0.133  0.116  0.072  0.116  0.000  0.000  0.000  0.000  0.000  0.437
 
band    10 # energy   13.28212599 # occ.  0.00000000
 
ion      s     py     pz     px    dxy    dyz    dz2    dxz  x2-y2    tot
    1  0.000  0.006  0.000  0.006  0.000  0.000  0.000  0.000  0.000  0.013
    2  0.000  0.006  0.000  0.006  0.000  0.000  0.000  0.000  0.000  0.013
tot    0.000  0.013  0.000  0.013  0.000  0.000  0.000  0.000  0.000  0.025
 
band    11 # energy   19.94398939 # occ.  0.00000000
 
ion      s     py     pz     px    dxy    dyz    dz2    dxz  x2-y2    tot
    1  0.016  0.009  0.011  0.009  0.000  0.000  0.000  0.000  0.000  0.045
    2  0.016  0.009  0.011  0.009  0.000  0.000  0.000  0.000  0.000  0.045
tot    0.033  0.018  0.021  0.018  0.000  0.000  0.000  0.000  0.000  0.089
 
band    12 # energy   20.51980410 # occ.  0.00000000
 
ion      s     py     pz     px    dxy    dyz    dz2    dxz  x2-y2    tot
    1  0.016  0.011  0.021  0.011  0.000  0.000  0.000  0.000  0.000  0.059
    2  0.017  0.010  0.023  0.010  0.000  0.000  0.000  0.000  0.000  0.060
tot    0.033  0.021  0.044  0.021  0.000  0.000  0.000  0.000  0.000  0.119
 

 k-point   151 :    0.31071429 0.31071429 0.62142857     weight = 0.00555556

band     1 # energy   -3.17726390 # occ.  2.00000000
 
ion      s     py     pz     px    dxy    dyz    dz2    dxz  x2-y2    tot
    1  0.213  0.009  0.008  0.009  0.000  0.000  0.000  0.000  0.000  0.239
    2  0.213  0.009  0.008  0.009  0.000  0.000  0.000  0.000  0.000  0.239
tot    0.426  0.018  0.016  0.018  0.000  0.000  0.000  0.000  0.000  0.477
 
band     2 # energy   -0.63537701 # occ.  2.00000000
 
ion      s     py     pz     px    dxy    dyz    dz2    dxz  x2-y2    tot
    1  0.171  0.013  0.042  0.013  0.000  0.000  0.000  0.000  0.000  0.239
    2  0.171  0.013  0.042  0.013  0.000  0.000  0.000  0.000  0.000  0.239
tot    0.341  0.026  0.084  0.026  0.000  0.000  0.000  0.000  0.000  0.477
 
band     3 # energy    1.50038117 # occ.  2.00000000
 
ion      s     py     pz     px    dxy    dyz    dz2    dxz  x2-y2    tot
    1  0.007  0.042  0.067  0.042  0.000  0.000  0.000  0.000  0.000  0.158
    2  0.007  0.042  0.067  0.042  0.000  0.000  0.000  0.000  0.000  0.158
tot    0.014  0.085  0.133  0.085  0.000  0.000  0.000  0.000  0.000  0.316
 
band     4 # energy    3.91864572 # occ.  2.00000000
 
ion      s     py     pz     px    dxy    dyz    dz2    dxz  x2-y2    tot
    1  0.000  0.103  0.000  0.103  0.000  0.000  0.000  0.000  0.000  0.205
    2  0.000  0.103  0.000  0.103  0.000  0.000  0.000  0.000  0.000  0.205
tot    0.000  0.205  0.000  0.205  0.000  0.000  0.000  0.000  0.000  0.411
 
band     5 # energy    7.62734871 # occ.  0.00000000
 
ion      s     py     pz     px    dxy    dyz    dz2    dxz  x2-y2    tot
    1  0.055  0.002  0.046  0.002  0.000  0.000  0.000  0.000  0.000  0.105
    2  0.055  0.002  0.046  0.002  0.000  0.000  0.000  0.000  0.000  0.105
tot    0.111  0.003  0.092  0.003  0.000  0.000  0.000  0.000  0.000  0.210
 
band     6 # energy   11.81196145 # occ.  0.00000000
 
ion      s     py     pz     px    dxy    dyz    dz2    dxz  x2-y2    tot
    1  0.000  0.075  0.000  0.075  0.000  0.000  0.000  0.000  0.000  0.151
    2  0.000  0.075  0.000  0.075  0.000  0.000  0.000  0.000  0.000  0.151
tot    0.000  0.151  0.000  0.151  0.000  0.000  0.000  0.000  0.000  0.301
 
band     7 # energy   12.01564824 # occ.  0.00000000
 
ion      s     py     pz     px    dxy    dyz    dz2    dxz  x2-y2    tot
    1  0.009  0.009  0.050  0.009  0.000  0.000  0.000  0.000  0.000  0.076
    2  0.009  0.009  0.050  0.009  0.000  0.000  0.000  0.000  0.000  0.076
tot    0.018  0.017  0.099  0.017  0.000  0.000  0.000  0.000  0.000  0.152
 
band     8 # energy   12.87072737 # occ.  0.00000000
 
ion      s     py     pz     px    dxy    dyz    dz2    dxz  x2-y2    tot
    1  0.069  0.056  0.035  0.056  0.000  0.000  0.000  0.000  0.000  0.216
    2  0.069  0.056  0.035  0.056  0.000  0.000  0.000  0.000  0.000  0.216
tot    0.137  0.112  0.070  0.112  0.000  0.000  0.000  0.000  0.000  0.432
 
band     9 # energy   13.01770960 # occ.  0.00000000
 
ion      s     py     pz     px    dxy    dyz    dz2    dxz  x2-y2    tot
    1  0.038  0.036  0.080  0.036  0.000  0.000  0.000  0.000  0.000  0.191
    2  0.038  0.036  0.080  0.036  0.000  0.000  0.000  0.000  0.000  0.191
tot    0.077  0.072  0.160  0.072  0.000  0.000  0.000  0.000  0.000  0.381
 
band    10 # energy   13.09817870 # occ.  0.00000000
 
ion      s     py     pz     px    dxy    dyz    dz2    dxz  x2-y2    tot
    1  0.000  0.006  0.000  0.006  0.000  0.000  0.000  0.000  0.000  0.012
    2  0.000  0.006  0.000  0.006  0.000  0.000  0.000  0.000  0.000  0.012
tot    0.000  0.012  0.000  0.012  0.000  0.000  0.000  0.000  0.000  0.024
 
band    11 # energy   19.70657538 # occ.  0.00000000
 
ion      s     py     pz     px    dxy    dyz    dz2    dxz  x2-y2    tot
    1  0.019  0.007  0.008  0.007  0.000  0.000  0.000  0.000  0.000  0.042
    2  0.019  0.007  0.008  0.007  0.000  0.000  0.000  0.000  0.000  0.042
tot    0.037  0.015  0.017  0.015  0.000  0.000  0.000  0.000  0.000  0.083
 
band    12 # energy   20.28723562 # occ.  0.00000000
 
ion      s     py     pz     px    dxy    dyz    dz2    dxz  x2-y2    tot
    1  0.019  0.010  0.020  0.010  0.000  0.000  0.000  0.000  0.000  0.058
    2  0.019  0.010  0.020  0.010  0.000  0.000  0.000  0.000  0.000  0.058
tot    0.038  0.019  0.040  0.019  0.000  0.000  0.000  0.000  0.000  0.117
 

 k-point   152 :    0.30000000 0.30000000 0.60000000     weight = 0.00555556

band     1 # energy   -3.33436965 # occ.  2.00000000
 
ion      s     py     pz     px    dxy    dyz    dz2    dxz  x2-y2    tot
    1  0.212  0.009  0.006  0.009  0.000  0.000  0.000  0.000  0.000  0.237
    2  0.212  0.009  0.006  0.009  0.000  0.000  0.000  0.000  0.000  0.237
tot    0.424  0.018  0.013  0.018  0.000  0.000  0.000  0.000  0.000  0.473
 
band     2 # energy   -0.47983270 # occ.  2.00000000
 
ion      s     py     pz     px    dxy    dyz    dz2    dxz  x2-y2    tot
    1  0.168  0.014  0.042  0.014  0.000  0.000  0.000  0.000  0.000  0.239
    2  0.168  0.014  0.042  0.014  0.000  0.000  0.000  0.000  0.000  0.239
tot    0.336  0.029  0.083  0.029  0.000  0.000  0.000  0.000  0.000  0.477
 
band     3 # energy    1.56773930 # occ.  2.00000000
 
ion      s     py     pz     px    dxy    dyz    dz2    dxz  x2-y2    tot
    1  0.009  0.041  0.069  0.041  0.000  0.000  0.000  0.000  0.000  0.160
    2  0.009  0.041  0.069  0.041  0.000  0.000  0.000  0.000  0.000  0.160
tot    0.017  0.082  0.139  0.082  0.000  0.000  0.000  0.000  0.000  0.319
 
band     4 # energy    4.01736513 # occ.  2.00000000
 
ion      s     py     pz     px    dxy    dyz    dz2    dxz  x2-y2    tot
    1  0.000  0.103  0.000  0.103  0.000  0.000  0.000  0.000  0.000  0.206
    2  0.000  0.103  0.000  0.103  0.000  0.000  0.000  0.000  0.000  0.206
tot    0.000  0.206  0.000  0.206  0.000  0.000  0.000  0.000  0.000  0.413
 
band     5 # energy    7.74079075 # occ.  0.00000000
 
ion      s     py     pz     px    dxy    dyz    dz2    dxz  x2-y2    tot
    1  0.056  0.002  0.048  0.002  0.000  0.000  0.000  0.000  0.000  0.108
    2  0.056  0.002  0.048  0.002  0.000  0.000  0.000  0.000  0.000  0.108
tot    0.113  0.003  0.096  0.003  0.000  0.000  0.000  0.000  0.000  0.215
 
band     6 # energy   11.58547061 # occ.  0.00000000
 
ion      s     py     pz     px    dxy    dyz    dz2    dxz  x2-y2    tot
    1  0.000  0.075  0.000  0.075  0.000  0.000  0.000  0.000  0.000  0.150
    2  0.000  0.075  0.000  0.075  0.000  0.000  0.000  0.000  0.000  0.150
tot    0.000  0.150  0.000  0.150  0.000  0.000  0.000  0.000  0.000  0.300
 
band     7 # energy   11.87869943 # occ.  0.00000000
 
ion      s     py     pz     px    dxy    dyz    dz2    dxz  x2-y2    tot
    1  0.019  0.002  0.077  0.002  0.000  0.000  0.000  0.000  0.000  0.100
    2  0.019  0.002  0.077  0.002  0.000  0.000  0.000  0.000  0.000  0.100
tot    0.037  0.005  0.153  0.005  0.000  0.000  0.000  0.000  0.000  0.200
 
band     8 # energy   12.69146448 # occ.  0.00000000
 
ion      s     py     pz     px    dxy    dyz    dz2    dxz  x2-y2    tot
    1  0.071  0.054  0.034  0.054  0.000  0.000  0.000  0.000  0.000  0.213
    2  0.071  0.054  0.034  0.054  0.000  0.000  0.000  0.000  0.000  0.213
tot    0.141  0.108  0.068  0.108  0.000  0.000  0.000  0.000  0.000  0.425
 
band     9 # energy   12.92465295 # occ.  0.00000000
 
ion      s     py     pz     px    dxy    dyz    dz2    dxz  x2-y2    tot
    1  0.000  0.006  0.000  0.006  0.000  0.000  0.000  0.000  0.000  0.012
    2  0.000  0.006  0.000  0.006  0.000  0.000  0.000  0.000  0.000  0.012
tot    0.000  0.012  0.000  0.012  0.000  0.000  0.000  0.000  0.000  0.023
 
band    10 # energy   13.40169398 # occ.  0.00000000
 
ion      s     py     pz     px    dxy    dyz    dz2    dxz  x2-y2    tot
    1  0.027  0.044  0.055  0.044  0.000  0.000  0.000  0.000  0.000  0.169
    2  0.027  0.044  0.055  0.044  0.000  0.000  0.000  0.000  0.000  0.169
tot    0.054  0.087  0.110  0.087  0.000  0.000  0.000  0.000  0.000  0.339
 
band    11 # energy   19.47280328 # occ.  0.00000000
 
ion      s     py     pz     px    dxy    dyz    dz2    dxz  x2-y2    tot
    1  0.021  0.006  0.007  0.006  0.000  0.000  0.000  0.000  0.000  0.041
    2  0.021  0.006  0.007  0.006  0.000  0.000  0.000  0.000  0.000  0.041
tot    0.042  0.013  0.014  0.013  0.000  0.000  0.000  0.000  0.000  0.082
 
band    12 # energy   20.06685959 # occ.  0.00000000
 
ion      s     py     pz     px    dxy    dyz    dz2    dxz  x2-y2    tot
    1  0.022  0.009  0.019  0.008  0.000  0.000  0.000  0.000  0.000  0.057
    2  0.022  0.009  0.019  0.008  0.000  0.000  0.000  0.000  0.000  0.057
tot    0.043  0.017  0.037  0.017  0.000  0.000  0.000  0.000  0.000  0.114
 

 k-point   153 :    0.28928571 0.28928571 0.57857143     weight = 0.00555556

band     1 # energy   -3.49451260 # occ.  2.00000000
 
ion      s     py     pz     px    dxy    dyz    dz2    dxz  x2-y2    tot
    1  0.211  0.009  0.005  0.009  0.000  0.000  0.000  0.000  0.000  0.235
    2  0.211  0.009  0.005  0.009  0.000  0.000  0.000  0.000  0.000  0.235
tot    0.423  0.018  0.010  0.018  0.000  0.000  0.000  0.000  0.000  0.470
 
band     2 # energy   -0.31604114 # occ.  2.00000000
 
ion      s     py     pz     px    dxy    dyz    dz2    dxz  x2-y2    tot
    1  0.165  0.016  0.041  0.016  0.000  0.000  0.000  0.000  0.000  0.238
    2  0.165  0.016  0.041  0.016  0.000  0.000  0.000  0.000  0.000  0.238
tot    0.331  0.032  0.083  0.032  0.000  0.000  0.000  0.000  0.000  0.477
 
band     3 # energy    1.65178629 # occ.  2.00000000
 
ion      s     py     pz     px    dxy    dyz    dz2    dxz  x2-y2    tot
    1  0.010  0.040  0.072  0.040  0.000  0.000  0.000  0.000  0.000  0.161
    2  0.010  0.040  0.072  0.040  0.000  0.000  0.000  0.000  0.000  0.161
tot    0.020  0.079  0.144  0.079  0.000  0.000  0.000  0.000  0.000  0.323
 
band     4 # energy    4.11883327 # occ.  2.00000000
 
ion      s     py     pz     px    dxy    dyz    dz2    dxz  x2-y2    tot
    1  0.000  0.104  0.000  0.104  0.000  0.000  0.000  0.000  0.000  0.207
    2  0.000  0.104  0.000  0.104  0.000  0.000  0.000  0.000  0.000  0.207
tot    0.000  0.207  0.000  0.207  0.000  0.000  0.000  0.000  0.000  0.415
 
band     5 # energy    7.85663452 # occ.  0.00000000
 
ion      s     py     pz     px    dxy    dyz    dz2    dxz  x2-y2    tot
    1  0.058  0.002  0.050  0.002  0.000  0.000  0.000  0.000  0.000  0.111
    2  0.058  0.002  0.050  0.002  0.000  0.000  0.000  0.000  0.000  0.111
tot    0.115  0.004  0.100  0.004  0.000  0.000  0.000  0.000  0.000  0.222
 
band     6 # energy   11.36604572 # occ.  0.00000000
 
ion      s     py     pz     px    dxy    dyz    dz2    dxz  x2-y2    tot
    1  0.000  0.075  0.000  0.075  0.000  0.000  0.000  0.000  0.000  0.150
    2  0.000  0.075  0.000  0.075  0.000  0.000  0.000  0.000  0.000  0.150
tot    0.000  0.150  0.000  0.150  0.000  0.000  0.000  0.000  0.000  0.299
 
band     7 # energy   11.69091924 # occ.  0.00000000
 
ion      s     py     pz     px    dxy    dyz    dz2    dxz  x2-y2    tot
    1  0.024  0.001  0.089  0.001  0.000  0.000  0.000  0.000  0.000  0.114
    2  0.024  0.001  0.089  0.001  0.000  0.000  0.000  0.000  0.000  0.114
tot    0.047  0.001  0.178  0.001  0.000  0.000  0.000  0.000  0.000  0.228
 
band     8 # energy   12.52075984 # occ.  0.00000000
 
ion      s     py     pz     px    dxy    dyz    dz2    dxz  x2-y2    tot
    1  0.072  0.052  0.033  0.052  0.000  0.000  0.000  0.000  0.000  0.209
    2  0.072  0.052  0.033  0.052  0.000  0.000  0.000  0.000  0.000  0.209
tot    0.145  0.104  0.066  0.104  0.000  0.000  0.000  0.000  0.000  0.418
 
band     9 # energy   12.76280472 # occ.  0.00000000
 
ion      s     py     pz     px    dxy    dyz    dz2    dxz  x2-y2    tot
    1  0.000  0.005  0.000  0.005  0.000  0.000  0.000  0.000  0.000  0.011
    2  0.000  0.005  0.000  0.005  0.000  0.000  0.000  0.000  0.000  0.011
tot    0.000  0.011  0.000  0.011  0.000  0.000  0.000  0.000  0.000  0.022
 
band    10 # energy   13.84355658 # occ.  0.00000000
 
ion      s     py     pz     px    dxy    dyz    dz2    dxz  x2-y2    tot
    1  0.020  0.047  0.044  0.047  0.000  0.000  0.000  0.000  0.000  0.158
    2  0.020  0.047  0.044  0.047  0.000  0.000  0.000  0.000  0.000  0.158
tot    0.040  0.094  0.089  0.094  0.000  0.000  0.000  0.000  0.000  0.316
 
band    11 # energy   19.24512129 # occ.  0.00000000
 
ion      s     py     pz     px    dxy    dyz    dz2    dxz  x2-y2    tot
    1  0.023  0.006  0.006  0.006  0.000  0.000  0.000  0.000  0.000  0.040
    2  0.023  0.006  0.006  0.006  0.000  0.000  0.000  0.000  0.000  0.040
tot    0.046  0.011  0.013  0.011  0.000  0.000  0.000  0.000  0.000  0.081
 
band    12 # energy   19.86051468 # occ.  0.00000000
 
ion      s     py     pz     px    dxy    dyz    dz2    dxz  x2-y2    tot
    1  0.025  0.008  0.017  0.008  0.000  0.000  0.000  0.000  0.000  0.057
    2  0.024  0.007  0.017  0.007  0.000  0.000  0.000  0.000  0.000  0.055
tot    0.048  0.015  0.034  0.015  0.000  0.000  0.000  0.000  0.000  0.112
 

 k-point   154 :    0.27857143 0.27857143 0.55714286     weight = 0.00555556

band     1 # energy   -3.65612143 # occ.  2.00000000
 
ion      s     py     pz     px    dxy    dyz    dz2    dxz  x2-y2    tot
    1  0.211  0.009  0.004  0.009  0.000  0.000  0.000  0.000  0.000  0.233
    2  0.211  0.009  0.004  0.009  0.000  0.000  0.000  0.000  0.000  0.233
tot    0.421  0.018  0.008  0.018  0.000  0.000  0.000  0.000  0.000  0.466
 
band     2 # energy   -0.14407449 # occ.  2.00000000
 
ion      s     py     pz     px    dxy    dyz    dz2    dxz  x2-y2    tot
    1  0.162  0.018  0.041  0.018  0.000  0.000  0.000  0.000  0.000  0.238
    2  0.162  0.018  0.041  0.018  0.000  0.000  0.000  0.000  0.000  0.238
tot    0.325  0.035  0.082  0.035  0.000  0.000  0.000  0.000  0.000  0.477
 
band     3 # energy    1.75105151 # occ.  2.00000000
 
ion      s     py     pz     px    dxy    dyz    dz2    dxz  x2-y2    tot
    1  0.011  0.038  0.075  0.038  0.000  0.000  0.000  0.000  0.000  0.163
    2  0.011  0.038  0.075  0.038  0.000  0.000  0.000  0.000  0.000  0.163
tot    0.022  0.077  0.150  0.077  0.000  0.000  0.000  0.000  0.000  0.326
 
band     4 # energy    4.22250530 # occ.  2.00000000
 
ion      s     py     pz     px    dxy    dyz    dz2    dxz  x2-y2    tot
    1  0.000  0.104  0.000  0.104  0.000  0.000  0.000  0.000  0.000  0.209
    2  0.000  0.104  0.000  0.104  0.000  0.000  0.000  0.000  0.000  0.209
tot    0.000  0.209  0.000  0.209  0.000  0.000  0.000  0.000  0.000  0.417
 
band     5 # energy    7.97384072 # occ.  0.00000000
 
ion      s     py     pz     px    dxy    dyz    dz2    dxz  x2-y2    tot
    1  0.059  0.002  0.052  0.002  0.000  0.000  0.000  0.000  0.000  0.115
    2  0.059  0.002  0.052  0.002  0.000  0.000  0.000  0.000  0.000  0.115
tot    0.118  0.004  0.105  0.004  0.000  0.000  0.000  0.000  0.000  0.230
 
band     6 # energy   11.15381821 # occ.  0.00000000
 
ion      s     py     pz     px    dxy    dyz    dz2    dxz  x2-y2    tot
    1  0.000  0.075  0.000  0.075  0.000  0.000  0.000  0.000  0.000  0.149
    2  0.000  0.075  0.000  0.075  0.000  0.000  0.000  0.000  0.000  0.149
tot    0.000  0.149  0.000  0.149  0.000  0.000  0.000  0.000  0.000  0.299
 
band     7 # energy   11.49118756 # occ.  0.00000000
 
ion      s     py     pz     px    dxy    dyz    dz2    dxz  x2-y2    tot
    1  0.027  0.000  0.096  0.000  0.000  0.000  0.000  0.000  0.000  0.123
    2  0.027  0.000  0.096  0.000  0.000  0.000  0.000  0.000  0.000  0.123
tot    0.053  0.000  0.192  0.000  0.000  0.000  0.000  0.000  0.000  0.245
 
band     8 # energy   12.35958611 # occ.  0.00000000
 
ion      s     py     pz     px    dxy    dyz    dz2    dxz  x2-y2    tot
    1  0.074  0.050  0.031  0.050  0.000  0.000  0.000  0.000  0.000  0.206
    2  0.074  0.050  0.031  0.050  0.000  0.000  0.000  0.000  0.000  0.206
tot    0.147  0.101  0.062  0.101  0.000  0.000  0.000  0.000  0.000  0.411
 
band     9 # energy   12.61298637 # occ.  0.00000000
 
ion      s     py     pz     px    dxy    dyz    dz2    dxz  x2-y2    tot
    1  0.000  0.005  0.000  0.005  0.000  0.000  0.000  0.000  0.000  0.010
    2  0.000  0.005  0.000  0.005  0.000  0.000  0.000  0.000  0.000  0.010
tot    0.000  0.010  0.000  0.010  0.000  0.000  0.000  0.000  0.000  0.020
 
band    10 # energy   14.30036836 # occ.  0.00000000
 
ion      s     py     pz     px    dxy    dyz    dz2    dxz  x2-y2    tot
    1  0.015  0.049  0.040  0.049  0.000  0.000  0.000  0.000  0.000  0.152
    2  0.015  0.049  0.040  0.049  0.000  0.000  0.000  0.000  0.000  0.152
tot    0.029  0.098  0.079  0.098  0.000  0.000  0.000  0.000  0.000  0.304
 
band    11 # energy   19.02407390 # occ.  0.00000000
 
ion      s     py     pz     px    dxy    dyz    dz2    dxz  x2-y2    tot
    1  0.025  0.005  0.006  0.006  0.000  0.000  0.000  0.000  0.000  0.043
    2  0.025  0.006  0.006  0.005  0.000  0.000  0.000  0.000  0.000  0.043
tot    0.051  0.011  0.013  0.011  0.000  0.000  0.000  0.000  0.000  0.085
 
band    12 # energy   19.67208978 # occ.  0.00000000
 
ion      s     py     pz     px    dxy    dyz    dz2    dxz  x2-y2    tot
    1  0.026  0.005  0.017  0.005  0.000  0.000  0.000  0.000  0.000  0.052
    2  0.029  0.007  0.014  0.007  0.000  0.000  0.000  0.000  0.000  0.057
tot    0.054  0.012  0.030  0.012  0.000  0.000  0.000  0.000  0.000  0.109
 

 k-point   155 :    0.26785714 0.26785714 0.53571429     weight = 0.00555556

band     1 # energy   -3.81781510 # occ.  2.00000000
 
ion      s     py     pz     px    dxy    dyz    dz2    dxz  x2-y2    tot
    1  0.210  0.009  0.003  0.009  0.000  0.000  0.000  0.000  0.000  0.231
    2  0.210  0.009  0.003  0.009  0.000  0.000  0.000  0.000  0.000  0.231
tot    0.420  0.018  0.007  0.018  0.000  0.000  0.000  0.000  0.000  0.463
 
band     2 # energy    0.03600068 # occ.  2.00000000
 
ion      s     py     pz     px    dxy    dyz    dz2    dxz  x2-y2    tot
    1  0.159  0.019  0.040  0.019  0.000  0.000  0.000  0.000  0.000  0.238
    2  0.159  0.019  0.040  0.019  0.000  0.000  0.000  0.000  0.000  0.238
tot    0.319  0.038  0.081  0.038  0.000  0.000  0.000  0.000  0.000  0.476
 
band     3 # energy    1.86418364 # occ.  2.00000000
 
ion      s     py     pz     px    dxy    dyz    dz2    dxz  x2-y2    tot
    1  0.012  0.038  0.077  0.038  0.000  0.000  0.000  0.000  0.000  0.165
    2  0.012  0.038  0.077  0.038  0.000  0.000  0.000  0.000  0.000  0.165
tot    0.024  0.075  0.155  0.075  0.000  0.000  0.000  0.000  0.000  0.329
 
band     4 # energy    4.32779805 # occ.  2.00000000
 
ion      s     py     pz     px    dxy    dyz    dz2    dxz  x2-y2    tot
    1  0.000  0.105  0.000  0.105  0.000  0.000  0.000  0.000  0.000  0.210
    2  0.000  0.105  0.000  0.105  0.000  0.000  0.000  0.000  0.000  0.210
tot    0.000  0.210  0.000  0.210  0.000  0.000  0.000  0.000  0.000  0.420
 
band     5 # energy    8.09119821 # occ.  0.00000000
 
ion      s     py     pz     px    dxy    dyz    dz2    dxz  x2-y2    tot
    1  0.061  0.002  0.055  0.002  0.000  0.000  0.000  0.000  0.000  0.119
    2  0.061  0.002  0.055  0.002  0.000  0.000  0.000  0.000  0.000  0.119
tot    0.121  0.004  0.110  0.004  0.000  0.000  0.000  0.000  0.000  0.239
 
band     6 # energy   10.94891153 # occ.  0.00000000
 
ion      s     py     pz     px    dxy    dyz    dz2    dxz  x2-y2    tot
    1  0.000  0.075  0.000  0.075  0.000  0.000  0.000  0.000  0.000  0.149
    2  0.000  0.075  0.000  0.075  0.000  0.000  0.000  0.000  0.000  0.149
tot    0.000  0.149  0.000  0.149  0.000  0.000  0.000  0.000  0.000  0.298
 
band     7 # energy   11.29074853 # occ.  0.00000000
 
ion      s     py     pz     px    dxy    dyz    dz2    dxz  x2-y2    tot
    1  0.028  0.000  0.100  0.000  0.000  0.000  0.000  0.000  0.000  0.129
    2  0.028  0.000  0.100  0.000  0.000  0.000  0.000  0.000  0.000  0.129
tot    0.057  0.000  0.200  0.000  0.000  0.000  0.000  0.000  0.000  0.257
 
band     8 # energy   12.20901454 # occ.  0.00000000
 
ion      s     py     pz     px    dxy    dyz    dz2    dxz  x2-y2    tot
    1  0.075  0.049  0.029  0.049  0.000  0.000  0.000  0.000  0.000  0.201
    2  0.075  0.049  0.029  0.049  0.000  0.000  0.000  0.000  0.000  0.201
tot    0.149  0.098  0.058  0.098  0.000  0.000  0.000  0.000  0.000  0.403
 
band     9 # energy   12.47581333 # occ.  0.00000000
 
ion      s     py     pz     px    dxy    dyz    dz2    dxz  x2-y2    tot
    1  0.000  0.005  0.000  0.005  0.000  0.000  0.000  0.000  0.000  0.009
    2  0.000  0.005  0.000  0.005  0.000  0.000  0.000  0.000  0.000  0.009
tot    0.000  0.009  0.000  0.009  0.000  0.000  0.000  0.000  0.000  0.019
 
band    10 # energy   14.75531312 # occ.  0.00000000
 
ion      s     py     pz     px    dxy    dyz    dz2    dxz  x2-y2    tot
    1  0.010  0.051  0.038  0.051  0.000  0.000  0.000  0.000  0.000  0.149
    2  0.010  0.051  0.038  0.051  0.000  0.000  0.000  0.000  0.000  0.149
tot    0.021  0.101  0.075  0.101  0.000  0.000  0.000  0.000  0.000  0.298
 
band    11 # energy   18.80890663 # occ.  0.00000000
 
ion      s     py     pz     px    dxy    dyz    dz2    dxz  x2-y2    tot
    1  0.028  0.006  0.006  0.006  0.000  0.000  0.000  0.000  0.000  0.046
    2  0.028  0.006  0.006  0.006  0.000  0.000  0.000  0.000  0.000  0.046
tot    0.057  0.011  0.013  0.011  0.000  0.000  0.000  0.000  0.000  0.092
 
band    12 # energy   19.50488376 # occ.  0.00000000
 
ion      s     py     pz     px    dxy    dyz    dz2    dxz  x2-y2    tot
    1  0.030  0.004  0.013  0.004  0.000  0.000  0.000  0.000  0.000  0.051
    2  0.031  0.005  0.013  0.005  0.000  0.000  0.000  0.000  0.000  0.053
tot    0.060  0.009  0.026  0.009  0.000  0.000  0.000  0.000  0.000  0.105
 

 k-point   156 :    0.25714286 0.25714286 0.51428571     weight = 0.00555556

band     1 # energy   -3.97839833 # occ.  2.00000000
 
ion      s     py     pz     px    dxy    dyz    dz2    dxz  x2-y2    tot
    1  0.210  0.009  0.003  0.009  0.000  0.000  0.000  0.000  0.000  0.230
    2  0.210  0.009  0.003  0.009  0.000  0.000  0.000  0.000  0.000  0.230
tot    0.419  0.017  0.005  0.017  0.000  0.000  0.000  0.000  0.000  0.459
 
band     2 # energy    0.22409252 # occ.  2.00000000
 
ion      s     py     pz     px    dxy    dyz    dz2    dxz  x2-y2    tot
    1  0.156  0.021  0.040  0.021  0.000  0.000  0.000  0.000  0.000  0.238
    2  0.156  0.021  0.040  0.021  0.000  0.000  0.000  0.000  0.000  0.238
tot    0.312  0.042  0.080  0.042  0.000  0.000  0.000  0.000  0.000  0.476
 
band     3 # energy    1.98995245 # occ.  2.00000000
 
ion      s     py     pz     px    dxy    dyz    dz2    dxz  x2-y2    tot
    1  0.013  0.037  0.080  0.037  0.000  0.000  0.000  0.000  0.000  0.166
    2  0.013  0.037  0.080  0.037  0.000  0.000  0.000  0.000  0.000  0.166
tot    0.026  0.074  0.160  0.074  0.000  0.000  0.000  0.000  0.000  0.333
 
band     4 # energy    4.43405176 # occ.  2.00000000
 
ion      s     py     pz     px    dxy    dyz    dz2    dxz  x2-y2    tot
    1  0.000  0.106  0.000  0.106  0.000  0.000  0.000  0.000  0.000  0.211
    2  0.000  0.106  0.000  0.106  0.000  0.000  0.000  0.000  0.000  0.211
tot    0.000  0.211  0.000  0.211  0.000  0.000  0.000  0.000  0.000  0.422
 
band     5 # energy    8.20729958 # occ.  0.00000000
 
ion      s     py     pz     px    dxy    dyz    dz2    dxz  x2-y2    tot
    1  0.063  0.002  0.058  0.002  0.000  0.000  0.000  0.000  0.000  0.124
    2  0.063  0.002  0.058  0.002  0.000  0.000  0.000  0.000  0.000  0.124
tot    0.126  0.004  0.116  0.004  0.000  0.000  0.000  0.000  0.000  0.249
 
band     6 # energy   10.75146433 # occ.  0.00000000
 
ion      s     py     pz     px    dxy    dyz    dz2    dxz  x2-y2    tot
    1  0.000  0.075  0.000  0.075  0.000  0.000  0.000  0.000  0.000  0.149
    2  0.000  0.075  0.000  0.075  0.000  0.000  0.000  0.000  0.000  0.149
tot    0.000  0.149  0.000  0.149  0.000  0.000  0.000  0.000  0.000  0.298
 
band     7 # energy   11.09360041 # occ.  0.00000000
 
ion      s     py     pz     px    dxy    dyz    dz2    dxz  x2-y2    tot
    1  0.030  0.000  0.103  0.000  0.000  0.000  0.000  0.000  0.000  0.133
    2  0.030  0.000  0.103  0.000  0.000  0.000  0.000  0.000  0.000  0.133
tot    0.059  0.001  0.206  0.001  0.000  0.000  0.000  0.000  0.000  0.266
 
band     8 # energy   12.07015241 # occ.  0.00000000
 
ion      s     py     pz     px    dxy    dyz    dz2    dxz  x2-y2    tot
    1  0.075  0.048  0.027  0.048  0.000  0.000  0.000  0.000  0.000  0.197
    2  0.075  0.048  0.027  0.048  0.000  0.000  0.000  0.000  0.000  0.197
tot    0.150  0.095  0.053  0.095  0.000  0.000  0.000  0.000  0.000  0.394
 
band     9 # energy   12.35207587 # occ.  0.00000000
 
ion      s     py     pz     px    dxy    dyz    dz2    dxz  x2-y2    tot
    1  0.000  0.004  0.000  0.004  0.000  0.000  0.000  0.000  0.000  0.008
    2  0.000  0.004  0.000  0.004  0.000  0.000  0.000  0.000  0.000  0.008
tot    0.000  0.008  0.000  0.008  0.000  0.000  0.000  0.000  0.000  0.017
 
band    10 # energy   15.19554049 # occ.  0.00000000
 
ion      s     py     pz     px    dxy    dyz    dz2    dxz  x2-y2    tot
    1  0.007  0.052  0.037  0.052  0.000  0.000  0.000  0.000  0.000  0.148
    2  0.007  0.052  0.037  0.052  0.000  0.000  0.000  0.000  0.000  0.148
tot    0.013  0.104  0.074  0.104  0.000  0.000  0.000  0.000  0.000  0.296
 
band    11 # energy   18.59922917 # occ.  0.00000000
 
ion      s     py     pz     px    dxy    dyz    dz2    dxz  x2-y2    tot
    1  0.034  0.006  0.007  0.006  0.000  0.000  0.000  0.000  0.000  0.054
    2  0.032  0.006  0.008  0.006  0.000  0.000  0.000  0.000  0.000  0.052
tot    0.065  0.013  0.015  0.013  0.000  0.000  0.000  0.000  0.000  0.106
 
band    12 # energy   19.36860258 # occ.  0.00000000
 
ion      s     py     pz     px    dxy    dyz    dz2    dxz  x2-y2    tot
    1  0.011  0.016  0.026  0.016  0.000  0.000  0.000  0.000  0.000  0.069
    2  0.046  0.032  0.006  0.032  0.000  0.000  0.000  0.000  0.000  0.116
tot    0.057  0.048  0.032  0.048  0.000  0.000  0.000  0.000  0.000  0.185
 

 k-point   157 :    0.24642857 0.24642857 0.49285714     weight = 0.00555556

band     1 # energy   -4.13683582 # occ.  2.00000000
 
ion      s     py     pz     px    dxy    dyz    dz2    dxz  x2-y2    tot
    1  0.209  0.008  0.002  0.008  0.000  0.000  0.000  0.000  0.000  0.228
    2  0.209  0.008  0.002  0.008  0.000  0.000  0.000  0.000  0.000  0.228
tot    0.418  0.017  0.004  0.017  0.000  0.000  0.000  0.000  0.000  0.456
 
band     2 # energy    0.42012617 # occ.  2.00000000
 
ion      s     py     pz     px    dxy    dyz    dz2    dxz  x2-y2    tot
    1  0.153  0.023  0.039  0.023  0.000  0.000  0.000  0.000  0.000  0.238
    2  0.153  0.023  0.039  0.023  0.000  0.000  0.000  0.000  0.000  0.238
tot    0.306  0.046  0.079  0.046  0.000  0.000  0.000  0.000  0.000  0.476
 
band     3 # energy    2.12725387 # occ.  2.00000000
 
ion      s     py     pz     px    dxy    dyz    dz2    dxz  x2-y2    tot
    1  0.014  0.036  0.082  0.036  0.000  0.000  0.000  0.000  0.000  0.168
    2  0.014  0.036  0.082  0.036  0.000  0.000  0.000  0.000  0.000  0.168
tot    0.027  0.072  0.165  0.072  0.000  0.000  0.000  0.000  0.000  0.336
 
band     4 # energy    4.54057584 # occ.  2.00000000
 
ion      s     py     pz     px    dxy    dyz    dz2    dxz  x2-y2    tot
    1  0.000  0.106  0.000  0.106  0.000  0.000  0.000  0.000  0.000  0.212
    2  0.000  0.106  0.000  0.106  0.000  0.000  0.000  0.000  0.000  0.212
tot    0.000  0.212  0.000  0.212  0.000  0.000  0.000  0.000  0.000  0.425
 
band     5 # energy    8.32060749 # occ.  0.00000000
 
ion      s     py     pz     px    dxy    dyz    dz2    dxz  x2-y2    tot
    1  0.065  0.002  0.061  0.002  0.000  0.000  0.000  0.000  0.000  0.130
    2  0.065  0.002  0.061  0.002  0.000  0.000  0.000  0.000  0.000  0.130
tot    0.131  0.003  0.122  0.003  0.000  0.000  0.000  0.000  0.000  0.260
 
band     6 # energy   10.56153074 # occ.  0.00000000
 
ion      s     py     pz     px    dxy    dyz    dz2    dxz  x2-y2    tot
    1  0.000  0.074  0.000  0.074  0.000  0.000  0.000  0.000  0.000  0.149
    2  0.000  0.074  0.000  0.075  0.000  0.000  0.000  0.000  0.000  0.149
tot    0.000  0.149  0.000  0.149  0.000  0.000  0.000  0.000  0.000  0.298
 
band     7 # energy   10.90157033 # occ.  0.00000000
 
ion      s     py     pz     px    dxy    dyz    dz2    dxz  x2-y2    tot
    1  0.031  0.001  0.105  0.001  0.000  0.000  0.000  0.000  0.000  0.137
    2  0.031  0.001  0.105  0.001  0.000  0.000  0.000  0.000  0.000  0.137
tot    0.061  0.001  0.209  0.001  0.000  0.000  0.000  0.000  0.000  0.273
 
band     8 # energy   11.94430903 # occ.  0.00000000
 
ion      s     py     pz     px    dxy    dyz    dz2    dxz  x2-y2    tot
    1  0.075  0.046  0.024  0.046  0.000  0.000  0.000  0.000  0.000  0.192
    2  0.075  0.046  0.024  0.046  0.000  0.000  0.000  0.000  0.000  0.192
tot    0.150  0.093  0.048  0.093  0.000  0.000  0.000  0.000  0.000  0.384
 
band     9 # energy   12.24223728 # occ.  0.00000000
 
ion      s     py     pz     px    dxy    dyz    dz2    dxz  x2-y2    tot
    1  0.000  0.004  0.000  0.004  0.000  0.000  0.000  0.000  0.000  0.007
    2  0.000  0.004  0.000  0.004  0.000  0.000  0.000  0.000  0.000  0.007
tot    0.000  0.007  0.000  0.007  0.000  0.000  0.000  0.000  0.000  0.015
 
band    10 # energy   15.60641126 # occ.  0.00000000
 
ion      s     py     pz     px    dxy    dyz    dz2    dxz  x2-y2    tot
    1  0.003  0.053  0.038  0.053  0.000  0.000  0.000  0.000  0.000  0.147
    2  0.003  0.053  0.038  0.053  0.000  0.000  0.000  0.000  0.000  0.147
tot    0.007  0.106  0.076  0.106  0.000  0.000  0.000  0.000  0.000  0.295
 
band    11 # energy   18.38489884 # occ.  0.00000000
 
ion      s     py     pz     px    dxy    dyz    dz2    dxz  x2-y2    tot
    1  0.042  0.010  0.010  0.010  0.000  0.000  0.000  0.000  0.000  0.073
    2  0.042  0.010  0.010  0.010  0.000  0.000  0.000  0.000  0.000  0.073
tot    0.084  0.021  0.021  0.021  0.000  0.000  0.000  0.000  0.000  0.146
 
band    12 # energy   18.93061260 # occ.  0.00000000
 
ion      s     py     pz     px    dxy    dyz    dz2    dxz  x2-y2    tot
    1  0.038  0.043  0.008  0.043  0.000  0.000  0.000  0.000  0.000  0.133
    2  0.003  0.031  0.024  0.030  0.000  0.000  0.000  0.000  0.000  0.089
tot    0.041  0.074  0.032  0.074  0.000  0.000  0.000  0.000  0.000  0.222
 

 k-point   158 :    0.23571429 0.23571429 0.47142857     weight = 0.00555556

band     1 # energy   -4.29224959 # occ.  2.00000000
 
ion      s     py     pz     px    dxy    dyz    dz2    dxz  x2-y2    tot
    1  0.209  0.008  0.002  0.008  0.000  0.000  0.000  0.000  0.000  0.227
    2  0.209  0.008  0.002  0.008  0.000  0.000  0.000  0.000  0.000  0.227
tot    0.418  0.016  0.003  0.016  0.000  0.000  0.000  0.000  0.000  0.453
 
band     2 # energy    0.62400435 # occ.  2.00000000
 
ion      s     py     pz     px    dxy    dyz    dz2    dxz  x2-y2    tot
    1  0.149  0.025  0.039  0.025  0.000  0.000  0.000  0.000  0.000  0.238
    2  0.149  0.025  0.039  0.025  0.000  0.000  0.000  0.000  0.000  0.238
tot    0.299  0.050  0.077  0.050  0.000  0.000  0.000  0.000  0.000  0.475
 
band     3 # energy    2.27507702 # occ.  2.00000000
 
ion      s     py     pz     px    dxy    dyz    dz2    dxz  x2-y2    tot
    1  0.014  0.036  0.085  0.036  0.000  0.000  0.000  0.000  0.000  0.170
    2  0.014  0.036  0.085  0.036  0.000  0.000  0.000  0.000  0.000  0.170
tot    0.028  0.071  0.170  0.071  0.000  0.000  0.000  0.000  0.000  0.340
 
band     4 # energy    4.64666254 # occ.  2.00000000
 
ion      s     py     pz     px    dxy    dyz    dz2    dxz  x2-y2    tot
    1  0.000  0.107  0.000  0.107  0.000  0.000  0.000  0.000  0.000  0.214
    2  0.000  0.107  0.000  0.107  0.000  0.000  0.000  0.000  0.000  0.214
tot    0.000  0.214  0.000  0.214  0.000  0.000  0.000  0.000  0.000  0.427
 
band     5 # energy    8.42898270 # occ.  0.00000000
 
ion      s     py     pz     px    dxy    dyz    dz2    dxz  x2-y2    tot
    1  0.068  0.002  0.065  0.002  0.000  0.000  0.000  0.000  0.000  0.136
    2  0.068  0.002  0.065  0.002  0.000  0.000  0.000  0.000  0.000  0.136
tot    0.137  0.003  0.130  0.003  0.000  0.000  0.000  0.000  0.000  0.273
 
band     6 # energy   10.37927851 # occ.  0.00000000
 
ion      s     py     pz     px    dxy    dyz    dz2    dxz  x2-y2    tot
    1  0.000  0.074  0.000  0.074  0.000  0.000  0.000  0.000  0.000  0.149
    2  0.000  0.074  0.000  0.074  0.000  0.000  0.000  0.000  0.000  0.149
tot    0.000  0.149  0.000  0.149  0.000  0.000  0.000  0.000  0.000  0.298
 
band     7 # energy   10.71558813 # occ.  0.00000000
 
ion      s     py     pz     px    dxy    dyz    dz2    dxz  x2-y2    tot
    1  0.031  0.001  0.106  0.001  0.000  0.000  0.000  0.000  0.000  0.140
    2  0.031  0.001  0.106  0.001  0.000  0.000  0.000  0.000  0.000  0.140
tot    0.062  0.003  0.212  0.003  0.000  0.000  0.000  0.000  0.000  0.279
 
band     8 # energy   11.83269343 # occ.  0.00000000
 
ion      s     py     pz     px    dxy    dyz    dz2    dxz  x2-y2    tot
    1  0.075  0.046  0.021  0.046  0.000  0.000  0.000  0.000  0.000  0.187
    2  0.075  0.046  0.021  0.046  0.000  0.000  0.000  0.000  0.000  0.187
tot    0.150  0.091  0.042  0.091  0.000  0.000  0.000  0.000  0.000  0.374
 
band     9 # energy   12.14739033 # occ.  0.00000000
 
ion      s     py     pz     px    dxy    dyz    dz2    dxz  x2-y2    tot
    1  0.000  0.003  0.000  0.003  0.000  0.000  0.000  0.000  0.000  0.006
    2  0.000  0.003  0.000  0.003  0.000  0.000  0.000  0.000  0.000  0.006
tot    0.000  0.006  0.000  0.006  0.000  0.000  0.000  0.000  0.000  0.013
 
band    10 # energy   15.96832543 # occ.  0.00000000
 
ion      s     py     pz     px    dxy    dyz    dz2    dxz  x2-y2    tot
    1  0.001  0.054  0.039  0.054  0.000  0.000  0.000  0.000  0.000  0.147
    2  0.001  0.054  0.039  0.054  0.000  0.000  0.000  0.000  0.000  0.147
tot    0.002  0.107  0.078  0.107  0.000  0.000  0.000  0.000  0.000  0.295
 
band    11 # energy   18.12598573 # occ.  0.00000000
 
ion      s     py     pz     px    dxy    dyz    dz2    dxz  x2-y2    tot
    1  0.061  0.026  0.019  0.026  0.000  0.000  0.000  0.000  0.000  0.133
    2  0.060  0.026  0.019  0.026  0.000  0.000  0.000  0.000  0.000  0.132
tot    0.121  0.053  0.039  0.053  0.000  0.000  0.000  0.000  0.000  0.265
 
band    12 # energy   18.43452688 # occ.  0.00000000
 
ion      s     py     pz     px    dxy    dyz    dz2    dxz  x2-y2    tot
    1  0.003  0.025  0.008  0.025  0.000  0.000  0.000  0.000  0.000  0.059
    2  0.004  0.024  0.007  0.025  0.000  0.000  0.000  0.000  0.000  0.060
tot    0.006  0.049  0.015  0.049  0.000  0.000  0.000  0.000  0.000  0.119
 

 k-point   159 :    0.22500000 0.22500000 0.45000000     weight = 0.00555556

band     1 # energy   -4.44388087 # occ.  2.00000000
 
ion      s     py     pz     px    dxy    dyz    dz2    dxz  x2-y2    tot
    1  0.209  0.008  0.001  0.008  0.000  0.000  0.000  0.000  0.000  0.225
    2  0.209  0.008  0.001  0.008  0.000  0.000  0.000  0.000  0.000  0.225
tot    0.418  0.015  0.003  0.015  0.000  0.000  0.000  0.000  0.000  0.451
 
band     2 # energy    0.83561920 # occ.  2.00000000
 
ion      s     py     pz     px    dxy    dyz    dz2    dxz  x2-y2    tot
    1  0.146  0.027  0.038  0.027  0.000  0.000  0.000  0.000  0.000  0.237
    2  0.146  0.027  0.038  0.027  0.000  0.000  0.000  0.000  0.000  0.237
tot    0.291  0.054  0.076  0.054  0.000  0.000  0.000  0.000  0.000  0.475
 
band     3 # energy    2.43248870 # occ.  2.00000000
 
ion      s     py     pz     px    dxy    dyz    dz2    dxz  x2-y2    tot
    1  0.014  0.035  0.087  0.035  0.000  0.000  0.000  0.000  0.000  0.172
    2  0.014  0.035  0.087  0.035  0.000  0.000  0.000  0.000  0.000  0.172
tot    0.028  0.070  0.175  0.070  0.000  0.000  0.000  0.000  0.000  0.343
 
band     4 # energy    4.75153809 # occ.  2.00000000
 
ion      s     py     pz     px    dxy    dyz    dz2    dxz  x2-y2    tot
    1  0.000  0.107  0.000  0.107  0.000  0.000  0.000  0.000  0.000  0.215
    2  0.000  0.107  0.000  0.107  0.000  0.000  0.000  0.000  0.000  0.215
tot    0.000  0.215  0.000  0.215  0.000  0.000  0.000  0.000  0.000  0.430
 
band     5 # energy    8.53046842 # occ.  0.00000000
 
ion      s     py     pz     px    dxy    dyz    dz2    dxz  x2-y2    tot
    1  0.072  0.001  0.069  0.001  0.000  0.000  0.000  0.000  0.000  0.143
    2  0.072  0.001  0.069  0.001  0.000  0.000  0.000  0.000  0.000  0.143
tot    0.143  0.003  0.138  0.003  0.000  0.000  0.000  0.000  0.000  0.287
 
band     6 # energy   10.20474817 # occ.  0.00000000
 
ion      s     py     pz     px    dxy    dyz    dz2    dxz  x2-y2    tot
    1  0.000  0.075  0.000  0.075  0.000  0.000  0.000  0.000  0.000  0.149
    2  0.000  0.075  0.000  0.075  0.000  0.000  0.000  0.000  0.000  0.149
tot    0.000  0.149  0.000  0.149  0.000  0.000  0.000  0.000  0.000  0.298
 
band     7 # energy   10.53612300 # occ.  0.00000000
 
ion      s     py     pz     px    dxy    dyz    dz2    dxz  x2-y2    tot
    1  0.031  0.002  0.107  0.002  0.000  0.000  0.000  0.000  0.000  0.142
    2  0.031  0.002  0.107  0.002  0.000  0.000  0.000  0.000  0.000  0.142
tot    0.063  0.004  0.213  0.004  0.000  0.000  0.000  0.000  0.000  0.285
 
band     8 # energy   11.73664524 # occ.  0.00000000
 
ion      s     py     pz     px    dxy    dyz    dz2    dxz  x2-y2    tot
    1  0.074  0.045  0.018  0.045  0.000  0.000  0.000  0.000  0.000  0.182
    2  0.074  0.045  0.018  0.045  0.000  0.000  0.000  0.000  0.000  0.182
tot    0.148  0.090  0.035  0.090  0.000  0.000  0.000  0.000  0.000  0.363
 
band     9 # energy   12.06806616 # occ.  0.00000000
 
ion      s     py     pz     px    dxy    dyz    dz2    dxz  x2-y2    tot
    1  0.000  0.003  0.000  0.003  0.000  0.000  0.000  0.000  0.000  0.005
    2  0.000  0.003  0.000  0.003  0.000  0.000  0.000  0.000  0.000  0.005
tot    0.000  0.005  0.000  0.005  0.000  0.000  0.000  0.000  0.000  0.011
 
band    10 # energy   16.25756366 # occ.  0.00000000
 
ion      s     py     pz     px    dxy    dyz    dz2    dxz  x2-y2    tot
    1  0.000  0.053  0.040  0.053  0.000  0.000  0.000  0.000  0.000  0.146
    2  0.000  0.053  0.040  0.053  0.000  0.000  0.000  0.000  0.000  0.146
tot    0.000  0.106  0.080  0.106  0.000  0.000  0.000  0.000  0.000  0.293
 
band    11 # energy   17.73177410 # occ.  0.00000000
 
ion      s     py     pz     px    dxy    dyz    dz2    dxz  x2-y2    tot
    1  0.064  0.043  0.026  0.043  0.000  0.000  0.000  0.000  0.000  0.176
    2  0.064  0.043  0.026  0.043  0.000  0.000  0.000  0.000  0.000  0.176
tot    0.129  0.086  0.051  0.086  0.000  0.000  0.000  0.000  0.000  0.352
 
band    12 # energy   18.14744637 # occ.  0.00000000
 
ion      s     py     pz     px    dxy    dyz    dz2    dxz  x2-y2    tot
    1  0.003  0.005  0.000  0.005  0.000  0.000  0.000  0.000  0.000  0.014
    2  0.003  0.005  0.000  0.005  0.000  0.000  0.000  0.000  0.000  0.014
tot    0.006  0.011  0.000  0.011  0.000  0.000  0.000  0.000  0.000  0.028
 

 k-point   160 :    0.21428571 0.21428571 0.42857143     weight = 0.00555556

band     1 # energy   -4.59107751 # occ.  2.00000000
 
ion      s     py     pz     px    dxy    dyz    dz2    dxz  x2-y2    tot
    1  0.209  0.007  0.001  0.007  0.000  0.000  0.000  0.000  0.000  0.224
    2  0.209  0.007  0.001  0.007  0.000  0.000  0.000  0.000  0.000  0.224
tot    0.418  0.014  0.002  0.014  0.000  0.000  0.000  0.000  0.000  0.448
 
band     2 # energy    1.05484490 # occ.  2.00000000
 
ion      s     py     pz     px    dxy    dyz    dz2    dxz  x2-y2    tot
    1  0.142  0.029  0.038  0.029  0.000  0.000  0.000  0.000  0.000  0.237
    2  0.142  0.029  0.038  0.029  0.000  0.000  0.000  0.000  0.000  0.237
tot    0.284  0.058  0.075  0.058  0.000  0.000  0.000  0.000  0.000  0.474
 
band     3 # energy    2.59860897 # occ.  2.00000000
 
ion      s     py     pz     px    dxy    dyz    dz2    dxz  x2-y2    tot
    1  0.014  0.035  0.090  0.035  0.000  0.000  0.000  0.000  0.000  0.173
    2  0.014  0.035  0.090  0.035  0.000  0.000  0.000  0.000  0.000  0.173
tot    0.028  0.069  0.180  0.069  0.000  0.000  0.000  0.000  0.000  0.347
 
band     4 # energy    4.85441579 # occ.  2.00000000
 
ion      s     py     pz     px    dxy    dyz    dz2    dxz  x2-y2    tot
    1  0.000  0.108  0.000  0.108  0.000  0.000  0.000  0.000  0.000  0.216
    2  0.000  0.108  0.000  0.108  0.000  0.000  0.000  0.000  0.000  0.216
tot    0.000  0.216  0.000  0.216  0.000  0.000  0.000  0.000  0.000  0.432
 
band     5 # energy    8.62286334 # occ.  0.00000000
 
ion      s     py     pz     px    dxy    dyz    dz2    dxz  x2-y2    tot
    1  0.076  0.001  0.073  0.001  0.000  0.000  0.000  0.000  0.000  0.151
    2  0.076  0.001  0.073  0.001  0.000  0.000  0.000  0.000  0.000  0.151
tot    0.151  0.002  0.146  0.002  0.000  0.000  0.000  0.000  0.000  0.302
 
band     6 # energy   10.03800784 # occ.  0.00000000
 
ion      s     py     pz     px    dxy    dyz    dz2    dxz  x2-y2    tot
    1  0.000  0.075  0.000  0.075  0.000  0.000  0.000  0.000  0.000  0.149
    2  0.000  0.075  0.000  0.075  0.000  0.000  0.000  0.000  0.000  0.149
tot    0.000  0.149  0.000  0.149  0.000  0.000  0.000  0.000  0.000  0.298
 
band     7 # energy   10.36343754 # occ.  0.00000000
 
ion      s     py     pz     px    dxy    dyz    dz2    dxz  x2-y2    tot
    1  0.032  0.003  0.107  0.003  0.000  0.000  0.000  0.000  0.000  0.144
    2  0.032  0.003  0.107  0.003  0.000  0.000  0.000  0.000  0.000  0.144
tot    0.063  0.006  0.214  0.006  0.000  0.000  0.000  0.000  0.000  0.289
 
band     8 # energy   11.65728827 # occ.  0.00000000
 
ion      s     py     pz     px    dxy    dyz    dz2    dxz  x2-y2    tot
    1  0.073  0.045  0.014  0.045  0.000  0.000  0.000  0.000  0.000  0.176
    2  0.073  0.045  0.014  0.045  0.000  0.000  0.000  0.000  0.000  0.176
tot    0.146  0.089  0.028  0.089  0.000  0.000  0.000  0.000  0.000  0.352
 
band     9 # energy   12.00496594 # occ.  0.00000000
 
ion      s     py     pz     px    dxy    dyz    dz2    dxz  x2-y2    tot
    1  0.000  0.002  0.000  0.002  0.000  0.000  0.000  0.000  0.000  0.004
    2  0.000  0.002  0.000  0.002  0.000  0.000  0.000  0.000  0.000  0.004
tot    0.000  0.004  0.000  0.004  0.000  0.000  0.000  0.000  0.000  0.009
 
band    10 # energy   16.45322905 # occ.  0.00000000
 
ion      s     py     pz     px    dxy    dyz    dz2    dxz  x2-y2    tot
    1  0.002  0.051  0.040  0.051  0.000  0.000  0.000  0.000  0.000  0.144
    2  0.002  0.051  0.040  0.051  0.000  0.000  0.000  0.000  0.000  0.144
tot    0.003  0.102  0.080  0.102  0.000  0.000  0.000  0.000  0.000  0.288
 
band    11 # energy   17.26385578 # occ.  0.00000000
 
ion      s     py     pz     px    dxy    dyz    dz2    dxz  x2-y2    tot
    1  0.061  0.044  0.025  0.044  0.000  0.000  0.000  0.000  0.000  0.175
    2  0.061  0.044  0.025  0.044  0.000  0.000  0.000  0.000  0.000  0.174
tot    0.122  0.089  0.050  0.089  0.000  0.000  0.000  0.000  0.000  0.349
 
band    12 # energy   17.95401267 # occ.  0.00000000
 
ion      s     py     pz     px    dxy    dyz    dz2    dxz  x2-y2    tot
    1  0.010  0.001  0.000  0.002  0.000  0.000  0.000  0.000  0.000  0.013
    2  0.010  0.002  0.000  0.002  0.000  0.000  0.000  0.000  0.000  0.014
tot    0.021  0.003  0.000  0.003  0.000  0.000  0.000  0.000  0.000  0.027
 

 k-point   161 :    0.20357143 0.20357143 0.40714286     weight = 0.00555556

band     1 # energy   -4.73329036 # occ.  2.00000000
 
ion      s     py     pz     px    dxy    dyz    dz2    dxz  x2-y2    tot
    1  0.209  0.007  0.001  0.007  0.000  0.000  0.000  0.000  0.000  0.223
    2  0.209  0.007  0.001  0.007  0.000  0.000  0.000  0.000  0.000  0.223
tot    0.418  0.013  0.002  0.013  0.000  0.000  0.000  0.000  0.000  0.446
 
band     2 # energy    1.28154540 # occ.  2.00000000
 
ion      s     py     pz     px    dxy    dyz    dz2    dxz  x2-y2    tot
    1  0.138  0.031  0.037  0.031  0.000  0.000  0.000  0.000  0.000  0.237
    2  0.138  0.031  0.037  0.031  0.000  0.000  0.000  0.000  0.000  0.237
tot    0.275  0.062  0.074  0.062  0.000  0.000  0.000  0.000  0.000  0.474
 
band     3 # energy    2.77259481 # occ.  2.00000000
 
ion      s     py     pz     px    dxy    dyz    dz2    dxz  x2-y2    tot
    1  0.014  0.034  0.093  0.034  0.000  0.000  0.000  0.000  0.000  0.175
    2  0.014  0.034  0.093  0.034  0.000  0.000  0.000  0.000  0.000  0.175
tot    0.027  0.068  0.186  0.068  0.000  0.000  0.000  0.000  0.000  0.350
 
band     4 # energy    4.95450366 # occ.  2.00000000
 
ion      s     py     pz     px    dxy    dyz    dz2    dxz  x2-y2    tot
    1  0.000  0.109  0.000  0.109  0.000  0.000  0.000  0.000  0.000  0.217
    2  0.000  0.109  0.000  0.109  0.000  0.000  0.000  0.000  0.000  0.217
tot    0.000  0.217  0.000  0.217  0.000  0.000  0.000  0.000  0.000  0.434
 
band     5 # energy    8.70401299 # occ.  0.00000000
 
ion      s     py     pz     px    dxy    dyz    dz2    dxz  x2-y2    tot
    1  0.080  0.001  0.078  0.001  0.000  0.000  0.000  0.000  0.000  0.159
    2  0.080  0.001  0.078  0.001  0.000  0.000  0.000  0.000  0.000  0.159
tot    0.160  0.002  0.155  0.002  0.000  0.000  0.000  0.000  0.000  0.319
 
band     6 # energy    9.87911843 # occ.  0.00000000
 
ion      s     py     pz     px    dxy    dyz    dz2    dxz  x2-y2    tot
    1  0.000  0.075  0.000  0.075  0.000  0.000  0.000  0.000  0.000  0.149
    2  0.000  0.075  0.000  0.075  0.000  0.000  0.000  0.000  0.000  0.149
tot    0.000  0.149  0.000  0.149  0.000  0.000  0.000  0.000  0.000  0.298
 
band     7 # energy   10.19768172 # occ.  0.00000000
 
ion      s     py     pz     px    dxy    dyz    dz2    dxz  x2-y2    tot
    1  0.032  0.004  0.106  0.004  0.000  0.000  0.000  0.000  0.000  0.146
    2  0.032  0.004  0.106  0.004  0.000  0.000  0.000  0.000  0.000  0.146
tot    0.063  0.008  0.213  0.008  0.000  0.000  0.000  0.000  0.000  0.293
 
band     8 # energy   11.59534894 # occ.  0.00000000
 
ion      s     py     pz     px    dxy    dyz    dz2    dxz  x2-y2    tot
    1  0.072  0.044  0.011  0.044  0.000  0.000  0.000  0.000  0.000  0.171
    2  0.072  0.044  0.011  0.044  0.000  0.000  0.000  0.000  0.000  0.171
tot    0.143  0.089  0.021  0.089  0.000  0.000  0.000  0.000  0.000  0.342
 
band     9 # energy   11.95875647 # occ.  0.00000000
 
ion      s     py     pz     px    dxy    dyz    dz2    dxz  x2-y2    tot
    1  0.000  0.002  0.000  0.002  0.000  0.000  0.000  0.000  0.000  0.003
    2  0.000  0.002  0.000  0.002  0.000  0.000  0.000  0.000  0.000  0.003
tot    0.000  0.003  0.000  0.003  0.000  0.000  0.000  0.000  0.000  0.007
 
band    10 # energy   16.54893178 # occ.  0.00000000
 
ion      s     py     pz     px    dxy    dyz    dz2    dxz  x2-y2    tot
    1  0.006  0.048  0.039  0.048  0.000  0.000  0.000  0.000  0.000  0.140
    2  0.006  0.048  0.039  0.048  0.000  0.000  0.000  0.000  0.000  0.140
tot    0.012  0.095  0.078  0.095  0.000  0.000  0.000  0.000  0.000  0.279
 
band    11 # energy   16.78701244 # occ.  0.00000000
 
ion      s     py     pz     px    dxy    dyz    dz2    dxz  x2-y2    tot
    1  0.060  0.043  0.024  0.043  0.000  0.000  0.000  0.000  0.000  0.169
    2  0.060  0.043  0.024  0.043  0.000  0.000  0.000  0.000  0.000  0.169
tot    0.120  0.085  0.048  0.085  0.000  0.000  0.000  0.000  0.000  0.339
 
band    12 # energy   17.78981942 # occ.  0.00000000
 
ion      s     py     pz     px    dxy    dyz    dz2    dxz  x2-y2    tot
    1  0.014  0.001  0.001  0.001  0.000  0.000  0.000  0.000  0.000  0.016
    2  0.014  0.001  0.001  0.001  0.000  0.000  0.000  0.000  0.000  0.017
tot    0.028  0.002  0.001  0.002  0.000  0.000  0.000  0.000  0.000  0.033
 

 k-point   162 :    0.19285714 0.19285714 0.38571429     weight = 0.00555556

band     1 # energy   -4.87005739 # occ.  2.00000000
 
ion      s     py     pz     px    dxy    dyz    dz2    dxz  x2-y2    tot
    1  0.209  0.006  0.001  0.006  0.000  0.000  0.000  0.000  0.000  0.222
    2  0.209  0.006  0.001  0.006  0.000  0.000  0.000  0.000  0.000  0.222
tot    0.418  0.012  0.001  0.012  0.000  0.000  0.000  0.000  0.000  0.444
 
band     2 # energy    1.51552785 # occ.  2.00000000
 
ion      s     py     pz     px    dxy    dyz    dz2    dxz  x2-y2    tot
    1  0.133  0.033  0.036  0.033  0.000  0.000  0.000  0.000  0.000  0.236
    2  0.133  0.033  0.036  0.033  0.000  0.000  0.000  0.000  0.000  0.236
tot    0.267  0.067  0.072  0.067  0.000  0.000  0.000  0.000  0.000  0.473
 
band     3 # energy    2.95360158 # occ.  2.00000000
 
ion      s     py     pz     px    dxy    dyz    dz2    dxz  x2-y2    tot
    1  0.013  0.034  0.096  0.034  0.000  0.000  0.000  0.000  0.000  0.177
    2  0.013  0.034  0.096  0.034  0.000  0.000  0.000  0.000  0.000  0.177
tot    0.026  0.068  0.192  0.068  0.000  0.000  0.000  0.000  0.000  0.354
 
band     4 # energy    5.05100076 # occ.  2.00000000
 
ion      s     py     pz     px    dxy    dyz    dz2    dxz  x2-y2    tot
    1  0.000  0.109  0.000  0.109  0.000  0.000  0.000  0.000  0.000  0.218
    2  0.000  0.109  0.000  0.109  0.000  0.000  0.000  0.000  0.000  0.218
tot    0.000  0.218  0.000  0.218  0.000  0.000  0.000  0.000  0.000  0.436
 
band     5 # energy    8.77202818 # occ.  0.00000000
 
ion      s     py     pz     px    dxy    dyz    dz2    dxz  x2-y2    tot
    1  0.084  0.001  0.082  0.001  0.000  0.000  0.000  0.000  0.000  0.168
    2  0.084  0.001  0.082  0.001  0.000  0.000  0.000  0.000  0.000  0.168
tot    0.168  0.002  0.164  0.002  0.000  0.000  0.000  0.000  0.000  0.335
 
band     6 # energy    9.72811602 # occ.  0.00000000
 
ion      s     py     pz     px    dxy    dyz    dz2    dxz  x2-y2    tot
    1  0.000  0.075  0.000  0.075  0.000  0.000  0.000  0.000  0.000  0.149
    2  0.000  0.075  0.000  0.075  0.000  0.000  0.000  0.000  0.000  0.149
tot    0.000  0.149  0.000  0.149  0.000  0.000  0.000  0.000  0.000  0.299
 
band     7 # energy   10.03885928 # occ.  0.00000000
 
ion      s     py     pz     px    dxy    dyz    dz2    dxz  x2-y2    tot
    1  0.031  0.006  0.106  0.006  0.000  0.000  0.000  0.000  0.000  0.148
    2  0.031  0.006  0.106  0.006  0.000  0.000  0.000  0.000  0.000  0.148
tot    0.063  0.011  0.211  0.011  0.000  0.000  0.000  0.000  0.000  0.296
 
band     8 # energy   11.55069654 # occ.  0.00000000
 
ion      s     py     pz     px    dxy    dyz    dz2    dxz  x2-y2    tot
    1  0.071  0.045  0.007  0.045  0.000  0.000  0.000  0.000  0.000  0.167
    2  0.071  0.045  0.007  0.045  0.000  0.000  0.000  0.000  0.000  0.167
tot    0.141  0.089  0.015  0.089  0.000  0.000  0.000  0.000  0.000  0.334
 
band     9 # energy   11.93003623 # occ.  0.00000000
 
ion      s     py     pz     px    dxy    dyz    dz2    dxz  x2-y2    tot
    1  0.000  0.001  0.000  0.001  0.000  0.000  0.000  0.000  0.000  0.003
    2  0.000  0.001  0.000  0.001  0.000  0.000  0.000  0.000  0.000  0.003
tot    0.000  0.003  0.000  0.003  0.000  0.000  0.000  0.000  0.000  0.005
 
band    10 # energy   16.31659964 # occ.  0.00000000
 
ion      s     py     pz     px    dxy    dyz    dz2    dxz  x2-y2    tot
    1  0.061  0.040  0.023  0.040  0.000  0.000  0.000  0.000  0.000  0.164
    2  0.061  0.040  0.023  0.040  0.000  0.000  0.000  0.000  0.000  0.164
tot    0.121  0.080  0.047  0.080  0.000  0.000  0.000  0.000  0.000  0.328
 
band    11 # energy   16.55610698 # occ.  0.00000000
 
ion      s     py     pz     px    dxy    dyz    dz2    dxz  x2-y2    tot
    1  0.012  0.044  0.036  0.044  0.000  0.000  0.000  0.000  0.000  0.135
    2  0.012  0.044  0.036  0.044  0.000  0.000  0.000  0.000  0.000  0.135
tot    0.023  0.087  0.072  0.087  0.000  0.000  0.000  0.000  0.000  0.270
 
band    12 # energy   17.64221581 # occ.  0.00000000
 
ion      s     py     pz     px    dxy    dyz    dz2    dxz  x2-y2    tot
    1  0.017  0.001  0.001  0.001  0.000  0.000  0.000  0.000  0.000  0.019
    2  0.017  0.001  0.001  0.001  0.000  0.000  0.000  0.000  0.000  0.019
tot    0.033  0.002  0.002  0.002  0.000  0.000  0.000  0.000  0.000  0.038
 

 k-point   163 :    0.18214286 0.18214286 0.36428571     weight = 0.00555556

band     1 # energy   -5.00097112 # occ.  2.00000000
 
ion      s     py     pz     px    dxy    dyz    dz2    dxz  x2-y2    tot
    1  0.209  0.006  0.000  0.006  0.000  0.000  0.000  0.000  0.000  0.221
    2  0.209  0.006  0.000  0.006  0.000  0.000  0.000  0.000  0.000  0.221
tot    0.419  0.011  0.001  0.011  0.000  0.000  0.000  0.000  0.000  0.442
 
band     2 # energy    1.75661929 # occ.  2.00000000
 
ion      s     py     pz     px    dxy    dyz    dz2    dxz  x2-y2    tot
    1  0.129  0.036  0.035  0.036  0.000  0.000  0.000  0.000  0.000  0.236
    2  0.129  0.036  0.035  0.036  0.000  0.000  0.000  0.000  0.000  0.236
tot    0.258  0.072  0.071  0.072  0.000  0.000  0.000  0.000  0.000  0.472
 
band     3 # energy    3.14079110 # occ.  2.00000000
 
ion      s     py     pz     px    dxy    dyz    dz2    dxz  x2-y2    tot
    1  0.013  0.033  0.100  0.033  0.000  0.000  0.000  0.000  0.000  0.179
    2  0.013  0.033  0.100  0.033  0.000  0.000  0.000  0.000  0.000  0.179
tot    0.025  0.067  0.199  0.067  0.000  0.000  0.000  0.000  0.000  0.357
 
band     4 # energy    5.14321736 # occ.  2.00000000
 
ion      s     py     pz     px    dxy    dyz    dz2    dxz  x2-y2    tot
    1  0.000  0.110  0.000  0.110  0.000  0.000  0.000  0.000  0.000  0.219
    2  0.000  0.110  0.000  0.110  0.000  0.000  0.000  0.000  0.000  0.219
tot    0.000  0.219  0.000  0.219  0.000  0.000  0.000  0.000  0.000  0.438
 
band     5 # energy    8.82558381 # occ.  0.00000000
 
ion      s     py     pz     px    dxy    dyz    dz2    dxz  x2-y2    tot
    1  0.089  0.001  0.086  0.001  0.000  0.000  0.000  0.000  0.000  0.176
    2  0.089  0.001  0.086  0.001  0.000  0.000  0.000  0.000  0.000  0.176
tot    0.177  0.001  0.172  0.001  0.000  0.000  0.000  0.000  0.000  0.352
 
band     6 # energy    9.58508246 # occ.  0.00000000
 
ion      s     py     pz     px    dxy    dyz    dz2    dxz  x2-y2    tot
    1  0.000  0.075  0.000  0.075  0.000  0.000  0.000  0.000  0.000  0.149
    2  0.000  0.075  0.000  0.075  0.000  0.000  0.000  0.000  0.000  0.149
tot    0.000  0.149  0.000  0.149  0.000  0.000  0.000  0.000  0.000  0.299
 
band     7 # energy    9.88704397 # occ.  0.00000000
 
ion      s     py     pz     px    dxy    dyz    dz2    dxz  x2-y2    tot
    1  0.031  0.007  0.104  0.007  0.000  0.000  0.000  0.000  0.000  0.150
    2  0.031  0.007  0.104  0.007  0.000  0.000  0.000  0.000  0.000  0.150
tot    0.062  0.014  0.209  0.014  0.000  0.000  0.000  0.000  0.000  0.299
 
band     8 # energy   11.52202248 # occ.  0.00000000
 
ion      s     py     pz     px    dxy    dyz    dz2    dxz  x2-y2    tot
    1  0.070  0.045  0.004  0.045  0.000  0.000  0.000  0.000  0.000  0.164
    2  0.070  0.045  0.004  0.045  0.000  0.000  0.000  0.000  0.000  0.164
tot    0.140  0.090  0.009  0.090  0.000  0.000  0.000  0.000  0.000  0.329
 
band     9 # energy   11.91933770 # occ.  0.00000000
 
ion      s     py     pz     px    dxy    dyz    dz2    dxz  x2-y2    tot
    1  0.000  0.001  0.000  0.001  0.000  0.000  0.000  0.000  0.000  0.002
    2  0.000  0.001  0.000  0.001  0.000  0.000  0.000  0.000  0.000  0.002
tot    0.000  0.002  0.000  0.002  0.000  0.000  0.000  0.000  0.000  0.004
 
band    10 # energy   15.85842710 # occ.  0.00000000
 
ion      s     py     pz     px    dxy    dyz    dz2    dxz  x2-y2    tot
    1  0.061  0.037  0.023  0.037  0.000  0.000  0.000  0.000  0.000  0.158
    2  0.061  0.037  0.023  0.037  0.000  0.000  0.000  0.000  0.000  0.158
tot    0.123  0.073  0.046  0.073  0.000  0.000  0.000  0.000  0.000  0.315
 
band    11 # energy   16.49533226 # occ.  0.00000000
 
ion      s     py     pz     px    dxy    dyz    dz2    dxz  x2-y2    tot
    1  0.018  0.040  0.033  0.040  0.000  0.000  0.000  0.000  0.000  0.131
    2  0.018  0.040  0.033  0.040  0.000  0.000  0.000  0.000  0.000  0.131
tot    0.036  0.080  0.065  0.080  0.000  0.000  0.000  0.000  0.000  0.262
 
band    12 # energy   17.50845199 # occ.  0.00000000
 
ion      s     py     pz     px    dxy    dyz    dz2    dxz  x2-y2    tot
    1  0.018  0.001  0.001  0.001  0.000  0.000  0.000  0.000  0.000  0.021
    2  0.018  0.001  0.001  0.001  0.000  0.000  0.000  0.000  0.000  0.021
tot    0.036  0.002  0.002  0.002  0.000  0.000  0.000  0.000  0.000  0.041
 

 k-point   164 :    0.17142857 0.17142857 0.34285714     weight = 0.00555556

band     1 # energy   -5.12571478 # occ.  2.00000000
 
ion      s     py     pz     px    dxy    dyz    dz2    dxz  x2-y2    tot
    1  0.210  0.005  0.000  0.005  0.000  0.000  0.000  0.000  0.000  0.220
    2  0.210  0.005  0.000  0.005  0.000  0.000  0.000  0.000  0.000  0.220
tot    0.419  0.010  0.001  0.010  0.000  0.000  0.000  0.000  0.000  0.440
 
band     2 # energy    2.00457660 # occ.  2.00000000
 
ion      s     py     pz     px    dxy    dyz    dz2    dxz  x2-y2    tot
    1  0.124  0.038  0.035  0.038  0.000  0.000  0.000  0.000  0.000  0.235
    2  0.124  0.038  0.035  0.038  0.000  0.000  0.000  0.000  0.000  0.235
tot    0.249  0.077  0.069  0.077  0.000  0.000  0.000  0.000  0.000  0.471
 
band     3 # energy    3.33328631 # occ.  2.00000000
 
ion      s     py     pz     px    dxy    dyz    dz2    dxz  x2-y2    tot
    1  0.012  0.033  0.103  0.033  0.000  0.000  0.000  0.000  0.000  0.181
    2  0.012  0.033  0.103  0.033  0.000  0.000  0.000  0.000  0.000  0.181
tot    0.024  0.065  0.206  0.065  0.000  0.000  0.000  0.000  0.000  0.361
 
band     4 # energy    5.23045850 # occ.  2.00000000
 
ion      s     py     pz     px    dxy    dyz    dz2    dxz  x2-y2    tot
    1  0.000  0.110  0.000  0.110  0.000  0.000  0.000  0.000  0.000  0.220
    2  0.000  0.110  0.000  0.110  0.000  0.000  0.000  0.000  0.000  0.220
tot    0.000  0.220  0.000  0.220  0.000  0.000  0.000  0.000  0.000  0.440
 
band     5 # energy    8.86409907 # occ.  0.00000000
 
ion      s     py     pz     px    dxy    dyz    dz2    dxz  x2-y2    tot
    1  0.093  0.000  0.090  0.000  0.000  0.000  0.000  0.000  0.000  0.184
    2  0.093  0.000  0.090  0.000  0.000  0.000  0.000  0.000  0.000  0.184
tot    0.186  0.001  0.179  0.001  0.000  0.000  0.000  0.000  0.000  0.367
 
band     6 # energy    9.45004306 # occ.  0.00000000
 
ion      s     py     pz     px    dxy    dyz    dz2    dxz  x2-y2    tot
    1  0.000  0.075  0.000  0.075  0.000  0.000  0.000  0.000  0.000  0.150
    2  0.000  0.075  0.000  0.075  0.000  0.000  0.000  0.000  0.000  0.150
tot    0.000  0.150  0.000  0.150  0.000  0.000  0.000  0.000  0.000  0.299
 
band     7 # energy    9.74216991 # occ.  0.00000000
 
ion      s     py     pz     px    dxy    dyz    dz2    dxz  x2-y2    tot
    1  0.030  0.009  0.103  0.009  0.000  0.000  0.000  0.000  0.000  0.151
    2  0.030  0.009  0.103  0.009  0.000  0.000  0.000  0.000  0.000  0.151
tot    0.061  0.018  0.205  0.018  0.000  0.000  0.000  0.000  0.000  0.302
 
band     8 # energy   11.50616373 # occ.  0.00000000
 
ion      s     py     pz     px    dxy    dyz    dz2    dxz  x2-y2    tot
    1  0.070  0.046  0.002  0.046  0.000  0.000  0.000  0.000  0.000  0.164
    2  0.070  0.046  0.002  0.046  0.000  0.000  0.000  0.000  0.000  0.164
tot    0.141  0.092  0.004  0.092  0.000  0.000  0.000  0.000  0.000  0.329
 
band     9 # energy   11.92704020 # occ.  0.00000000
 
ion      s     py     pz     px    dxy    dyz    dz2    dxz  x2-y2    tot
    1  0.000  0.001  0.000  0.001  0.000  0.000  0.000  0.000  0.000  0.001
    2  0.000  0.001  0.000  0.001  0.000  0.000  0.000  0.000  0.000  0.001
tot    0.000  0.001  0.000  0.001  0.000  0.000  0.000  0.000  0.000  0.002
 
band    10 # energy   15.41702634 # occ.  0.00000000
 
ion      s     py     pz     px    dxy    dyz    dz2    dxz  x2-y2    tot
    1  0.062  0.033  0.022  0.033  0.000  0.000  0.000  0.000  0.000  0.150
    2  0.062  0.033  0.022  0.033  0.000  0.000  0.000  0.000  0.000  0.150
tot    0.123  0.066  0.045  0.066  0.000  0.000  0.000  0.000  0.000  0.300
 
band    11 # energy   16.38545688 # occ.  0.00000000
 
ion      s     py     pz     px    dxy    dyz    dz2    dxz  x2-y2    tot
    1  0.025  0.037  0.029  0.037  0.000  0.000  0.000  0.000  0.000  0.128
    2  0.025  0.037  0.029  0.037  0.000  0.000  0.000  0.000  0.000  0.128
tot    0.049  0.075  0.058  0.075  0.000  0.000  0.000  0.000  0.000  0.256
 
band    12 # energy   17.38764039 # occ.  0.00000000
 
ion      s     py     pz     px    dxy    dyz    dz2    dxz  x2-y2    tot
    1  0.019  0.001  0.001  0.001  0.000  0.000  0.000  0.000  0.000  0.022
    2  0.019  0.001  0.001  0.001  0.000  0.000  0.000  0.000  0.000  0.022
tot    0.038  0.002  0.002  0.002  0.000  0.000  0.000  0.000  0.000  0.044
 

 k-point   165 :    0.16071429 0.16071429 0.32142857     weight = 0.00555556

band     1 # energy   -5.24397573 # occ.  2.00000000
 
ion      s     py     pz     px    dxy    dyz    dz2    dxz  x2-y2    tot
    1  0.210  0.004  0.000  0.004  0.000  0.000  0.000  0.000  0.000  0.219
    2  0.210  0.004  0.000  0.004  0.000  0.000  0.000  0.000  0.000  0.219
tot    0.420  0.009  0.001  0.009  0.000  0.000  0.000  0.000  0.000  0.438
 
band     2 # energy    2.25910961 # occ.  2.00000000
 
ion      s     py     pz     px    dxy    dyz    dz2    dxz  x2-y2    tot
    1  0.119  0.041  0.034  0.041  0.000  0.000  0.000  0.000  0.000  0.235
    2  0.119  0.041  0.034  0.041  0.000  0.000  0.000  0.000  0.000  0.235
tot    0.239  0.082  0.067  0.082  0.000  0.000  0.000  0.000  0.000  0.470
 
band     3 # energy    3.53014536 # occ.  2.00000000
 
ion      s     py     pz     px    dxy    dyz    dz2    dxz  x2-y2    tot
    1  0.011  0.032  0.107  0.032  0.000  0.000  0.000  0.000  0.000  0.182
    2  0.011  0.032  0.107  0.032  0.000  0.000  0.000  0.000  0.000  0.182
tot    0.022  0.064  0.215  0.064  0.000  0.000  0.000  0.000  0.000  0.365
 
band     4 # energy    5.31214444 # occ.  2.00000000
 
ion      s     py     pz     px    dxy    dyz    dz2    dxz  x2-y2    tot
    1  0.000  0.110  0.000  0.110  0.000  0.000  0.000  0.000  0.000  0.220
    2  0.000  0.110  0.000  0.110  0.000  0.000  0.000  0.000  0.000  0.220
tot    0.000  0.220  0.000  0.220  0.000  0.000  0.000  0.000  0.000  0.441
 
band     5 # energy    8.88787920 # occ.  0.00000000
 
ion      s     py     pz     px    dxy    dyz    dz2    dxz  x2-y2    tot
    1  0.097  0.000  0.093  0.000  0.000  0.000  0.000  0.000  0.000  0.190
    2  0.097  0.000  0.093  0.000  0.000  0.000  0.000  0.000  0.000  0.190
tot    0.194  0.001  0.186  0.001  0.000  0.000  0.000  0.000  0.000  0.381
 
band     6 # energy    9.32303451 # occ.  0.00000000
 
ion      s     py     pz     px    dxy    dyz    dz2    dxz  x2-y2    tot
    1  0.000  0.075  0.000  0.075  0.000  0.000  0.000  0.000  0.000  0.150
    2  0.000  0.075  0.000  0.075  0.000  0.000  0.000  0.000  0.000  0.150
tot    0.000  0.150  0.000  0.150  0.000  0.000  0.000  0.000  0.000  0.300
 
band     7 # energy    9.60416126 # occ.  0.00000000
 
ion      s     py     pz     px    dxy    dyz    dz2    dxz  x2-y2    tot
    1  0.030  0.011  0.100  0.011  0.000  0.000  0.000  0.000  0.000  0.152
    2  0.030  0.011  0.100  0.011  0.000  0.000  0.000  0.000  0.000  0.152
tot    0.059  0.022  0.201  0.022  0.000  0.000  0.000  0.000  0.000  0.305
 
band     8 # energy   11.49756331 # occ.  0.00000000
 
ion      s     py     pz     px    dxy    dyz    dz2    dxz  x2-y2    tot
    1  0.073  0.047  0.000  0.047  0.000  0.000  0.000  0.000  0.000  0.168
    2  0.073  0.047  0.000  0.047  0.000  0.000  0.000  0.000  0.000  0.168
tot    0.146  0.094  0.001  0.094  0.000  0.000  0.000  0.000  0.000  0.335
 
band     9 # energy   11.95336732 # occ.  0.00000000
 
ion      s     py     pz     px    dxy    dyz    dz2    dxz  x2-y2    tot
    1  0.000  0.000  0.000  0.000  0.000  0.000  0.000  0.000  0.000  0.001
    2  0.000  0.000  0.000  0.000  0.000  0.000  0.000  0.000  0.000  0.001
tot    0.000  0.001  0.000  0.001  0.000  0.000  0.000  0.000  0.000  0.001
 
band    10 # energy   14.99763945 # occ.  0.00000000
 
ion      s     py     pz     px    dxy    dyz    dz2    dxz  x2-y2    tot
    1  0.061  0.029  0.021  0.029  0.000  0.000  0.000  0.000  0.000  0.140
    2  0.061  0.029  0.021  0.029  0.000  0.000  0.000  0.000  0.000  0.140
tot    0.122  0.057  0.043  0.057  0.000  0.000  0.000  0.000  0.000  0.279
 
band    11 # energy   16.24005905 # occ.  0.00000000
 
ion      s     py     pz     px    dxy    dyz    dz2    dxz  x2-y2    tot
    1  0.031  0.035  0.025  0.035  0.000  0.000  0.000  0.000  0.000  0.126
    2  0.031  0.035  0.025  0.035  0.000  0.000  0.000  0.000  0.000  0.126
tot    0.062  0.070  0.050  0.070  0.000  0.000  0.000  0.000  0.000  0.252
 
band    12 # energy   17.27976704 # occ.  0.00000000
 
ion      s     py     pz     px    dxy    dyz    dz2    dxz  x2-y2    tot
    1  0.019  0.001  0.001  0.001  0.000  0.000  0.000  0.000  0.000  0.023
    2  0.019  0.001  0.001  0.001  0.000  0.000  0.000  0.000  0.000  0.023
tot    0.039  0.003  0.002  0.003  0.000  0.000  0.000  0.000  0.000  0.047
 

 k-point   166 :    0.15000000 0.15000000 0.30000000     weight = 0.00555556

band     1 # energy   -5.35550100 # occ.  2.00000000
 
ion      s     py     pz     px    dxy    dyz    dz2    dxz  x2-y2    tot
    1  0.210  0.004  0.000  0.004  0.000  0.000  0.000  0.000  0.000  0.218
    2  0.210  0.004  0.000  0.004  0.000  0.000  0.000  0.000  0.000  0.218
tot    0.420  0.008  0.000  0.008  0.000  0.000  0.000  0.000  0.000  0.437
 
band     2 # energy    2.51987234 # occ.  2.00000000
 
ion      s     py     pz     px    dxy    dyz    dz2    dxz  x2-y2    tot
    1  0.114  0.044  0.033  0.044  0.000  0.000  0.000  0.000  0.000  0.234
    2  0.114  0.044  0.033  0.044  0.000  0.000  0.000  0.000  0.000  0.234
tot    0.229  0.087  0.065  0.087  0.000  0.000  0.000  0.000  0.000  0.469
 
band     3 # energy    3.73035766 # occ.  2.00000000
 
ion      s     py     pz     px    dxy    dyz    dz2    dxz  x2-y2    tot
    1  0.010  0.031  0.112  0.031  0.000  0.000  0.000  0.000  0.000  0.184
    2  0.010  0.031  0.112  0.031  0.000  0.000  0.000  0.000  0.000  0.184
tot    0.020  0.063  0.224  0.063  0.000  0.000  0.000  0.000  0.000  0.369
 
band     4 # energy    5.38779976 # occ.  2.00000000
 
ion      s     py     pz     px    dxy    dyz    dz2    dxz  x2-y2    tot
    1  0.000  0.110  0.000  0.110  0.000  0.000  0.000  0.000  0.000  0.221
    2  0.000  0.110  0.000  0.110  0.000  0.000  0.000  0.000  0.000  0.221
tot    0.000  0.221  0.000  0.221  0.000  0.000  0.000  0.000  0.000  0.442
 
band     5 # energy    8.89804152 # occ.  0.00000000
 
ion      s     py     pz     px    dxy    dyz    dz2    dxz  x2-y2    tot
    1  0.100  0.000  0.096  0.000  0.000  0.000  0.000  0.000  0.000  0.196
    2  0.100  0.000  0.096  0.000  0.000  0.000  0.000  0.000  0.000  0.196
tot    0.200  0.000  0.191  0.000  0.000  0.000  0.000  0.000  0.000  0.392
 
band     6 # energy    9.20408469 # occ.  0.00000000
 
ion      s     py     pz     px    dxy    dyz    dz2    dxz  x2-y2    tot
    1  0.000  0.075  0.000  0.075  0.000  0.000  0.000  0.000  0.000  0.150
    2  0.000  0.075  0.000  0.075  0.000  0.000  0.000  0.000  0.000  0.150
tot    0.000  0.150  0.000  0.150  0.000  0.000  0.000  0.000  0.000  0.300
 
band     7 # energy    9.47289531 # occ.  0.00000000
 
ion      s     py     pz     px    dxy    dyz    dz2    dxz  x2-y2    tot
    1  0.028  0.014  0.098  0.014  0.000  0.000  0.000  0.000  0.000  0.153
    2  0.028  0.014  0.098  0.014  0.000  0.000  0.000  0.000  0.000  0.153
tot    0.057  0.027  0.195  0.027  0.000  0.000  0.000  0.000  0.000  0.307
 
band     8 # energy   11.48769544 # occ.  0.00000000
 
ion      s     py     pz     px    dxy    dyz    dz2    dxz  x2-y2    tot
    1  0.078  0.049  0.000  0.049  0.000  0.000  0.000  0.000  0.000  0.176
    2  0.078  0.049  0.000  0.049  0.000  0.000  0.000  0.000  0.000  0.176
tot    0.156  0.098  0.000  0.098  0.000  0.000  0.000  0.000  0.000  0.351
 
band     9 # energy   11.99832589 # occ.  0.00000000
 
ion      s     py     pz     px    dxy    dyz    dz2    dxz  x2-y2    tot
    1  0.000  0.000  0.000  0.000  0.000  0.000  0.000  0.000  0.000  0.000
    2  0.000  0.000  0.000  0.000  0.000  0.000  0.000  0.000  0.000  0.000
tot    0.000  0.000  0.000  0.000  0.000  0.000  0.000  0.000  0.000  0.000
 
band    10 # energy   14.60722713 # occ.  0.00000000
 
ion      s     py     pz     px    dxy    dyz    dz2    dxz  x2-y2    tot
    1  0.059  0.024  0.020  0.024  0.000  0.000  0.000  0.000  0.000  0.126
    2  0.059  0.024  0.020  0.024  0.000  0.000  0.000  0.000  0.000  0.126
tot    0.117  0.047  0.040  0.047  0.000  0.000  0.000  0.000  0.000  0.252
 
band    11 # energy   16.06821491 # occ.  0.00000000
 
ion      s     py     pz     px    dxy    dyz    dz2    dxz  x2-y2    tot
    1  0.038  0.033  0.021  0.033  0.000  0.000  0.000  0.000  0.000  0.124
    2  0.038  0.033  0.021  0.033  0.000  0.000  0.000  0.000  0.000  0.124
tot    0.076  0.066  0.042  0.065  0.000  0.000  0.000  0.000  0.000  0.249
 
band    12 # energy   17.18508210 # occ.  0.00000000
 
ion      s     py     pz     px    dxy    dyz    dz2    dxz  x2-y2    tot
    1  0.020  0.002  0.001  0.002  0.000  0.000  0.000  0.000  0.000  0.025
    2  0.019  0.002  0.001  0.002  0.000  0.000  0.000  0.000  0.000  0.025
tot    0.039  0.004  0.002  0.004  0.000  0.000  0.000  0.000  0.000  0.049
 

 k-point   167 :    0.13928571 0.13928571 0.27857143     weight = 0.00555556

band     1 # energy   -5.46006577 # occ.  2.00000000
 
ion      s     py     pz     px    dxy    dyz    dz2    dxz  x2-y2    tot
    1  0.211  0.003  0.000  0.003  0.000  0.000  0.000  0.000  0.000  0.218
    2  0.211  0.003  0.000  0.003  0.000  0.000  0.000  0.000  0.000  0.218
tot    0.421  0.007  0.000  0.007  0.000  0.000  0.000  0.000  0.000  0.435
 
band     2 # energy    2.78647046 # occ.  2.00000000
 
ion      s     py     pz     px    dxy    dyz    dz2    dxz  x2-y2    tot
    1  0.109  0.047  0.032  0.047  0.000  0.000  0.000  0.000  0.000  0.234
    2  0.109  0.047  0.032  0.047  0.000  0.000  0.000  0.000  0.000  0.234
tot    0.218  0.093  0.063  0.093  0.000  0.000  0.000  0.000  0.000  0.467
 
band     3 # energy    3.93284192 # occ.  2.00000000
 
ion      s     py     pz     px    dxy    dyz    dz2    dxz  x2-y2    tot
    1  0.009  0.030  0.117  0.030  0.000  0.000  0.000  0.000  0.000  0.187
    2  0.009  0.030  0.117  0.030  0.000  0.000  0.000  0.000  0.000  0.187
tot    0.018  0.061  0.234  0.061  0.000  0.000  0.000  0.000  0.000  0.373
 
band     4 # energy    5.45712903 # occ.  2.00000000
 
ion      s     py     pz     px    dxy    dyz    dz2    dxz  x2-y2    tot
    1  0.000  0.111  0.000  0.111  0.000  0.000  0.000  0.000  0.000  0.221
    2  0.000  0.111  0.000  0.111  0.000  0.000  0.000  0.000  0.000  0.221
tot    0.000  0.221  0.000  0.221  0.000  0.000  0.000  0.000  0.000  0.442
 
band     5 # energy    8.89634857 # occ.  0.00000000
 
ion      s     py     pz     px    dxy    dyz    dz2    dxz  x2-y2    tot
    1  0.102  0.000  0.098  0.000  0.000  0.000  0.000  0.000  0.000  0.200
    2  0.102  0.000  0.098  0.000  0.000  0.000  0.000  0.000  0.000  0.200
tot    0.204  0.000  0.196  0.000  0.000  0.000  0.000  0.000  0.000  0.401
 
band     6 # energy    9.09312608 # occ.  0.00000000
 
ion      s     py     pz     px    dxy    dyz    dz2    dxz  x2-y2    tot
    1  0.000  0.075  0.000  0.075  0.000  0.000  0.000  0.000  0.000  0.150
    2  0.000  0.075  0.000  0.075  0.000  0.000  0.000  0.000  0.000  0.150
tot    0.000  0.150  0.000  0.150  0.000  0.000  0.000  0.000  0.000  0.300
 
band     7 # energy    9.34839625 # occ.  0.00000000
 
ion      s     py     pz     px    dxy    dyz    dz2    dxz  x2-y2    tot
    1  0.027  0.017  0.094  0.017  0.000  0.000  0.000  0.000  0.000  0.154
    2  0.027  0.017  0.094  0.017  0.000  0.000  0.000  0.000  0.000  0.154
tot    0.054  0.033  0.188  0.033  0.000  0.000  0.000  0.000  0.000  0.308
 
band     8 # energy   11.46475568 # occ.  0.00000000
 
ion      s     py     pz     px    dxy    dyz    dz2    dxz  x2-y2    tot
    1  0.086  0.051  0.001  0.051  0.000  0.000  0.000  0.000  0.000  0.189
    2  0.086  0.051  0.001  0.051  0.000  0.000  0.000  0.000  0.000  0.189
tot    0.173  0.102  0.001  0.102  0.000  0.000  0.000  0.000  0.000  0.378
 
band     9 # energy   12.06200300 # occ.  0.00000000
 
ion      s     py     pz     px    dxy    dyz    dz2    dxz  x2-y2    tot
    1  0.000  0.000  0.000  0.000  0.000  0.000  0.000  0.000  0.000  0.000
    2  0.000  0.000  0.000  0.000  0.000  0.000  0.000  0.000  0.000  0.000
tot    0.000  0.000  0.000  0.000  0.000  0.000  0.000  0.000  0.000  0.000
 
band    10 # energy   14.25556079 # occ.  0.00000000
 
ion      s     py     pz     px    dxy    dyz    dz2    dxz  x2-y2    tot
    1  0.054  0.018  0.018  0.018  0.000  0.000  0.000  0.000  0.000  0.109
    2  0.054  0.018  0.018  0.018  0.000  0.000  0.000  0.000  0.000  0.109
tot    0.108  0.036  0.037  0.036  0.000  0.000  0.000  0.000  0.000  0.218
 
band    11 # energy   15.87625440 # occ.  0.00000000
 
ion      s     py     pz     px    dxy    dyz    dz2    dxz  x2-y2    tot
    1  0.044  0.031  0.017  0.031  0.000  0.000  0.000  0.000  0.000  0.123
    2  0.044  0.031  0.017  0.031  0.000  0.000  0.000  0.000  0.000  0.123
tot    0.089  0.061  0.035  0.061  0.000  0.000  0.000  0.000  0.000  0.246
 
band    12 # energy   17.10402649 # occ.  0.00000000
 
ion      s     py     pz     px    dxy    dyz    dz2    dxz  x2-y2    tot
    1  0.019  0.003  0.001  0.003  0.000  0.000  0.000  0.000  0.000  0.026
    2  0.019  0.003  0.001  0.003  0.000  0.000  0.000  0.000  0.000  0.026
tot    0.039  0.005  0.002  0.005  0.000  0.000  0.000  0.000  0.000  0.051
 

 k-point   168 :    0.12857143 0.12857143 0.25714286     weight = 0.00555556

band     1 # energy   -5.55749641 # occ.  2.00000000
 
ion      s     py     pz     px    dxy    dyz    dz2    dxz  x2-y2    tot
    1  0.211  0.003  0.000  0.003  0.000  0.000  0.000  0.000  0.000  0.217
    2  0.211  0.003  0.000  0.003  0.000  0.000  0.000  0.000  0.000  0.217
tot    0.422  0.006  0.000  0.006  0.000  0.000  0.000  0.000  0.000  0.434
 
band     2 # energy    3.05830799 # occ.  2.00000000
 
ion      s     py     pz     px    dxy    dyz    dz2    dxz  x2-y2    tot
    1  0.103  0.050  0.031  0.050  0.000  0.000  0.000  0.000  0.000  0.233
    2  0.103  0.050  0.031  0.050  0.000  0.000  0.000  0.000  0.000  0.233
tot    0.206  0.099  0.061  0.099  0.000  0.000  0.000  0.000  0.000  0.466
 
band     3 # energy    4.13625701 # occ.  2.00000000
 
ion      s     py     pz     px    dxy    dyz    dz2    dxz  x2-y2    tot
    1  0.008  0.029  0.122  0.029  0.000  0.000  0.000  0.000  0.000  0.189
    2  0.008  0.029  0.122  0.029  0.000  0.000  0.000  0.000  0.000  0.189
tot    0.015  0.059  0.245  0.059  0.000  0.000  0.000  0.000  0.000  0.377
 
band     4 # energy    5.51984470 # occ.  2.00000000
 
ion      s     py     pz     px    dxy    dyz    dz2    dxz  x2-y2    tot
    1  0.000  0.111  0.000  0.111  0.000  0.000  0.000  0.000  0.000  0.221
    2  0.000  0.111  0.000  0.111  0.000  0.000  0.000  0.000  0.000  0.221
tot    0.000  0.221  0.000  0.221  0.000  0.000  0.000  0.000  0.000  0.442
 
band     5 # energy    8.88475560 # occ.  0.00000000
 
ion      s     py     pz     px    dxy    dyz    dz2    dxz  x2-y2    tot
    1  0.103  0.000  0.100  0.000  0.000  0.000  0.000  0.000  0.000  0.204
    2  0.103  0.000  0.100  0.000  0.000  0.000  0.000  0.000  0.000  0.204
tot    0.206  0.000  0.200  0.000  0.000  0.000  0.000  0.000  0.000  0.407
 
band     6 # energy    8.99033615 # occ.  0.00000000
 
ion      s     py     pz     px    dxy    dyz    dz2    dxz  x2-y2    tot
    1  0.000  0.075  0.000  0.075  0.000  0.000  0.000  0.000  0.000  0.150
    2  0.000  0.075  0.000  0.075  0.000  0.000  0.000  0.000  0.000  0.150
tot    0.000  0.150  0.000  0.150  0.000  0.000  0.000  0.000  0.000  0.301
 
band     7 # energy    9.23022333 # occ.  0.00000000
 
ion      s     py     pz     px    dxy    dyz    dz2    dxz  x2-y2    tot
    1  0.026  0.020  0.090  0.020  0.000  0.000  0.000  0.000  0.000  0.155
    2  0.026  0.020  0.090  0.020  0.000  0.000  0.000  0.000  0.000  0.155
tot    0.051  0.040  0.179  0.040  0.000  0.000  0.000  0.000  0.000  0.310
 
band     8 # energy   11.41352918 # occ.  0.00000000
 
ion      s     py     pz     px    dxy    dyz    dz2    dxz  x2-y2    tot
    1  0.099  0.053  0.003  0.053  0.000  0.000  0.000  0.000  0.000  0.208
    2  0.099  0.053  0.003  0.053  0.000  0.000  0.000  0.000  0.000  0.208
tot    0.199  0.106  0.005  0.106  0.000  0.000  0.000  0.000  0.000  0.416
 
band     9 # energy   12.14317835 # occ.  0.00000000
 
ion      s     py     pz     px    dxy    dyz    dz2    dxz  x2-y2    tot
    1  0.000  0.000  0.000  0.000  0.000  0.000  0.000  0.000  0.000  0.000
    2  0.000  0.000  0.000  0.000  0.000  0.000  0.000  0.000  0.000  0.000
tot    0.000  0.000  0.000  0.000  0.000  0.000  0.000  0.000  0.000  0.000
 
band    10 # energy   13.95424738 # occ.  0.00000000
 
ion      s     py     pz     px    dxy    dyz    dz2    dxz  x2-y2    tot
    1  0.046  0.013  0.016  0.013  0.000  0.000  0.000  0.000  0.000  0.087
    2  0.046  0.013  0.016  0.013  0.000  0.000  0.000  0.000  0.000  0.087
tot    0.093  0.025  0.032  0.025  0.000  0.000  0.000  0.000  0.000  0.175
 
band    11 # energy   15.66922538 # occ.  0.00000000
 
ion      s     py     pz     px    dxy    dyz    dz2    dxz  x2-y2    tot
    1  0.051  0.029  0.014  0.029  0.000  0.000  0.000  0.000  0.000  0.122
    2  0.051  0.029  0.014  0.029  0.000  0.000  0.000  0.000  0.000  0.122
tot    0.102  0.057  0.028  0.057  0.000  0.000  0.000  0.000  0.000  0.244
 
band    12 # energy   17.03701345 # occ.  0.00000000
 
ion      s     py     pz     px    dxy    dyz    dz2    dxz  x2-y2    tot
    1  0.019  0.003  0.001  0.003  0.000  0.000  0.000  0.000  0.000  0.027
    2  0.019  0.003  0.001  0.003  0.000  0.000  0.000  0.000  0.000  0.027
tot    0.038  0.007  0.002  0.007  0.000  0.000  0.000  0.000  0.000  0.054
 

 k-point   169 :    0.11785714 0.11785714 0.23571429     weight = 0.00555556

band     1 # energy   -5.64762618 # occ.  2.00000000
 
ion      s     py     pz     px    dxy    dyz    dz2    dxz  x2-y2    tot
    1  0.211  0.003  0.000  0.003  0.000  0.000  0.000  0.000  0.000  0.216
    2  0.211  0.003  0.000  0.003  0.000  0.000  0.000  0.000  0.000  0.216
tot    0.422  0.005  0.000  0.005  0.000  0.000  0.000  0.000  0.000  0.433
 
band     2 # energy    3.33476282 # occ.  2.00000000
 
ion      s     py     pz     px    dxy    dyz    dz2    dxz  x2-y2    tot
    1  0.097  0.053  0.029  0.053  0.000  0.000  0.000  0.000  0.000  0.232
    2  0.097  0.053  0.029  0.053  0.000  0.000  0.000  0.000  0.000  0.232
tot    0.193  0.106  0.059  0.106  0.000  0.000  0.000  0.000  0.000  0.464
 
band     3 # energy    4.33922374 # occ.  2.00000000
 
ion      s     py     pz     px    dxy    dyz    dz2    dxz  x2-y2    tot
    1  0.007  0.028  0.129  0.028  0.000  0.000  0.000  0.000  0.000  0.191
    2  0.007  0.028  0.129  0.028  0.000  0.000  0.000  0.000  0.000  0.191
tot    0.013  0.056  0.257  0.056  0.000  0.000  0.000  0.000  0.000  0.382
 
band     4 # energy    5.57600808 # occ.  2.00000000
 
ion      s     py     pz     px    dxy    dyz    dz2    dxz  x2-y2    tot
    1  0.000  0.110  0.000  0.110  0.000  0.000  0.000  0.000  0.000  0.221
    2  0.000  0.110  0.000  0.110  0.000  0.000  0.000  0.000  0.000  0.221
tot    0.000  0.221  0.000  0.221  0.000  0.000  0.000  0.000  0.000  0.442
 
band     5 # energy    8.86540308 # occ.  0.00000000
 
ion      s     py     pz     px    dxy    dyz    dz2    dxz  x2-y2    tot
    1  0.103  0.000  0.102  0.000  0.000  0.000  0.000  0.000  0.000  0.205
    2  0.103  0.000  0.102  0.000  0.000  0.000  0.000  0.000  0.000  0.205
tot    0.206  0.000  0.203  0.000  0.000  0.000  0.000  0.000  0.000  0.410
 
band     6 # energy    8.89574727 # occ.  0.00000000
 
ion      s     py     pz     px    dxy    dyz    dz2    dxz  x2-y2    tot
    1  0.000  0.075  0.000  0.075  0.000  0.000  0.000  0.000  0.000  0.150
    2  0.000  0.075  0.000  0.075  0.000  0.000  0.000  0.000  0.000  0.150
tot    0.000  0.150  0.000  0.150  0.000  0.000  0.000  0.000  0.000  0.301
 
band     7 # energy    9.11854732 # occ.  0.00000000
 
ion      s     py     pz     px    dxy    dyz    dz2    dxz  x2-y2    tot
    1  0.024  0.023  0.085  0.023  0.000  0.000  0.000  0.000  0.000  0.155
    2  0.024  0.023  0.085  0.023  0.000  0.000  0.000  0.000  0.000  0.155
tot    0.048  0.047  0.169  0.047  0.000  0.000  0.000  0.000  0.000  0.311
 
band     8 # energy   11.31871963 # occ.  0.00000000
 
ion      s     py     pz     px    dxy    dyz    dz2    dxz  x2-y2    tot
    1  0.116  0.054  0.006  0.054  0.000  0.000  0.000  0.000  0.000  0.230
    2  0.116  0.054  0.006  0.054  0.000  0.000  0.000  0.000  0.000  0.230
tot    0.232  0.109  0.011  0.109  0.000  0.000  0.000  0.000  0.000  0.461
 
band     9 # energy   12.24164714 # occ.  0.00000000
 
ion      s     py     pz     px    dxy    dyz    dz2    dxz  x2-y2    tot
    1  0.000  0.000  0.000  0.000  0.000  0.000  0.000  0.000  0.000  0.000
    2  0.000  0.000  0.000  0.000  0.000  0.000  0.000  0.000  0.000  0.000
tot    0.000  0.000  0.000  0.000  0.000  0.000  0.000  0.000  0.000  0.000
 
band    10 # energy   13.71647764 # occ.  0.00000000
 
ion      s     py     pz     px    dxy    dyz    dz2    dxz  x2-y2    tot
    1  0.037  0.007  0.013  0.007  0.000  0.000  0.000  0.000  0.000  0.064
    2  0.037  0.007  0.013  0.007  0.000  0.000  0.000  0.000  0.000  0.064
tot    0.073  0.015  0.025  0.015  0.000  0.000  0.000  0.000  0.000  0.128
 
band    11 # energy   15.45196757 # occ.  0.00000000
 
ion      s     py     pz     px    dxy    dyz    dz2    dxz  x2-y2    tot
    1  0.057  0.026  0.011  0.026  0.000  0.000  0.000  0.000  0.000  0.120
    2  0.057  0.026  0.011  0.026  0.000  0.000  0.000  0.000  0.000  0.120
tot    0.115  0.052  0.021  0.052  0.000  0.000  0.000  0.000  0.000  0.240
 
band    12 # energy   16.98491709 # occ.  0.00000000
 
ion      s     py     pz     px    dxy    dyz    dz2    dxz  x2-y2    tot
    1  0.018  0.004  0.001  0.004  0.000  0.000  0.000  0.000  0.000  0.028
    2  0.018  0.005  0.001  0.005  0.000  0.000  0.000  0.000  0.000  0.028
tot    0.037  0.009  0.002  0.009  0.000  0.000  0.000  0.000  0.000  0.056
 

 k-point   170 :    0.10714286 0.10714286 0.21428571     weight = 0.00555556

band     1 # energy   -5.73032578 # occ.  2.00000000
 
ion      s     py     pz     px    dxy    dyz    dz2    dxz  x2-y2    tot
    1  0.212  0.002  0.000  0.002  0.000  0.000  0.000  0.000  0.000  0.216
    2  0.212  0.002  0.000  0.002  0.000  0.000  0.000  0.000  0.000  0.216
tot    0.423  0.004  0.000  0.004  0.000  0.000  0.000  0.000  0.000  0.432
 
band     2 # energy    3.61494226 # occ.  2.00000000
 
ion      s     py     pz     px    dxy    dyz    dz2    dxz  x2-y2    tot
    1  0.090  0.057  0.028  0.057  0.000  0.000  0.000  0.000  0.000  0.231
    2  0.090  0.057  0.028  0.057  0.000  0.000  0.000  0.000  0.000  0.231
tot    0.180  0.113  0.056  0.113  0.000  0.000  0.000  0.000  0.000  0.462
 
band     3 # energy    4.54009206 # occ.  2.00000000
 
ion      s     py     pz     px    dxy    dyz    dz2    dxz  x2-y2    tot
    1  0.005  0.026  0.136  0.026  0.000  0.000  0.000  0.000  0.000  0.193
    2  0.005  0.026  0.136  0.026  0.000  0.000  0.000  0.000  0.000  0.193
tot    0.011  0.053  0.271  0.053  0.000  0.000  0.000  0.000  0.000  0.387
 
band     4 # energy    5.62565431 # occ.  2.00000000
 
ion      s     py     pz     px    dxy    dyz    dz2    dxz  x2-y2    tot
    1  0.000  0.110  0.000  0.110  0.000  0.000  0.000  0.000  0.000  0.221
    2  0.000  0.110  0.000  0.110  0.000  0.000  0.000  0.000  0.000  0.221
tot    0.000  0.221  0.000  0.221  0.000  0.000  0.000  0.000  0.000  0.441
 
band     5 # energy    8.80934628 # occ.  0.00000000
 
ion      s     py     pz     px    dxy    dyz    dz2    dxz  x2-y2    tot
    1  0.000  0.075  0.000  0.075  0.000  0.000  0.000  0.000  0.000  0.151
    2  0.000  0.075  0.000  0.075  0.000  0.000  0.000  0.000  0.000  0.151
tot    0.000  0.151  0.000  0.151  0.000  0.000  0.000  0.000  0.000  0.301
 
band     6 # energy    8.84008136 # occ.  0.00000000
 
ion      s     py     pz     px    dxy    dyz    dz2    dxz  x2-y2    tot
    1  0.101  0.000  0.104  0.000  0.000  0.000  0.000  0.000  0.000  0.206
    2  0.101  0.000  0.104  0.000  0.000  0.000  0.000  0.000  0.000  0.206
tot    0.203  0.001  0.207  0.001  0.000  0.000  0.000  0.000  0.000  0.411
 
band     7 # energy    9.01315732 # occ.  0.00000000
 
ion      s     py     pz     px    dxy    dyz    dz2    dxz  x2-y2    tot
    1  0.022  0.028  0.079  0.028  0.000  0.000  0.000  0.000  0.000  0.156
    2  0.022  0.028  0.079  0.028  0.000  0.000  0.000  0.000  0.000  0.156
tot    0.044  0.055  0.157  0.055  0.000  0.000  0.000  0.000  0.000  0.312
 
band     8 # energy   11.17002944 # occ.  0.00000000
 
ion      s     py     pz     px    dxy    dyz    dz2    dxz  x2-y2    tot
    1  0.136  0.054  0.009  0.054  0.000  0.000  0.000  0.000  0.000  0.253
    2  0.136  0.054  0.009  0.054  0.000  0.000  0.000  0.000  0.000  0.253
tot    0.272  0.108  0.018  0.108  0.000  0.000  0.000  0.000  0.000  0.505
 
band     9 # energy   12.35606126 # occ.  0.00000000
 
ion      s     py     pz     px    dxy    dyz    dz2    dxz  x2-y2    tot
    1  0.000  0.000  0.000  0.000  0.000  0.000  0.000  0.000  0.000  0.000
    2  0.000  0.000  0.000  0.000  0.000  0.000  0.000  0.000  0.000  0.000
tot    0.000  0.000  0.000  0.000  0.000  0.000  0.000  0.000  0.000  0.001
 
band    10 # energy   13.54942834 # occ.  0.00000000
 
ion      s     py     pz     px    dxy    dyz    dz2    dxz  x2-y2    tot
    1  0.026  0.003  0.009  0.003  0.000  0.000  0.000  0.000  0.000  0.042
    2  0.026  0.003  0.009  0.003  0.000  0.000  0.000  0.000  0.000  0.042
tot    0.052  0.007  0.018  0.007  0.000  0.000  0.000  0.000  0.000  0.084
 
band    11 # energy   15.22940224 # occ.  0.00000000
 
ion      s     py     pz     px    dxy    dyz    dz2    dxz  x2-y2    tot
    1  0.064  0.024  0.008  0.024  0.000  0.000  0.000  0.000  0.000  0.118
    2  0.064  0.024  0.008  0.024  0.000  0.000  0.000  0.000  0.000  0.118
tot    0.127  0.047  0.016  0.047  0.000  0.000  0.000  0.000  0.000  0.237
 
band    12 # energy   16.94704687 # occ.  0.00000000
 
ion      s     py     pz     px    dxy    dyz    dz2    dxz  x2-y2    tot
    1  0.017  0.006  0.001  0.006  0.000  0.000  0.000  0.000  0.000  0.029
    2  0.017  0.006  0.001  0.006  0.000  0.000  0.000  0.000  0.000  0.029
tot    0.035  0.011  0.002  0.011  0.000  0.000  0.000  0.000  0.000  0.059
 

 k-point   171 :    0.09642857 0.09642857 0.19285714     weight = 0.00555556

band     1 # energy   -5.80545917 # occ.  2.00000000
 
ion      s     py     pz     px    dxy    dyz    dz2    dxz  x2-y2    tot
    1  0.212  0.002  0.000  0.002  0.000  0.000  0.000  0.000  0.000  0.215
    2  0.212  0.002  0.000  0.002  0.000  0.000  0.000  0.000  0.000  0.215
tot    0.424  0.003  0.000  0.003  0.000  0.000  0.000  0.000  0.000  0.431
 
band     2 # energy    3.89762616 # occ.  2.00000000
 
ion      s     py     pz     px    dxy    dyz    dz2    dxz  x2-y2    tot
    1  0.083  0.060  0.026  0.060  0.000  0.000  0.000  0.000  0.000  0.230
    2  0.083  0.060  0.026  0.060  0.000  0.000  0.000  0.000  0.000  0.230
tot    0.166  0.121  0.053  0.121  0.000  0.000  0.000  0.000  0.000  0.460
 
band     3 # energy    4.73695226 # occ.  2.00000000
 
ion      s     py     pz     px    dxy    dyz    dz2    dxz  x2-y2    tot
    1  0.004  0.024  0.143  0.024  0.000  0.000  0.000  0.000  0.000  0.196
    2  0.004  0.024  0.143  0.024  0.000  0.000  0.000  0.000  0.000  0.196
tot    0.008  0.049  0.287  0.049  0.000  0.000  0.000  0.000  0.000  0.392
 
band     4 # energy    5.66898742 # occ.  2.00000000
 
ion      s     py     pz     px    dxy    dyz    dz2    dxz  x2-y2    tot
    1  0.000  0.110  0.000  0.110  0.000  0.000  0.000  0.000  0.000  0.220
    2  0.000  0.110  0.000  0.110  0.000  0.000  0.000  0.000  0.000  0.220
tot    0.000  0.220  0.000  0.220  0.000  0.000  0.000  0.000  0.000  0.440
 
band     5 # energy    8.73106084 # occ.  0.00000000
 
ion      s     py     pz     px    dxy    dyz    dz2    dxz  x2-y2    tot
    1  0.000  0.075  0.000  0.075  0.000  0.000  0.000  0.000  0.000  0.151
    2  0.000  0.075  0.000  0.075  0.000  0.000  0.000  0.000  0.000  0.151
tot    0.000  0.151  0.000  0.151  0.000  0.000  0.000  0.000  0.000  0.301
 
band     6 # energy    8.81030578 # occ.  0.00000000
 
ion      s     py     pz     px    dxy    dyz    dz2    dxz  x2-y2    tot
    1  0.098  0.000  0.106  0.000  0.000  0.000  0.000  0.000  0.000  0.205
    2  0.098  0.000  0.106  0.000  0.000  0.000  0.000  0.000  0.000  0.205
tot    0.196  0.001  0.211  0.001  0.000  0.000  0.000  0.000  0.000  0.409
 
band     7 # energy    8.91395914 # occ.  0.00000000
 
ion      s     py     pz     px    dxy    dyz    dz2    dxz  x2-y2    tot
    1  0.020  0.032  0.072  0.032  0.000  0.000  0.000  0.000  0.000  0.156
    2  0.020  0.032  0.072  0.032  0.000  0.000  0.000  0.000  0.000  0.156
tot    0.039  0.065  0.143  0.065  0.000  0.000  0.000  0.000  0.000  0.312
 
band     8 # energy   10.96803714 # occ.  0.00000000
 
ion      s     py     pz     px    dxy    dyz    dz2    dxz  x2-y2    tot
    1  0.156  0.052  0.012  0.052  0.000  0.000  0.000  0.000  0.000  0.271
    2  0.156  0.052  0.012  0.052  0.000  0.000  0.000  0.000  0.000  0.271
tot    0.313  0.103  0.024  0.103  0.000  0.000  0.000  0.000  0.000  0.542
 
band     9 # energy   12.48407608 # occ.  0.00000000
 
ion      s     py     pz     px    dxy    dyz    dz2    dxz  x2-y2    tot
    1  0.000  0.000  0.000  0.000  0.000  0.000  0.000  0.000  0.000  0.001
    2  0.000  0.000  0.000  0.000  0.000  0.000  0.000  0.000  0.000  0.001
tot    0.000  0.001  0.000  0.001  0.000  0.000  0.000  0.000  0.000  0.001
 
band    10 # energy   13.45030535 # occ.  0.00000000
 
ion      s     py     pz     px    dxy    dyz    dz2    dxz  x2-y2    tot
    1  0.017  0.001  0.006  0.001  0.000  0.000  0.000  0.000  0.000  0.025
    2  0.017  0.001  0.006  0.001  0.000  0.000  0.000  0.000  0.000  0.025
tot    0.033  0.002  0.012  0.002  0.000  0.000  0.000  0.000  0.000  0.050
 
band    11 # energy   15.00667777 # occ.  0.00000000
 
ion      s     py     pz     px    dxy    dyz    dz2    dxz  x2-y2    tot
    1  0.069  0.021  0.005  0.021  0.000  0.000  0.000  0.000  0.000  0.116
    2  0.069  0.021  0.005  0.021  0.000  0.000  0.000  0.000  0.000  0.116
tot    0.139  0.041  0.011  0.041  0.000  0.000  0.000  0.000  0.000  0.233
 
band    12 # energy   16.92429409 # occ.  0.00000000
 
ion      s     py     pz     px    dxy    dyz    dz2    dxz  x2-y2    tot
    1  0.016  0.007  0.001  0.007  0.000  0.000  0.000  0.000  0.000  0.031
    2  0.016  0.007  0.001  0.007  0.000  0.000  0.000  0.000  0.000  0.031
tot    0.032  0.014  0.002  0.014  0.000  0.000  0.000  0.000  0.000  0.061
 

 k-point   172 :    0.08571429 0.08571429 0.17142857     weight = 0.00555556

band     1 # energy   -5.87293251 # occ.  2.00000000
 
ion      s     py     pz     px    dxy    dyz    dz2    dxz  x2-y2    tot
    1  0.212  0.001  0.000  0.001  0.000  0.000  0.000  0.000  0.000  0.215
    2  0.212  0.001  0.000  0.001  0.000  0.000  0.000  0.000  0.000  0.215
tot    0.424  0.003  0.000  0.003  0.000  0.000  0.000  0.000  0.000  0.430
 
band     2 # energy    4.18115868 # occ.  2.00000000
 
ion      s     py     pz     px    dxy    dyz    dz2    dxz  x2-y2    tot
    1  0.075  0.065  0.024  0.065  0.000  0.000  0.000  0.000  0.000  0.229
    2  0.075  0.065  0.024  0.065  0.000  0.000  0.000  0.000  0.000  0.229
tot    0.150  0.129  0.049  0.129  0.000  0.000  0.000  0.000  0.000  0.457
 
band     3 # energy    4.92746458 # occ.  2.00000000
 
ion      s     py     pz     px    dxy    dyz    dz2    dxz  x2-y2    tot
    1  0.003  0.022  0.152  0.022  0.000  0.000  0.000  0.000  0.000  0.199
    2  0.003  0.022  0.152  0.022  0.000  0.000  0.000  0.000  0.000  0.199
tot    0.006  0.044  0.304  0.044  0.000  0.000  0.000  0.000  0.000  0.397
 
band     4 # energy    5.70628595 # occ.  2.00000000
 
ion      s     py     pz     px    dxy    dyz    dz2    dxz  x2-y2    tot
    1  0.000  0.110  0.000  0.110  0.000  0.000  0.000  0.000  0.000  0.220
    2  0.000  0.110  0.000  0.110  0.000  0.000  0.000  0.000  0.000  0.220
tot    0.000  0.220  0.000  0.220  0.000  0.000  0.000  0.000  0.000  0.439
 
band     5 # energy    8.66101111 # occ.  0.00000000
 
ion      s     py     pz     px    dxy    dyz    dz2    dxz  x2-y2    tot
    1  0.000  0.075  0.000  0.075  0.000  0.000  0.000  0.000  0.000  0.151
    2  0.000  0.075  0.000  0.075  0.000  0.000  0.000  0.000  0.000  0.151
tot    0.000  0.151  0.000  0.151  0.000  0.000  0.000  0.000  0.000  0.302
 
band     6 # energy    8.77701017 # occ.  0.00000000
 
ion      s     py     pz     px    dxy    dyz    dz2    dxz  x2-y2    tot
    1  0.093  0.001  0.108  0.001  0.000  0.000  0.000  0.000  0.000  0.202
    2  0.093  0.001  0.108  0.001  0.000  0.000  0.000  0.000  0.000  0.202
tot    0.185  0.001  0.216  0.001  0.000  0.000  0.000  0.000  0.000  0.404
 
band     7 # energy    8.82104450 # occ.  0.00000000
 
ion      s     py     pz     px    dxy    dyz    dz2    dxz  x2-y2    tot
    1  0.017  0.038  0.064  0.038  0.000  0.000  0.000  0.000  0.000  0.156
    2  0.017  0.038  0.064  0.038  0.000  0.000  0.000  0.000  0.000  0.156
tot    0.034  0.075  0.128  0.075  0.000  0.000  0.000  0.000  0.000  0.312
 
band     8 # energy   10.72421485 # occ.  0.00000000
 
ion      s     py     pz     px    dxy    dyz    dz2    dxz  x2-y2    tot
    1  0.177  0.047  0.014  0.047  0.000  0.000  0.000  0.000  0.000  0.285
    2  0.177  0.047  0.014  0.047  0.000  0.000  0.000  0.000  0.000  0.285
tot    0.354  0.094  0.028  0.094  0.000  0.000  0.000  0.000  0.000  0.571
 
band     9 # energy   12.62399671 # occ.  0.00000000
 
ion      s     py     pz     px    dxy    dyz    dz2    dxz  x2-y2    tot
    1  0.000  0.000  0.000  0.000  0.000  0.000  0.000  0.000  0.000  0.001
    2  0.000  0.000  0.000  0.000  0.000  0.000  0.000  0.000  0.000  0.001
tot    0.000  0.001  0.000  0.001  0.000  0.000  0.000  0.000  0.000  0.002
 
band    10 # energy   13.40640342 # occ.  0.00000000
 
ion      s     py     pz     px    dxy    dyz    dz2    dxz  x2-y2    tot
    1  0.010  0.000  0.004  0.000  0.000  0.000  0.000  0.000  0.000  0.014
    2  0.010  0.000  0.004  0.000  0.000  0.000  0.000  0.000  0.000  0.014
tot    0.020  0.000  0.007  0.000  0.000  0.000  0.000  0.000  0.000  0.028
 
band    11 # energy   14.78907140 # occ.  0.00000000
 
ion      s     py     pz     px    dxy    dyz    dz2    dxz  x2-y2    tot
    1  0.075  0.018  0.004  0.018  0.000  0.000  0.000  0.000  0.000  0.114
    2  0.075  0.018  0.004  0.018  0.000  0.000  0.000  0.000  0.000  0.114
tot    0.150  0.035  0.007  0.035  0.000  0.000  0.000  0.000  0.000  0.228
 
band    12 # energy   16.91614090 # occ.  0.00000000
 
ion      s     py     pz     px    dxy    dyz    dz2    dxz  x2-y2    tot
    1  0.014  0.009  0.001  0.008  0.000  0.000  0.000  0.000  0.000  0.032
    2  0.014  0.009  0.001  0.008  0.000  0.000  0.000  0.000  0.000  0.032
tot    0.029  0.017  0.001  0.017  0.000  0.000  0.000  0.000  0.000  0.064
 

 k-point   173 :    0.07500000 0.07500000 0.15000000     weight = 0.00555556

band     1 # energy   -5.93265336 # occ.  2.00000000
 
ion      s     py     pz     px    dxy    dyz    dz2    dxz  x2-y2    tot
    1  0.212  0.001  0.000  0.001  0.000  0.000  0.000  0.000  0.000  0.215
    2  0.212  0.001  0.000  0.001  0.000  0.000  0.000  0.000  0.000  0.215
tot    0.425  0.002  0.000  0.002  0.000  0.000  0.000  0.000  0.000  0.429
 
band     2 # energy    4.46326413 # occ.  2.00000000
 
ion      s     py     pz     px    dxy    dyz    dz2    dxz  x2-y2    tot
    1  0.066  0.069  0.022  0.069  0.000  0.000  0.000  0.000  0.000  0.227
    2  0.066  0.069  0.022  0.069  0.000  0.000  0.000  0.000  0.000  0.227
tot    0.133  0.139  0.044  0.139  0.000  0.000  0.000  0.000  0.000  0.454
 
band     3 # energy    5.10905888 # occ.  2.00000000
 
ion      s     py     pz     px    dxy    dyz    dz2    dxz  x2-y2    tot
    1  0.002  0.019  0.161  0.019  0.000  0.000  0.000  0.000  0.000  0.201
    2  0.002  0.019  0.161  0.019  0.000  0.000  0.000  0.000  0.000  0.201
tot    0.004  0.038  0.322  0.038  0.000  0.000  0.000  0.000  0.000  0.403
 
band     4 # energy    5.73791780 # occ.  2.00000000
 
ion      s     py     pz     px    dxy    dyz    dz2    dxz  x2-y2    tot
    1  0.000  0.109  0.000  0.109  0.000  0.000  0.000  0.000  0.000  0.219
    2  0.000  0.109  0.000  0.109  0.000  0.000  0.000  0.000  0.000  0.219
tot    0.000  0.219  0.000  0.219  0.000  0.000  0.000  0.000  0.000  0.438
 
band     5 # energy    8.59917267 # occ.  0.00000000
 
ion      s     py     pz     px    dxy    dyz    dz2    dxz  x2-y2    tot
    1  0.000  0.075  0.000  0.075  0.000  0.000  0.000  0.000  0.000  0.151
    2  0.000  0.075  0.000  0.075  0.000  0.000  0.000  0.000  0.000  0.151
tot    0.000  0.151  0.000  0.151  0.000  0.000  0.000  0.000  0.000  0.302
 
band     6 # energy    8.73456253 # occ.  0.00000000
 
ion      s     py     pz     px    dxy    dyz    dz2    dxz  x2-y2    tot
    1  0.014  0.043  0.055  0.043  0.000  0.000  0.000  0.000  0.000  0.156
    2  0.014  0.043  0.055  0.043  0.000  0.000  0.000  0.000  0.000  0.156
tot    0.029  0.086  0.110  0.086  0.000  0.000  0.000  0.000  0.000  0.312
 
band     7 # energy    8.74050342 # occ.  0.00000000
 
ion      s     py     pz     px    dxy    dyz    dz2    dxz  x2-y2    tot
    1  0.084  0.001  0.112  0.001  0.000  0.000  0.000  0.000  0.000  0.198
    2  0.084  0.001  0.112  0.001  0.000  0.000  0.000  0.000  0.000  0.198
tot    0.169  0.002  0.223  0.002  0.000  0.000  0.000  0.000  0.000  0.396
 
band     8 # energy   10.45530013 # occ.  0.00000000
 
ion      s     py     pz     px    dxy    dyz    dz2    dxz  x2-y2    tot
    1  0.199  0.042  0.014  0.042  0.000  0.000  0.000  0.000  0.000  0.297
    2  0.199  0.042  0.014  0.042  0.000  0.000  0.000  0.000  0.000  0.297
tot    0.399  0.083  0.029  0.083  0.000  0.000  0.000  0.000  0.000  0.594
 
band     9 # energy   12.77269632 # occ.  0.00000000
 
ion      s     py     pz     px    dxy    dyz    dz2    dxz  x2-y2    tot
    1  0.000  0.001  0.000  0.001  0.000  0.000  0.000  0.000  0.000  0.001
    2  0.000  0.001  0.000  0.001  0.000  0.000  0.000  0.000  0.000  0.001
tot    0.000  0.001  0.000  0.001  0.000  0.000  0.000  0.000  0.000  0.002
 
band    10 # energy   13.40096820 # occ.  0.00000000
 
ion      s     py     pz     px    dxy    dyz    dz2    dxz  x2-y2    tot
    1  0.005  0.000  0.002  0.000  0.000  0.000  0.000  0.000  0.000  0.007
    2  0.005  0.000  0.002  0.000  0.000  0.000  0.000  0.000  0.000  0.007
tot    0.011  0.000  0.004  0.000  0.000  0.000  0.000  0.000  0.000  0.015
 
band    11 # energy   14.58177706 # occ.  0.00000000
 
ion      s     py     pz     px    dxy    dyz    dz2    dxz  x2-y2    tot
    1  0.080  0.015  0.002  0.015  0.000  0.000  0.000  0.000  0.000  0.112
    2  0.080  0.015  0.002  0.015  0.000  0.000  0.000  0.000  0.000  0.112
tot    0.161  0.029  0.005  0.029  0.000  0.000  0.000  0.000  0.000  0.224
 
band    12 # energy   16.93887434 # occ.  0.00000000
 
ion      s     py     pz     px    dxy    dyz    dz2    dxz  x2-y2    tot
    1  0.013  0.011  0.003  0.008  0.000  0.000  0.000  0.000  0.000  0.034
    2  0.011  0.012  0.000  0.009  0.000  0.000  0.000  0.000  0.000  0.033
tot    0.024  0.023  0.003  0.017  0.000  0.000  0.000  0.000  0.000  0.067
 

 k-point   174 :    0.06428571 0.06428571 0.12857143     weight = 0.00555556

band     1 # energy   -5.98454869 # occ.  2.00000000
 
ion      s     py     pz     px    dxy    dyz    dz2    dxz  x2-y2    tot
    1  0.213  0.001  0.000  0.001  0.000  0.000  0.000  0.000  0.000  0.214
    2  0.213  0.001  0.000  0.001  0.000  0.000  0.000  0.000  0.000  0.214
tot    0.425  0.002  0.000  0.002  0.000  0.000  0.000  0.000  0.000  0.429
 
band     2 # energy    4.74070214 # occ.  2.00000000
 
ion      s     py     pz     px    dxy    dyz    dz2    dxz  x2-y2    tot
    1  0.057  0.075  0.020  0.075  0.000  0.000  0.000  0.000  0.000  0.226
    2  0.057  0.075  0.020  0.075  0.000  0.000  0.000  0.000  0.000  0.226
tot    0.114  0.149  0.039  0.149  0.000  0.000  0.000  0.000  0.000  0.451
 
band     3 # energy    5.27866249 # occ.  2.00000000
 
ion      s     py     pz     px    dxy    dyz    dz2    dxz  x2-y2    tot
    1  0.001  0.016  0.171  0.016  0.000  0.000  0.000  0.000  0.000  0.204
    2  0.001  0.016  0.171  0.016  0.000  0.000  0.000  0.000  0.000  0.204
tot    0.003  0.032  0.342  0.032  0.000  0.000  0.000  0.000  0.000  0.409
 
band     4 # energy    5.76427400 # occ.  2.00000000
 
ion      s     py     pz     px    dxy    dyz    dz2    dxz  x2-y2    tot
    1  0.000  0.109  0.000  0.109  0.000  0.000  0.000  0.000  0.000  0.218
    2  0.000  0.109  0.000  0.109  0.000  0.000  0.000  0.000  0.000  0.218
tot    0.000  0.218  0.000  0.218  0.000  0.000  0.000  0.000  0.000  0.437
 
band     5 # energy    8.54552941 # occ.  0.00000000
 
ion      s     py     pz     px    dxy    dyz    dz2    dxz  x2-y2    tot
    1  0.000  0.076  0.000  0.076  0.000  0.000  0.000  0.000  0.000  0.151
    2  0.000  0.076  0.000  0.076  0.000  0.000  0.000  0.000  0.000  0.151
tot    0.000  0.151  0.000  0.151  0.000  0.000  0.000  0.000  0.000  0.302
 
band     6 # energy    8.65500837 # occ.  0.00000000
 
ion      s     py     pz     px    dxy    dyz    dz2    dxz  x2-y2    tot
    1  0.012  0.049  0.045  0.049  0.000  0.000  0.000  0.000  0.000  0.155
    2  0.012  0.049  0.045  0.049  0.000  0.000  0.000  0.000  0.000  0.155
tot    0.023  0.098  0.091  0.098  0.000  0.000  0.000  0.000  0.000  0.311
 
band     7 # energy    8.70023680 # occ.  0.00000000
 
ion      s     py     pz     px    dxy    dyz    dz2    dxz  x2-y2    tot
    1  0.072  0.002  0.116  0.002  0.000  0.000  0.000  0.000  0.000  0.192
    2  0.072  0.002  0.116  0.002  0.000  0.000  0.000  0.000  0.000  0.192
tot    0.145  0.003  0.232  0.003  0.000  0.000  0.000  0.000  0.000  0.384
 
band     8 # energy   10.17866339 # occ.  0.00000000
 
ion      s     py     pz     px    dxy    dyz    dz2    dxz  x2-y2    tot
    1  0.224  0.035  0.014  0.035  0.000  0.000  0.000  0.000  0.000  0.307
    2  0.224  0.035  0.014  0.035  0.000  0.000  0.000  0.000  0.000  0.307
tot    0.448  0.070  0.027  0.070  0.000  0.000  0.000  0.000  0.000  0.615
 
band     9 # energy   12.92610713 # occ.  0.00000000
 
ion      s     py     pz     px    dxy    dyz    dz2    dxz  x2-y2    tot
    1  0.000  0.001  0.000  0.001  0.000  0.000  0.000  0.000  0.000  0.001
    2  0.000  0.001  0.000  0.001  0.000  0.000  0.000  0.000  0.000  0.001
tot    0.000  0.001  0.000  0.001  0.000  0.000  0.000  0.000  0.000  0.002
 
band    10 # energy   13.41864652 # occ.  0.00000000
 
ion      s     py     pz     px    dxy    dyz    dz2    dxz  x2-y2    tot
    1  0.003  0.000  0.001  0.000  0.000  0.000  0.000  0.000  0.000  0.004
    2  0.003  0.000  0.001  0.000  0.000  0.000  0.000  0.000  0.000  0.004
tot    0.005  0.000  0.002  0.000  0.000  0.000  0.000  0.000  0.000  0.008
 
band    11 # energy   14.38986889 # occ.  0.00000000
 
ion      s     py     pz     px    dxy    dyz    dz2    dxz  x2-y2    tot
    1  0.085  0.011  0.001  0.011  0.000  0.000  0.000  0.000  0.000  0.110
    2  0.085  0.011  0.001  0.011  0.000  0.000  0.000  0.000  0.000  0.110
tot    0.171  0.023  0.003  0.023  0.000  0.000  0.000  0.000  0.000  0.219
 
band    12 # energy   16.93915555 # occ.  0.00000000
 
ion      s     py     pz     px    dxy    dyz    dz2    dxz  x2-y2    tot
    1  0.010  0.012  0.000  0.012  0.000  0.000  0.000  0.000  0.000  0.035
    2  0.010  0.012  0.000  0.012  0.000  0.000  0.000  0.000  0.000  0.035
tot    0.021  0.024  0.001  0.024  0.000  0.000  0.000  0.000  0.000  0.070
 

 k-point   175 :    0.05357143 0.05357143 0.10714286     weight = 0.00555556

band     1 # energy   -6.02856816 # occ.  2.00000000
 
ion      s     py     pz     px    dxy    dyz    dz2    dxz  x2-y2    tot
    1  0.213  0.001  0.000  0.001  0.000  0.000  0.000  0.000  0.000  0.214
    2  0.213  0.001  0.000  0.001  0.000  0.000  0.000  0.000  0.000  0.214
tot    0.426  0.001  0.000  0.001  0.000  0.000  0.000  0.000  0.000  0.428
 
band     2 # energy    5.00868649 # occ.  2.00000000
 
ion      s     py     pz     px    dxy    dyz    dz2    dxz  x2-y2    tot
    1  0.046  0.080  0.017  0.080  0.000  0.000  0.000  0.000  0.000  0.224
    2  0.046  0.080  0.017  0.080  0.000  0.000  0.000  0.000  0.000  0.224
tot    0.093  0.161  0.033  0.161  0.000  0.000  0.000  0.000  0.000  0.448
 
band     3 # energy    5.43284342 # occ.  2.00000000
 
ion      s     py     pz     px    dxy    dyz    dz2    dxz  x2-y2    tot
    1  0.001  0.013  0.181  0.013  0.000  0.000  0.000  0.000  0.000  0.207
    2  0.001  0.013  0.181  0.013  0.000  0.000  0.000  0.000  0.000  0.207
tot    0.002  0.025  0.363  0.025  0.000  0.000  0.000  0.000  0.000  0.414
 
band     4 # energy    5.78575075 # occ.  2.00000000
 
ion      s     py     pz     px    dxy    dyz    dz2    dxz  x2-y2    tot
    1  0.000  0.109  0.000  0.109  0.000  0.000  0.000  0.000  0.000  0.218
    2  0.000  0.109  0.000  0.109  0.000  0.000  0.000  0.000  0.000  0.218
tot    0.000  0.218  0.000  0.218  0.000  0.000  0.000  0.000  0.000  0.435
 
band     5 # energy    8.50014498 # occ.  0.00000000
 
ion      s     py     pz     px    dxy    dyz    dz2    dxz  x2-y2    tot
    1  0.000  0.076  0.000  0.076  0.000  0.000  0.000  0.000  0.000  0.151
    2  0.000  0.076  0.000  0.076  0.000  0.000  0.000  0.000  0.000  0.151
tot    0.000  0.151  0.000  0.151  0.000  0.000  0.000  0.000  0.000  0.302
 
band     6 # energy    8.58337395 # occ.  0.00000000
 
ion      s     py     pz     px    dxy    dyz    dz2    dxz  x2-y2    tot
    1  0.009  0.055  0.035  0.055  0.000  0.000  0.000  0.000  0.000  0.155
    2  0.009  0.055  0.035  0.055  0.000  0.000  0.000  0.000  0.000  0.155
tot    0.018  0.111  0.070  0.111  0.000  0.000  0.000  0.000  0.000  0.309
 
band     7 # energy    8.65475497 # occ.  0.00000000
 
ion      s     py     pz     px    dxy    dyz    dz2    dxz  x2-y2    tot
    1  0.057  0.002  0.122  0.002  0.000  0.000  0.000  0.000  0.000  0.184
    2  0.057  0.002  0.122  0.002  0.000  0.000  0.000  0.000  0.000  0.184
tot    0.113  0.005  0.245  0.005  0.000  0.000  0.000  0.000  0.000  0.367
 
band     8 # energy    9.91081863 # occ.  0.00000000
 
ion      s     py     pz     px    dxy    dyz    dz2    dxz  x2-y2    tot
    1  0.252  0.027  0.011  0.027  0.000  0.000  0.000  0.000  0.000  0.319
    2  0.252  0.027  0.011  0.027  0.000  0.000  0.000  0.000  0.000  0.319
tot    0.505  0.055  0.023  0.055  0.000  0.000  0.000  0.000  0.000  0.638
 
band     9 # energy   13.07928266 # occ.  0.00000000
 
ion      s     py     pz     px    dxy    dyz    dz2    dxz  x2-y2    tot
    1  0.000  0.001  0.000  0.001  0.000  0.000  0.000  0.000  0.000  0.001
    2  0.000  0.001  0.000  0.001  0.000  0.000  0.000  0.000  0.000  0.001
tot    0.000  0.001  0.000  0.001  0.000  0.000  0.000  0.000  0.000  0.003
 
band    10 # energy   13.44786170 # occ.  0.00000000
 
ion      s     py     pz     px    dxy    dyz    dz2    dxz  x2-y2    tot
    1  0.001  0.000  0.000  0.000  0.000  0.000  0.000  0.000  0.000  0.002
    2  0.001  0.000  0.000  0.000  0.000  0.000  0.000  0.000  0.000  0.002
tot    0.002  0.000  0.001  0.000  0.000  0.000  0.000  0.000  0.000  0.004
 
band    11 # energy   14.21812331 # occ.  0.00000000
 
ion      s     py     pz     px    dxy    dyz    dz2    dxz  x2-y2    tot
    1  0.090  0.008  0.001  0.008  0.000  0.000  0.000  0.000  0.000  0.107
    2  0.090  0.008  0.001  0.008  0.000  0.000  0.000  0.000  0.000  0.107
tot    0.180  0.017  0.001  0.017  0.000  0.000  0.000  0.000  0.000  0.215
 
band    12 # energy   16.96692053 # occ.  0.00000000
 
ion      s     py     pz     px    dxy    dyz    dz2    dxz  x2-y2    tot
    1  0.008  0.014  0.001  0.014  0.000  0.000  0.000  0.000  0.000  0.036
    2  0.008  0.014  0.000  0.014  0.000  0.000  0.000  0.000  0.000  0.036
tot    0.016  0.027  0.001  0.028  0.000  0.000  0.000  0.000  0.000  0.073
 

 k-point   176 :    0.04285714 0.04285714 0.08571429     weight = 0.00555556

band     1 # energy   -6.06465081 # occ.  2.00000000
 
ion      s     py     pz     px    dxy    dyz    dz2    dxz  x2-y2    tot
    1  0.213  0.000  0.000  0.000  0.000  0.000  0.000  0.000  0.000  0.214
    2  0.213  0.000  0.000  0.000  0.000  0.000  0.000  0.000  0.000  0.214
tot    0.426  0.001  0.000  0.001  0.000  0.000  0.000  0.000  0.000  0.428
 
band     2 # energy    5.26014452 # occ.  2.00000000
 
ion      s     py     pz     px    dxy    dyz    dz2    dxz  x2-y2    tot
    1  0.035  0.087  0.013  0.087  0.000  0.000  0.000  0.000  0.000  0.222
    2  0.035  0.087  0.013  0.087  0.000  0.000  0.000  0.000  0.000  0.222
tot    0.070  0.174  0.026  0.174  0.000  0.000  0.000  0.000  0.000  0.444
 
band     3 # energy    5.56763921 # occ.  2.00000000
 
ion      s     py     pz     px    dxy    dyz    dz2    dxz  x2-y2    tot
    1  0.000  0.009  0.192  0.009  0.000  0.000  0.000  0.000  0.000  0.210
    2  0.000  0.009  0.192  0.009  0.000  0.000  0.000  0.000  0.000  0.210
tot    0.001  0.018  0.383  0.018  0.000  0.000  0.000  0.000  0.000  0.420
 
band     4 # energy    5.80275697 # occ.  2.00000000
 
ion      s     py     pz     px    dxy    dyz    dz2    dxz  x2-y2    tot
    1  0.000  0.109  0.000  0.109  0.000  0.000  0.000  0.000  0.000  0.217
    2  0.000  0.109  0.000  0.109  0.000  0.000  0.000  0.000  0.000  0.217
tot    0.000  0.217  0.000  0.217  0.000  0.000  0.000  0.000  0.000  0.434
 
band     5 # energy    8.46300235 # occ.  0.00000000
 
ion      s     py     pz     px    dxy    dyz    dz2    dxz  x2-y2    tot
    1  0.000  0.076  0.000  0.076  0.000  0.000  0.000  0.000  0.000  0.151
    2  0.000  0.076  0.000  0.076  0.000  0.000  0.000  0.000  0.000  0.151
tot    0.000  0.151  0.000  0.151  0.000  0.000  0.000  0.000  0.000  0.302
 
band     6 # energy    8.52077893 # occ.  0.00000000
 
ion      s     py     pz     px    dxy    dyz    dz2    dxz  x2-y2    tot
    1  0.006  0.061  0.025  0.061  0.000  0.000  0.000  0.000  0.000  0.154
    2  0.006  0.061  0.025  0.061  0.000  0.000  0.000  0.000  0.000  0.154
tot    0.012  0.123  0.050  0.123  0.000  0.000  0.000  0.000  0.000  0.308
 
band     7 # energy    8.60157540 # occ.  0.00000000
 
ion      s     py     pz     px    dxy    dyz    dz2    dxz  x2-y2    tot
    1  0.037  0.003  0.130  0.003  0.000  0.000  0.000  0.000  0.000  0.173
    2  0.037  0.003  0.130  0.003  0.000  0.000  0.000  0.000  0.000  0.173
tot    0.074  0.006  0.260  0.006  0.000  0.000  0.000  0.000  0.000  0.346
 
band     8 # energy    9.66834099 # occ.  0.00000000
 
ion      s     py     pz     px    dxy    dyz    dz2    dxz  x2-y2    tot
    1  0.285  0.020  0.008  0.020  0.000  0.000  0.000  0.000  0.000  0.331
    2  0.285  0.020  0.008  0.020  0.000  0.000  0.000  0.000  0.000  0.331
tot    0.569  0.039  0.016  0.039  0.000  0.000  0.000  0.000  0.000  0.663
 
band     9 # energy   13.22538440 # occ.  0.00000000
 
ion      s     py     pz     px    dxy    dyz    dz2    dxz  x2-y2    tot
    1  0.000  0.001  0.000  0.001  0.000  0.000  0.000  0.000  0.000  0.001
    2  0.000  0.001  0.000  0.001  0.000  0.000  0.000  0.000  0.000  0.001
tot    0.000  0.001  0.000  0.001  0.000  0.000  0.000  0.000  0.000  0.002
 
band    10 # energy   13.48005840 # occ.  0.00000000
 
ion      s     py     pz     px    dxy    dyz    dz2    dxz  x2-y2    tot
    1  0.000  0.000  0.000  0.000  0.000  0.000  0.000  0.000  0.000  0.001
    2  0.000  0.000  0.000  0.000  0.000  0.000  0.000  0.000  0.000  0.001
tot    0.001  0.000  0.000  0.000  0.000  0.000  0.000  0.000  0.000  0.002
 
band    11 # energy   14.07085249 # occ.  0.00000000
 
ion      s     py     pz     px    dxy    dyz    dz2    dxz  x2-y2    tot
    1  0.094  0.006  0.000  0.006  0.000  0.000  0.000  0.000  0.000  0.105
    2  0.094  0.006  0.000  0.006  0.000  0.000  0.000  0.000  0.000  0.105
tot    0.188  0.011  0.001  0.011  0.000  0.000  0.000  0.000  0.000  0.211
 
band    12 # energy   17.00002986 # occ.  0.00000000
 
ion      s     py     pz     px    dxy    dyz    dz2    dxz  x2-y2    tot
    1  0.006  0.016  0.000  0.016  0.000  0.000  0.000  0.000  0.000  0.038
    2  0.006  0.015  0.001  0.016  0.000  0.000  0.000  0.000  0.000  0.038
tot    0.012  0.031  0.001  0.032  0.000  0.000  0.000  0.000  0.000  0.075
 

 k-point   177 :    0.03214286 0.03214286 0.06428571     weight = 0.00555556

band     1 # energy   -6.09275449 # occ.  2.00000000
 
ion      s     py     pz     px    dxy    dyz    dz2    dxz  x2-y2    tot
    1  0.213  0.000  0.000  0.000  0.000  0.000  0.000  0.000  0.000  0.214
    2  0.213  0.000  0.000  0.000  0.000  0.000  0.000  0.000  0.000  0.214
tot    0.427  0.000  0.000  0.000  0.000  0.000  0.000  0.000  0.000  0.427
 
band     2 # energy    5.48450811 # occ.  2.00000000
 
ion      s     py     pz     px    dxy    dyz    dz2    dxz  x2-y2    tot
    1  0.023  0.094  0.009  0.094  0.000  0.000  0.000  0.000  0.000  0.220
    2  0.023  0.094  0.009  0.094  0.000  0.000  0.000  0.000  0.000  0.220
tot    0.047  0.188  0.018  0.188  0.000  0.000  0.000  0.000  0.000  0.440
 
band     3 # energy    5.67885446 # occ.  2.00000000
 
ion      s     py     pz     px    dxy    dyz    dz2    dxz  x2-y2    tot
    1  0.000  0.006  0.201  0.006  0.000  0.000  0.000  0.000  0.000  0.212
    2  0.000  0.006  0.201  0.006  0.000  0.000  0.000  0.000  0.000  0.212
tot    0.000  0.011  0.402  0.011  0.000  0.000  0.000  0.000  0.000  0.425
 
band     4 # energy    5.81557749 # occ.  2.00000000
 
ion      s     py     pz     px    dxy    dyz    dz2    dxz  x2-y2    tot
    1  0.000  0.108  0.000  0.108  0.000  0.000  0.000  0.000  0.000  0.217
    2  0.000  0.108  0.000  0.108  0.000  0.000  0.000  0.000  0.000  0.217
tot    0.000  0.217  0.000  0.217  0.000  0.000  0.000  0.000  0.000  0.434
 
band     5 # energy    8.43410764 # occ.  0.00000000
 
ion      s     py     pz     px    dxy    dyz    dz2    dxz  x2-y2    tot
    1  0.000  0.076  0.000  0.076  0.000  0.000  0.000  0.000  0.000  0.151
    2  0.000  0.076  0.000  0.076  0.000  0.000  0.000  0.000  0.000  0.151
tot    0.000  0.151  0.000  0.151  0.000  0.000  0.000  0.000  0.000  0.303
 
band     6 # energy    8.46892766 # occ.  0.00000000
 
ion      s     py     pz     px    dxy    dyz    dz2    dxz  x2-y2    tot
    1  0.004  0.067  0.015  0.067  0.000  0.000  0.000  0.000  0.000  0.153
    2  0.004  0.067  0.015  0.067  0.000  0.000  0.000  0.000  0.000  0.153
tot    0.007  0.134  0.030  0.134  0.000  0.000  0.000  0.000  0.000  0.306
 
band     7 # energy    8.53948730 # occ.  0.00000000
 
ion      s     py     pz     px    dxy    dyz    dz2    dxz  x2-y2    tot
    1  0.018  0.003  0.138  0.003  0.000  0.000  0.000  0.000  0.000  0.163
    2  0.018  0.003  0.138  0.003  0.000  0.000  0.000  0.000  0.000  0.163
tot    0.036  0.006  0.277  0.006  0.000  0.000  0.000  0.000  0.000  0.325
 
band     8 # energy    9.46784572 # occ.  0.00000000
 
ion      s     py     pz     px    dxy    dyz    dz2    dxz  x2-y2    tot
    1  0.317  0.012  0.004  0.012  0.000  0.000  0.000  0.000  0.000  0.344
    2  0.317  0.012  0.004  0.012  0.000  0.000  0.000  0.000  0.000  0.344
tot    0.633  0.023  0.008  0.023  0.000  0.000  0.000  0.000  0.000  0.688
 
band     9 # energy   13.35585977 # occ.  0.00000000
 
ion      s     py     pz     px    dxy    dyz    dz2    dxz  x2-y2    tot
    1  0.000  0.000  0.000  0.000  0.000  0.000  0.000  0.000  0.000  0.001
    2  0.000  0.000  0.000  0.000  0.000  0.000  0.000  0.000  0.000  0.001
tot    0.000  0.001  0.000  0.001  0.000  0.000  0.000  0.000  0.000  0.002
 
band    10 # energy   13.50974405 # occ.  0.00000000
 
ion      s     py     pz     px    dxy    dyz    dz2    dxz  x2-y2    tot
    1  0.000  0.000  0.000  0.000  0.000  0.000  0.000  0.000  0.000  0.000
    2  0.000  0.000  0.000  0.000  0.000  0.000  0.000  0.000  0.000  0.000
tot    0.000  0.000  0.000  0.000  0.000  0.000  0.000  0.000  0.000  0.001
 
band    11 # energy   13.95190888 # occ.  0.00000000
 
ion      s     py     pz     px    dxy    dyz    dz2    dxz  x2-y2    tot
    1  0.097  0.003  0.000  0.003  0.000  0.000  0.000  0.000  0.000  0.104
    2  0.097  0.003  0.000  0.003  0.000  0.000  0.000  0.000  0.000  0.104
tot    0.194  0.007  0.000  0.007  0.000  0.000  0.000  0.000  0.000  0.208
 
band    12 # energy   17.03582827 # occ.  0.00000000
 
ion      s     py     pz     px    dxy    dyz    dz2    dxz  x2-y2    tot
    1  0.004  0.017  0.001  0.017  0.000  0.000  0.000  0.000  0.000  0.038
    2  0.004  0.017  0.002  0.017  0.000  0.000  0.000  0.000  0.000  0.039
tot    0.007  0.034  0.002  0.034  0.000  0.000  0.000  0.000  0.000  0.077
 

 k-point   178 :    0.02142857 0.02142857 0.04285714     weight = 0.00555556

band     1 # energy   -6.11284763 # occ.  2.00000000
 
ion      s     py     pz     px    dxy    dyz    dz2    dxz  x2-y2    tot
    1  0.213  0.000  0.000  0.000  0.000  0.000  0.000  0.000  0.000  0.214
    2  0.213  0.000  0.000  0.000  0.000  0.000  0.000  0.000  0.000  0.214
tot    0.427  0.000  0.000  0.000  0.000  0.000  0.000  0.000  0.000  0.427
 
band     2 # energy    5.66687025 # occ.  2.00000000
 
ion      s     py     pz     px    dxy    dyz    dz2    dxz  x2-y2    tot
    1  0.012  0.101  0.005  0.101  0.000  0.000  0.000  0.000  0.000  0.218
    2  0.012  0.101  0.005  0.101  0.000  0.000  0.000  0.000  0.000  0.218
tot    0.024  0.201  0.010  0.201  0.000  0.000  0.000  0.000  0.000  0.436
 
band     3 # energy    5.76220079 # occ.  2.00000000
 
ion      s     py     pz     px    dxy    dyz    dz2    dxz  x2-y2    tot
    1  0.000  0.003  0.209  0.003  0.000  0.000  0.000  0.000  0.000  0.214
    2  0.000  0.003  0.209  0.003  0.000  0.000  0.000  0.000  0.000  0.214
tot    0.000  0.005  0.418  0.005  0.000  0.000  0.000  0.000  0.000  0.429
 
band     4 # energy    5.82452097 # occ.  2.00000000
 
ion      s     py     pz     px    dxy    dyz    dz2    dxz  x2-y2    tot
    1  0.000  0.108  0.000  0.108  0.000  0.000  0.000  0.000  0.000  0.216
    2  0.000  0.108  0.000  0.108  0.000  0.000  0.000  0.000  0.000  0.216
tot    0.000  0.216  0.000  0.216  0.000  0.000  0.000  0.000  0.000  0.433
 
band     5 # energy    8.41346306 # occ.  0.00000000
 
ion      s     py     pz     px    dxy    dyz    dz2    dxz  x2-y2    tot
    1  0.000  0.076  0.000  0.076  0.000  0.000  0.000  0.000  0.000  0.151
    2  0.000  0.076  0.000  0.076  0.000  0.000  0.000  0.000  0.000  0.151
tot    0.000  0.151  0.000  0.151  0.000  0.000  0.000  0.000  0.000  0.303
 
band     6 # energy    8.42977705 # occ.  0.00000000
 
ion      s     py     pz     px    dxy    dyz    dz2    dxz  x2-y2    tot
    1  0.002  0.072  0.007  0.072  0.000  0.000  0.000  0.000  0.000  0.152
    2  0.002  0.072  0.007  0.072  0.000  0.000  0.000  0.000  0.000  0.152
tot    0.003  0.143  0.014  0.143  0.000  0.000  0.000  0.000  0.000  0.304
 
band     7 # energy    8.47319706 # occ.  0.00000000
 
ion      s     py     pz     px    dxy    dyz    dz2    dxz  x2-y2    tot
    1  0.005  0.002  0.145  0.002  0.000  0.000  0.000  0.000  0.000  0.155
    2  0.005  0.002  0.145  0.002  0.000  0.000  0.000  0.000  0.000  0.155
tot    0.010  0.005  0.291  0.005  0.000  0.000  0.000  0.000  0.000  0.310
 
band     8 # energy    9.32259955 # occ.  0.00000000
 
ion      s     py     pz     px    dxy    dyz    dz2    dxz  x2-y2    tot
    1  0.341  0.005  0.001  0.005  0.000  0.000  0.000  0.000  0.000  0.353
    2  0.341  0.005  0.001  0.005  0.000  0.000  0.000  0.000  0.000  0.353
tot    0.683  0.011  0.002  0.011  0.000  0.000  0.000  0.000  0.000  0.706
 
band     9 # energy   13.46060835 # occ.  0.00000000
 
ion      s     py     pz     px    dxy    dyz    dz2    dxz  x2-y2    tot
    1  0.000  0.000  0.000  0.000  0.000  0.000  0.000  0.000  0.000  0.000
    2  0.000  0.000  0.000  0.000  0.000  0.000  0.000  0.000  0.000  0.000
tot    0.000  0.000  0.000  0.000  0.000  0.000  0.000  0.000  0.000  0.001
 
band    10 # energy   13.53314176 # occ.  0.00000000
 
ion      s     py     pz     px    dxy    dyz    dz2    dxz  x2-y2    tot
    1  0.000  0.000  0.000  0.000  0.000  0.000  0.000  0.000  0.000  0.000
    2  0.000  0.000  0.000  0.000  0.000  0.000  0.000  0.000  0.000  0.000
tot    0.000  0.000  0.000  0.000  0.000  0.000  0.000  0.000  0.000  0.000
 
band    11 # energy   13.86448947 # occ.  0.00000000
 
ion      s     py     pz     px    dxy    dyz    dz2    dxz  x2-y2    tot
    1  0.100  0.002  0.000  0.002  0.000  0.000  0.000  0.000  0.000  0.103
    2  0.100  0.002  0.000  0.002  0.000  0.000  0.000  0.000  0.000  0.103
tot    0.199  0.003  0.000  0.003  0.000  0.000  0.000  0.000  0.000  0.205
 
band    12 # energy   17.07248960 # occ.  0.00000000
 
ion      s     py     pz     px    dxy    dyz    dz2    dxz  x2-y2    tot
    1  0.001  0.015  0.008  0.015  0.000  0.000  0.000  0.000  0.000  0.039
    2  0.001  0.014  0.011  0.013  0.000  0.000  0.000  0.000  0.000  0.040
tot    0.002  0.029  0.019  0.028  0.000  0.000  0.000  0.000  0.000  0.079
 

 k-point   179 :    0.01071429 0.01071429 0.02142857     weight = 0.00555556

band     1 # energy   -6.12490680 # occ.  2.00000000
 
ion      s     py     pz     px    dxy    dyz    dz2    dxz  x2-y2    tot
    1  0.213  0.000  0.000  0.000  0.000  0.000  0.000  0.000  0.000  0.213
    2  0.213  0.000  0.000  0.000  0.000  0.000  0.000  0.000  0.000  0.213
tot    0.427  0.000  0.000  0.000  0.000  0.000  0.000  0.000  0.000  0.427
 
band     2 # energy    5.78846347 # occ.  2.00000000
 
ion      s     py     pz     px    dxy    dyz    dz2    dxz  x2-y2    tot
    1  0.003  0.106  0.001  0.106  0.000  0.000  0.000  0.000  0.000  0.217
    2  0.003  0.106  0.001  0.106  0.000  0.000  0.000  0.000  0.000  0.217
tot    0.007  0.212  0.003  0.212  0.000  0.000  0.000  0.000  0.000  0.433
 
band     3 # energy    5.81397137 # occ.  2.00000000
 
ion      s     py     pz     px    dxy    dyz    dz2    dxz  x2-y2    tot
    1  0.000  0.001  0.214  0.001  0.000  0.000  0.000  0.000  0.000  0.216
    2  0.000  0.001  0.214  0.001  0.000  0.000  0.000  0.000  0.000  0.216
tot    0.000  0.001  0.429  0.001  0.000  0.000  0.000  0.000  0.000  0.431
 
band     4 # energy    5.82979904 # occ.  2.00000000
 
ion      s     py     pz     px    dxy    dyz    dz2    dxz  x2-y2    tot
    1  0.000  0.108  0.000  0.108  0.000  0.000  0.000  0.000  0.000  0.216
    2  0.000  0.108  0.000  0.108  0.000  0.000  0.000  0.000  0.000  0.216
tot    0.000  0.216  0.000  0.216  0.000  0.000  0.000  0.000  0.000  0.432
 
band     5 # energy    8.40107479 # occ.  0.00000000
 
ion      s     py     pz     px    dxy    dyz    dz2    dxz  x2-y2    tot
    1  0.000  0.076  0.000  0.076  0.000  0.000  0.000  0.000  0.000  0.151
    2  0.000  0.076  0.000  0.076  0.000  0.000  0.000  0.000  0.000  0.151
tot    0.000  0.151  0.000  0.151  0.000  0.000  0.000  0.000  0.000  0.303
 
band     6 # energy    8.40529158 # occ.  0.00000000
 
ion      s     py     pz     px    dxy    dyz    dz2    dxz  x2-y2    tot
    1  0.000  0.075  0.002  0.075  0.000  0.000  0.000  0.000  0.000  0.152
    2  0.000  0.075  0.002  0.075  0.000  0.000  0.000  0.000  0.000  0.152
tot    0.001  0.149  0.004  0.149  0.000  0.000  0.000  0.000  0.000  0.303
 
band     7 # energy    8.41857033 # occ.  0.00000000
 
ion      s     py     pz     px    dxy    dyz    dz2    dxz  x2-y2    tot
    1  0.000  0.001  0.150  0.001  0.000  0.000  0.000  0.000  0.000  0.152
    2  0.000  0.001  0.150  0.001  0.000  0.000  0.000  0.000  0.000  0.152
tot    0.001  0.002  0.300  0.002  0.000  0.000  0.000  0.000  0.000  0.304
 
band     8 # energy    9.23743437 # occ.  0.00000000
 
ion      s     py     pz     px    dxy    dyz    dz2    dxz  x2-y2    tot
    1  0.355  0.001  0.000  0.001  0.000  0.000  0.000  0.000  0.000  0.358
    2  0.355  0.001  0.000  0.001  0.000  0.000  0.000  0.000  0.000  0.358
tot    0.710  0.003  0.000  0.003  0.000  0.000  0.000  0.000  0.000  0.715
 
band     9 # energy   13.52913292 # occ.  0.00000000
 
ion      s     py     pz     px    dxy    dyz    dz2    dxz  x2-y2    tot
    1  0.000  0.000  0.000  0.000  0.000  0.000  0.000  0.000  0.000  0.000
    2  0.000  0.000  0.000  0.000  0.000  0.000  0.000  0.000  0.000  0.000
tot    0.000  0.000  0.000  0.000  0.000  0.000  0.000  0.000  0.000  0.000
 
band    10 # energy   13.54798609 # occ.  0.00000000
 
ion      s     py     pz     px    dxy    dyz    dz2    dxz  x2-y2    tot
    1  0.000  0.000  0.000  0.000  0.000  0.000  0.000  0.000  0.000  0.000
    2  0.000  0.000  0.000  0.000  0.000  0.000  0.000  0.000  0.000  0.000
tot    0.000  0.000  0.000  0.000  0.000  0.000  0.000  0.000  0.000  0.000
 
band    11 # energy   13.81102346 # occ.  0.00000000
 
ion      s     py     pz     px    dxy    dyz    dz2    dxz  x2-y2    tot
    1  0.101  0.000  0.000  0.000  0.000  0.000  0.000  0.000  0.000  0.102
    2  0.101  0.000  0.000  0.000  0.000  0.000  0.000  0.000  0.000  0.102
tot    0.202  0.001  0.000  0.001  0.000  0.000  0.000  0.000  0.000  0.204
 
band    12 # energy   17.07899087 # occ.  0.00000000
 
ion      s     py     pz     px    dxy    dyz    dz2    dxz  x2-y2    tot
    1  0.000  0.021  0.000  0.018  0.000  0.000  0.000  0.000  0.000  0.040
    2  0.000  0.021  0.000  0.018  0.000  0.000  0.000  0.000  0.000  0.040
tot    0.001  0.042  0.000  0.037  0.000  0.000  0.000  0.000  0.000  0.080
 

 k-point   180 :    0.00000000 0.00000000-0.00000000     weight = 0.00555556

band     1 # energy   -6.12892076 # occ.  2.00000000
 
ion      s     py     pz     px    dxy    dyz    dz2    dxz  x2-y2    tot
    1  0.213  0.000  0.000  0.000  0.000  0.000  0.000  0.000  0.000  0.213
    2  0.213  0.000  0.000  0.000  0.000  0.000  0.000  0.000  0.000  0.213
tot    0.427  0.000  0.000  0.000  0.000  0.000  0.000  0.000  0.000  0.427
 
band     2 # energy    5.83154365 # occ.  2.00000000
 
ion      s     py     pz     px    dxy    dyz    dz2    dxz  x2-y2    tot
    1  0.000  0.050  0.156  0.011  0.000  0.000  0.000  0.000  0.000  0.216
    2  0.000  0.050  0.156  0.011  0.000  0.000  0.000  0.000  0.000  0.216
tot    0.000  0.099  0.311  0.022  0.000  0.000  0.000  0.000  0.000  0.432
 
band     3 # energy    5.83154370 # occ.  2.00000000
 
ion      s     py     pz     px    dxy    dyz    dz2    dxz  x2-y2    tot
    1  0.000  0.136  0.041  0.040  0.000  0.000  0.000  0.000  0.000  0.216
    2  0.000  0.136  0.041  0.040  0.000  0.000  0.000  0.000  0.000  0.216
tot    0.000  0.272  0.081  0.079  0.000  0.000  0.000  0.000  0.000  0.432
 
band     4 # energy    5.83154372 # occ.  2.00000000
 
ion      s     py     pz     px    dxy    dyz    dz2    dxz  x2-y2    tot
    1  0.000  0.030  0.020  0.166  0.000  0.000  0.000  0.000  0.000  0.216
    2  0.000  0.030  0.020  0.166  0.000  0.000  0.000  0.000  0.000  0.216
tot    0.000  0.061  0.040  0.331  0.000  0.000  0.000  0.000  0.000  0.432
 
band     5 # energy    8.39694503 # occ.  0.00000000
 
ion      s     py     pz     px    dxy    dyz    dz2    dxz  x2-y2    tot
    1  0.000  0.063  0.066  0.022  0.000  0.000  0.000  0.000  0.000  0.151
    2  0.000  0.063  0.066  0.022  0.000  0.000  0.000  0.000  0.000  0.151
tot    0.000  0.127  0.132  0.044  0.000  0.000  0.000  0.000  0.000  0.303
 
band     6 # energy    8.39694505 # occ.  0.00000000
 
ion      s     py     pz     px    dxy    dyz    dz2    dxz  x2-y2    tot
    1  0.000  0.085  0.040  0.026  0.000  0.000  0.000  0.000  0.000  0.151
    2  0.000  0.085  0.040  0.026  0.000  0.000  0.000  0.000  0.000  0.151
tot    0.000  0.170  0.080  0.053  0.000  0.000  0.000  0.000  0.000  0.303
 
band     7 # energy    8.39694510 # occ.  0.00000000
 
ion      s     py     pz     px    dxy    dyz    dz2    dxz  x2-y2    tot
    1  0.000  0.003  0.045  0.103  0.000  0.000  0.000  0.000  0.000  0.151
    2  0.000  0.003  0.045  0.103  0.000  0.000  0.000  0.000  0.000  0.151
tot    0.000  0.006  0.091  0.206  0.000  0.000  0.000  0.000  0.000  0.303
 
band     8 # energy    9.20980121 # occ.  0.00000000
 
ion      s     py     pz     px    dxy    dyz    dz2    dxz  x2-y2    tot
    1  0.359  0.000  0.000  0.000  0.000  0.000  0.000  0.000  0.000  0.359
    2  0.359  0.000  0.000  0.000  0.000  0.000  0.000  0.000  0.000  0.359
tot    0.717  0.000  0.000  0.000  0.000  0.000  0.000  0.000  0.000  0.717
 
band     9 # energy   13.55306007 # occ.  0.00000000
 
ion      s     py     pz     px    dxy    dyz    dz2    dxz  x2-y2    tot
    1  0.000  0.000  0.000  0.000  0.000  0.000  0.000  0.000  0.000  0.000
    2  0.000  0.000  0.000  0.000  0.000  0.000  0.000  0.000  0.000  0.000
tot    0.000  0.000  0.000  0.000  0.000  0.000  0.000  0.000  0.000  0.000
 
band    10 # energy   13.55306403 # occ.  0.00000000
 
ion      s     py     pz     px    dxy    dyz    dz2    dxz  x2-y2    tot
    1  0.000  0.000  0.000  0.000  0.000  0.000  0.000  0.000  0.000  0.000
    2  0.000  0.000  0.000  0.000  0.000  0.000  0.000  0.000  0.000  0.000
tot    0.000  0.000  0.000  0.000  0.000  0.000  0.000  0.000  0.000  0.000
 
band    11 # energy   13.79302595 # occ.  0.00000000
 
ion      s     py     pz     px    dxy    dyz    dz2    dxz  x2-y2    tot
    1  0.102  0.000  0.000  0.000  0.000  0.000  0.000  0.000  0.000  0.102
    2  0.102  0.000  0.000  0.000  0.000  0.000  0.000  0.000  0.000  0.102
tot    0.203  0.000  0.000  0.000  0.000  0.000  0.000  0.000  0.000  0.203
 
band    12 # energy   17.08586139 # occ.  0.00000000
 
ion      s     py     pz     px    dxy    dyz    dz2    dxz  x2-y2    tot
    1  0.000  0.002  0.011  0.026  0.000  0.000  0.000  0.000  0.000  0.040
    2  0.000  0.002  0.011  0.026  0.000  0.000  0.000  0.000  0.000  0.040
tot    0.000  0.005  0.023  0.053  0.000  0.000  0.000  0.000  0.000  0.080
 
