<?xml version="1.0" encoding="ISO-8859-1"?>
<modeling>
 <generator>
  <i name="program" type="string">vasp </i>
  <i name="version" type="string">6.6.0  </i>
  <i name="subversion" type="string">06Mar2026 (build Apr 30 2026 15:36:16) complex                        parallel </i>
  <i name="platform" type="string">LinuxIFC </i>
  <i name="date" type="string">2026 05 01 </i>
  <i name="time" type="string">10:49:52 </i>
 </generator>
 <incar>
  <i type="string" name="SYSTEM">Si_diamond_PBE_band_vasp</i>
  <i type="string" name="PREC">Accurate</i>
  <i type="string" name="ALGO">Fast</i>
  <i type="int" name="ICHARG">    11</i>
  <i type="int" name="NELM">   100</i>
  <i type="int" name="IBRION">    -1</i>
  <i name="EDIFF">      0.00000100</i>
  <i type="int" name="NSW">     0</i>
  <i name="ENCUT">    400.00000000</i>
  <i type="int" name="NBANDS">    12</i>
  <i type="logical" name="LREAL"> F  </i>
  <i type="int" name="ISMEAR">     0</i>
  <i name="SIGMA">      0.05000000</i>
  <i type="logical" name="LWAVE"> F  </i>
  <i type="logical" name="LCHARG"> F  </i>
  <i type="int" name="LORBIT">    11</i>
  <i type="string" name="GGA">PE</i>
 </incar>
 <primitive_cell>
  <structure name="primitive_cell" >
   <crystal>
    <varray name="basis" >
     <v>       0.00000000       2.71500000       2.71500000 </v>
     <v>       2.71500000       0.00000000       2.71500000 </v>
     <v>       2.71500000       2.71500000       0.00000000 </v>
    </varray>
    <i name="volume">     40.02575175 </i>
    <varray name="rec_basis" >
     <v>      -0.18416206       0.18416206       0.18416206 </v>
     <v>       0.18416206      -0.18416206       0.18416206 </v>
     <v>       0.18416206       0.18416206      -0.18416206 </v>
    </varray>
   </crystal>
   <varray name="positions" >
    <v>       0.00000000       0.00000000       0.00000000 </v>
    <v>       0.25000000       0.25000000       0.25000000 </v>
   </varray>
  </structure>
  <varray name="primitive_index" >
   <v type="int" >        1 </v>
   <v type="int" >        2 </v>
  </varray>
 </primitive_cell>
 <kpoints>
  <generation param="listgenerated">
   <i name="divisions" type="int">      36 </i>
   <v>       0.50000000       0.50000000       0.50000000 </v>
   <v>       0.00000000       0.00000000       0.00000000 </v>
   <v>       0.50000000       0.00000000       0.50000000 </v>
   <v>       0.50000000       0.25000000       0.75000000 </v>
   <v>       0.37500000       0.37500000       0.75000000 </v>
   <v>       0.00000000       0.00000000      -0.00000000 </v>
  </generation>
  <varray name="kpointlist" >
   <v>       0.50000000       0.50000000       0.50000000 </v>
   <v>       0.48571429       0.48571429       0.48571429 </v>
   <v>       0.47142857       0.47142857       0.47142857 </v>
   <v>       0.45714286       0.45714286       0.45714286 </v>
   <v>       0.44285714       0.44285714       0.44285714 </v>
   <v>       0.42857143       0.42857143       0.42857143 </v>
   <v>       0.41428571       0.41428571       0.41428571 </v>
   <v>       0.40000000       0.40000000       0.40000000 </v>
   <v>       0.38571429       0.38571429       0.38571429 </v>
   <v>       0.37142857       0.37142857       0.37142857 </v>
   <v>       0.35714286       0.35714286       0.35714286 </v>
   <v>       0.34285714       0.34285714       0.34285714 </v>
   <v>       0.32857143       0.32857143       0.32857143 </v>
   <v>       0.31428571       0.31428571       0.31428571 </v>
   <v>       0.30000000       0.30000000       0.30000000 </v>
   <v>       0.28571429       0.28571429       0.28571429 </v>
   <v>       0.27142857       0.27142857       0.27142857 </v>
   <v>       0.25714286       0.25714286       0.25714286 </v>
   <v>       0.24285714       0.24285714       0.24285714 </v>
   <v>       0.22857143       0.22857143       0.22857143 </v>
   <v>       0.21428571       0.21428571       0.21428571 </v>
   <v>       0.20000000       0.20000000       0.20000000 </v>
   <v>       0.18571429       0.18571429       0.18571429 </v>
   <v>       0.17142857       0.17142857       0.17142857 </v>
   <v>       0.15714286       0.15714286       0.15714286 </v>
   <v>       0.14285714       0.14285714       0.14285714 </v>
   <v>       0.12857143       0.12857143       0.12857143 </v>
   <v>       0.11428571       0.11428571       0.11428571 </v>
   <v>       0.10000000       0.10000000       0.10000000 </v>
   <v>       0.08571429       0.08571429       0.08571429 </v>
   <v>       0.07142857       0.07142857       0.07142857 </v>
   <v>       0.05714286       0.05714286       0.05714286 </v>
   <v>       0.04285714       0.04285714       0.04285714 </v>
   <v>       0.02857143       0.02857143       0.02857143 </v>
   <v>       0.01428571       0.01428571       0.01428571 </v>
   <v>       0.00000000       0.00000000       0.00000000 </v>
   <v>       0.00000000       0.00000000       0.00000000 </v>
   <v>       0.01428571       0.00000000       0.01428571 </v>
   <v>       0.02857143       0.00000000       0.02857143 </v>
   <v>       0.04285714       0.00000000       0.04285714 </v>
   <v>       0.05714286       0.00000000       0.05714286 </v>
   <v>       0.07142857       0.00000000       0.07142857 </v>
   <v>       0.08571429       0.00000000       0.08571429 </v>
   <v>       0.10000000       0.00000000       0.10000000 </v>
   <v>       0.11428571       0.00000000       0.11428571 </v>
   <v>       0.12857143       0.00000000       0.12857143 </v>
   <v>       0.14285714       0.00000000       0.14285714 </v>
   <v>       0.15714286       0.00000000       0.15714286 </v>
   <v>       0.17142857       0.00000000       0.17142857 </v>
   <v>       0.18571429       0.00000000       0.18571429 </v>
   <v>       0.20000000       0.00000000       0.20000000 </v>
   <v>       0.21428571       0.00000000       0.21428571 </v>
   <v>       0.22857143       0.00000000       0.22857143 </v>
   <v>       0.24285714       0.00000000       0.24285714 </v>
   <v>       0.25714286       0.00000000       0.25714286 </v>
   <v>       0.27142857       0.00000000       0.27142857 </v>
   <v>       0.28571429       0.00000000       0.28571429 </v>
   <v>       0.30000000       0.00000000       0.30000000 </v>
   <v>       0.31428571       0.00000000       0.31428571 </v>
   <v>       0.32857143       0.00000000       0.32857143 </v>
   <v>       0.34285714       0.00000000       0.34285714 </v>
   <v>       0.35714286       0.00000000       0.35714286 </v>
   <v>       0.37142857       0.00000000       0.37142857 </v>
   <v>       0.38571429       0.00000000       0.38571429 </v>
   <v>       0.40000000       0.00000000       0.40000000 </v>
   <v>       0.41428571       0.00000000       0.41428571 </v>
   <v>       0.42857143       0.00000000       0.42857143 </v>
   <v>       0.44285714       0.00000000       0.44285714 </v>
   <v>       0.45714286       0.00000000       0.45714286 </v>
   <v>       0.47142857       0.00000000       0.47142857 </v>
   <v>       0.48571429       0.00000000       0.48571429 </v>
   <v>       0.50000000       0.00000000       0.50000000 </v>
   <v>       0.50000000       0.00000000       0.50000000 </v>
   <v>       0.50000000       0.00714286       0.50714286 </v>
   <v>       0.50000000       0.01428571       0.51428571 </v>
   <v>       0.50000000       0.02142857       0.52142857 </v>
   <v>       0.50000000       0.02857143       0.52857143 </v>
   <v>       0.50000000       0.03571429       0.53571429 </v>
   <v>       0.50000000       0.04285714       0.54285714 </v>
   <v>       0.50000000       0.05000000       0.55000000 </v>
   <v>       0.50000000       0.05714286       0.55714286 </v>
   <v>       0.50000000       0.06428571       0.56428571 </v>
   <v>       0.50000000       0.07142857       0.57142857 </v>
   <v>       0.50000000       0.07857143       0.57857143 </v>
   <v>       0.50000000       0.08571429       0.58571429 </v>
   <v>       0.50000000       0.09285714       0.59285714 </v>
   <v>       0.50000000       0.10000000       0.60000000 </v>
   <v>       0.50000000       0.10714286       0.60714286 </v>
   <v>       0.50000000       0.11428571       0.61428571 </v>
   <v>       0.50000000       0.12142857       0.62142857 </v>
   <v>       0.50000000       0.12857143       0.62857143 </v>
   <v>       0.50000000       0.13571429       0.63571429 </v>
   <v>       0.50000000       0.14285714       0.64285714 </v>
   <v>       0.50000000       0.15000000       0.65000000 </v>
   <v>       0.50000000       0.15714286       0.65714286 </v>
   <v>       0.50000000       0.16428571       0.66428571 </v>
   <v>       0.50000000       0.17142857       0.67142857 </v>
   <v>       0.50000000       0.17857143       0.67857143 </v>
   <v>       0.50000000       0.18571429       0.68571429 </v>
   <v>       0.50000000       0.19285714       0.69285714 </v>
   <v>       0.50000000       0.20000000       0.70000000 </v>
   <v>       0.50000000       0.20714286       0.70714286 </v>
   <v>       0.50000000       0.21428571       0.71428571 </v>
   <v>       0.50000000       0.22142857       0.72142857 </v>
   <v>       0.50000000       0.22857143       0.72857143 </v>
   <v>       0.50000000       0.23571429       0.73571429 </v>
   <v>       0.50000000       0.24285714       0.74285714 </v>
   <v>       0.50000000       0.25000000       0.75000000 </v>
   <v>       0.50000000       0.25000000       0.75000000 </v>
   <v>       0.49642857       0.25357143       0.75000000 </v>
   <v>       0.49285714       0.25714286       0.75000000 </v>
   <v>       0.48928571       0.26071429       0.75000000 </v>
   <v>       0.48571429       0.26428571       0.75000000 </v>
   <v>       0.48214286       0.26785714       0.75000000 </v>
   <v>       0.47857143       0.27142857       0.75000000 </v>
   <v>       0.47500000       0.27500000       0.75000000 </v>
   <v>       0.47142857       0.27857143       0.75000000 </v>
   <v>       0.46785714       0.28214286       0.75000000 </v>
   <v>       0.46428571       0.28571429       0.75000000 </v>
   <v>       0.46071429       0.28928571       0.75000000 </v>
   <v>       0.45714286       0.29285714       0.75000000 </v>
   <v>       0.45357143       0.29642857       0.75000000 </v>
   <v>       0.45000000       0.30000000       0.75000000 </v>
   <v>       0.44642857       0.30357143       0.75000000 </v>
   <v>       0.44285714       0.30714286       0.75000000 </v>
   <v>       0.43928571       0.31071429       0.75000000 </v>
   <v>       0.43571429       0.31428571       0.75000000 </v>
   <v>       0.43214286       0.31785714       0.75000000 </v>
   <v>       0.42857143       0.32142857       0.75000000 </v>
   <v>       0.42500000       0.32500000       0.75000000 </v>
   <v>       0.42142857       0.32857143       0.75000000 </v>
   <v>       0.41785714       0.33214286       0.75000000 </v>
   <v>       0.41428571       0.33571429       0.75000000 </v>
   <v>       0.41071429       0.33928571       0.75000000 </v>
   <v>       0.40714286       0.34285714       0.75000000 </v>
   <v>       0.40357143       0.34642857       0.75000000 </v>
   <v>       0.40000000       0.35000000       0.75000000 </v>
   <v>       0.39642857       0.35357143       0.75000000 </v>
   <v>       0.39285714       0.35714286       0.75000000 </v>
   <v>       0.38928571       0.36071429       0.75000000 </v>
   <v>       0.38571429       0.36428571       0.75000000 </v>
   <v>       0.38214286       0.36785714       0.75000000 </v>
   <v>       0.37857143       0.37142857       0.75000000 </v>
   <v>       0.37500000       0.37500000       0.75000000 </v>
   <v>       0.37500000       0.37500000       0.75000000 </v>
   <v>       0.36428571       0.36428571       0.72857143 </v>
   <v>       0.35357143       0.35357143       0.70714286 </v>
   <v>       0.34285714       0.34285714       0.68571429 </v>
   <v>       0.33214286       0.33214286       0.66428571 </v>
   <v>       0.32142857       0.32142857       0.64285714 </v>
   <v>       0.31071429       0.31071429       0.62142857 </v>
   <v>       0.30000000       0.30000000       0.60000000 </v>
   <v>       0.28928571       0.28928571       0.57857143 </v>
   <v>       0.27857143       0.27857143       0.55714286 </v>
   <v>       0.26785714       0.26785714       0.53571429 </v>
   <v>       0.25714286       0.25714286       0.51428571 </v>
   <v>       0.24642857       0.24642857       0.49285714 </v>
   <v>       0.23571429       0.23571429       0.47142857 </v>
   <v>       0.22500000       0.22500000       0.45000000 </v>
   <v>       0.21428571       0.21428571       0.42857143 </v>
   <v>       0.20357143       0.20357143       0.40714286 </v>
   <v>       0.19285714       0.19285714       0.38571429 </v>
   <v>       0.18214286       0.18214286       0.36428571 </v>
   <v>       0.17142857       0.17142857       0.34285714 </v>
   <v>       0.16071429       0.16071429       0.32142857 </v>
   <v>       0.15000000       0.15000000       0.30000000 </v>
   <v>       0.13928571       0.13928571       0.27857143 </v>
   <v>       0.12857143       0.12857143       0.25714286 </v>
   <v>       0.11785714       0.11785714       0.23571429 </v>
   <v>       0.10714286       0.10714286       0.21428571 </v>
   <v>       0.09642857       0.09642857       0.19285714 </v>
   <v>       0.08571429       0.08571429       0.17142857 </v>
   <v>       0.07500000       0.07500000       0.15000000 </v>
   <v>       0.06428571       0.06428571       0.12857143 </v>
   <v>       0.05357143       0.05357143       0.10714286 </v>
   <v>       0.04285714       0.04285714       0.08571429 </v>
   <v>       0.03214286       0.03214286       0.06428571 </v>
   <v>       0.02142857       0.02142857       0.04285714 </v>
   <v>       0.01071429       0.01071429       0.02142857 </v>
   <v>       0.00000000       0.00000000      -0.00000000 </v>
  </varray>
  <varray name="weights" >
   <v>       0.00555556 </v>
   <v>       0.00555556 </v>
   <v>       0.00555556 </v>
   <v>       0.00555556 </v>
   <v>       0.00555556 </v>
   <v>       0.00555556 </v>
   <v>       0.00555556 </v>
   <v>       0.00555556 </v>
   <v>       0.00555556 </v>
   <v>       0.00555556 </v>
   <v>       0.00555556 </v>
   <v>       0.00555556 </v>
   <v>       0.00555556 </v>
   <v>       0.00555556 </v>
   <v>       0.00555556 </v>
   <v>       0.00555556 </v>
   <v>       0.00555556 </v>
   <v>       0.00555556 </v>
   <v>       0.00555556 </v>
   <v>       0.00555556 </v>
   <v>       0.00555556 </v>
   <v>       0.00555556 </v>
   <v>       0.00555556 </v>
   <v>       0.00555556 </v>
   <v>       0.00555556 </v>
   <v>       0.00555556 </v>
   <v>       0.00555556 </v>
   <v>       0.00555556 </v>
   <v>       0.00555556 </v>
   <v>       0.00555556 </v>
   <v>       0.00555556 </v>
   <v>       0.00555556 </v>
   <v>       0.00555556 </v>
   <v>       0.00555556 </v>
   <v>       0.00555556 </v>
   <v>       0.00555556 </v>
   <v>       0.00555556 </v>
   <v>       0.00555556 </v>
   <v>       0.00555556 </v>
   <v>       0.00555556 </v>
   <v>       0.00555556 </v>
   <v>       0.00555556 </v>
   <v>       0.00555556 </v>
   <v>       0.00555556 </v>
   <v>       0.00555556 </v>
   <v>       0.00555556 </v>
   <v>       0.00555556 </v>
   <v>       0.00555556 </v>
   <v>       0.00555556 </v>
   <v>       0.00555556 </v>
   <v>       0.00555556 </v>
   <v>       0.00555556 </v>
   <v>       0.00555556 </v>
   <v>       0.00555556 </v>
   <v>       0.00555556 </v>
   <v>       0.00555556 </v>
   <v>       0.00555556 </v>
   <v>       0.00555556 </v>
   <v>       0.00555556 </v>
   <v>       0.00555556 </v>
   <v>       0.00555556 </v>
   <v>       0.00555556 </v>
   <v>       0.00555556 </v>
   <v>       0.00555556 </v>
   <v>       0.00555556 </v>
   <v>       0.00555556 </v>
   <v>       0.00555556 </v>
   <v>       0.00555556 </v>
   <v>       0.00555556 </v>
   <v>       0.00555556 </v>
   <v>       0.00555556 </v>
   <v>       0.00555556 </v>
   <v>       0.00555556 </v>
   <v>       0.00555556 </v>
   <v>       0.00555556 </v>
   <v>       0.00555556 </v>
   <v>       0.00555556 </v>
   <v>       0.00555556 </v>
   <v>       0.00555556 </v>
   <v>       0.00555556 </v>
   <v>       0.00555556 </v>
   <v>       0.00555556 </v>
   <v>       0.00555556 </v>
   <v>       0.00555556 </v>
   <v>       0.00555556 </v>
   <v>       0.00555556 </v>
   <v>       0.00555556 </v>
   <v>       0.00555556 </v>
   <v>       0.00555556 </v>
   <v>       0.00555556 </v>
   <v>       0.00555556 </v>
   <v>       0.00555556 </v>
   <v>       0.00555556 </v>
   <v>       0.00555556 </v>
   <v>       0.00555556 </v>
   <v>       0.00555556 </v>
   <v>       0.00555556 </v>
   <v>       0.00555556 </v>
   <v>       0.00555556 </v>
   <v>       0.00555556 </v>
   <v>       0.00555556 </v>
   <v>       0.00555556 </v>
   <v>       0.00555556 </v>
   <v>       0.00555556 </v>
   <v>       0.00555556 </v>
   <v>       0.00555556 </v>
   <v>       0.00555556 </v>
   <v>       0.00555556 </v>
   <v>       0.00555556 </v>
   <v>       0.00555556 </v>
   <v>       0.00555556 </v>
   <v>       0.00555556 </v>
   <v>       0.00555556 </v>
   <v>       0.00555556 </v>
   <v>       0.00555556 </v>
   <v>       0.00555556 </v>
   <v>       0.00555556 </v>
   <v>       0.00555556 </v>
   <v>       0.00555556 </v>
   <v>       0.00555556 </v>
   <v>       0.00555556 </v>
   <v>       0.00555556 </v>
   <v>       0.00555556 </v>
   <v>       0.00555556 </v>
   <v>       0.00555556 </v>
   <v>       0.00555556 </v>
   <v>       0.00555556 </v>
   <v>       0.00555556 </v>
   <v>       0.00555556 </v>
   <v>       0.00555556 </v>
   <v>       0.00555556 </v>
   <v>       0.00555556 </v>
   <v>       0.00555556 </v>
   <v>       0.00555556 </v>
   <v>       0.00555556 </v>
   <v>       0.00555556 </v>
   <v>       0.00555556 </v>
   <v>       0.00555556 </v>
   <v>       0.00555556 </v>
   <v>       0.00555556 </v>
   <v>       0.00555556 </v>
   <v>       0.00555556 </v>
   <v>       0.00555556 </v>
   <v>       0.00555556 </v>
   <v>       0.00555556 </v>
   <v>       0.00555556 </v>
   <v>       0.00555556 </v>
   <v>       0.00555556 </v>
   <v>       0.00555556 </v>
   <v>       0.00555556 </v>
   <v>       0.00555556 </v>
   <v>       0.00555556 </v>
   <v>       0.00555556 </v>
   <v>       0.00555556 </v>
   <v>       0.00555556 </v>
   <v>       0.00555556 </v>
   <v>       0.00555556 </v>
   <v>       0.00555556 </v>
   <v>       0.00555556 </v>
   <v>       0.00555556 </v>
   <v>       0.00555556 </v>
   <v>       0.00555556 </v>
   <v>       0.00555556 </v>
   <v>       0.00555556 </v>
   <v>       0.00555556 </v>
   <v>       0.00555556 </v>
   <v>       0.00555556 </v>
   <v>       0.00555556 </v>
   <v>       0.00555556 </v>
   <v>       0.00555556 </v>
   <v>       0.00555556 </v>
   <v>       0.00555556 </v>
   <v>       0.00555556 </v>
   <v>       0.00555556 </v>
   <v>       0.00555556 </v>
   <v>       0.00555556 </v>
   <v>       0.00555556 </v>
   <v>       0.00555556 </v>
   <v>       0.00555556 </v>
   <v>       0.00555556 </v>
  </varray>
 </kpoints>
 <parameters>
  <separator name="general" >
   <i type="string" name="SYSTEM">Si_diamond_PBE_band_vasp</i>
   <i type="logical" name="LCOMPAT"> F  </i>
  </separator>
  <separator name="electronic" >
   <i type="string" name="PREC">accura</i>
   <i name="ENMAX">    400.00000000</i>
   <i name="ENAUG">    322.06900000</i>
   <i name="EDIFF">      0.00000100</i>
   <i type="int" name="IALGO">    68</i>
   <i type="int" name="IWAVPR">    10</i>
   <i name="MAXDIS">      0.00000000</i>
   <i type="int" name="NBANDS">    12</i>
   <i type="int" name="NBANDSLOW">    -1</i>
   <i type="int" name="NBANDSHIGH">    -1</i>
   <i name="NELECT">      8.00000000</i>
   <i type="int" name="TURBO">     0</i>
   <i type="int" name="IRESTART">     0</i>
   <i type="int" name="NREBOOT">     0</i>
   <i type="int" name="NMIN">     0</i>
   <i name="EREF">      0.00000000</i>
   <separator name="electronic smearing" >
    <i type="int" name="ISMEAR">     0</i>
    <i name="SIGMA">      0.05000000</i>
    <i name="KSPACING">      0.50000000</i>
    <i type="logical" name="KGAMMA"> T  </i>
    <i type="logical" name="KBLOWUP"> T  </i>
   </separator>
   <separator name="electronic projectors" >
    <i type="logical" name="LREAL"> F  </i>
    <v name="ROPT">      0.00000000</v>
    <i type="int" name="LMAXPAW">  -100</i>
    <i type="int" name="LMAXMIX">     2</i>
    <i type="logical" name="NLSPLINE"> F  </i>
   </separator>
   <separator name="electronic startup" >
    <i type="int" name="ISTART">     0</i>
    <i type="int" name="ICHARG">    11</i>
    <i type="int" name="INIWAV">     1</i>
   </separator>
   <separator name="electronic spin" >
    <i type="int" name="ISPIN">     1</i>
    <i type="logical" name="LNONCOLLINEAR"> F  </i>
    <v name="MAGMOM">      1.00000000      1.00000000</v>
    <i name="NUPDOWN">     -1.00000000</i>
    <i type="logical" name="LSORBIT"> F  </i>
    <v name="SAXIS">      0.00000000      0.00000000      1.00000000</v>
    <i type="logical" name="LSPIRAL"> F  </i>
    <v name="QSPIRAL">      0.00000000      0.00000000      0.00000000</v>
    <i type="logical" name="LZEROZ"> F  </i>
   </separator>
   <separator name="electronic exchange-correlation" >
    <i type="logical" name="LASPH"> F  </i>
   </separator>
   <separator name="electronic convergence" >
    <i type="int" name="NELM">   100</i>
    <i type="int" name="NELMDL">     0</i>
    <i type="int" name="NELMIN">     2</i>
    <i name="ENINI">    400.00000000</i>
    <separator name="electronic convergence detail" >
     <i type="logical" name="LDIAG"> T  </i>
     <i type="logical" name="LSUBROT"> F  </i>
     <i type="logical" name="LROBUST"> F  </i>
     <i type="int" name="ISEARCH">     0</i>
     <i name="WEIMIN">      0.00000000</i>
     <i name="EBREAK">      0.00000002</i>
     <i name="DEPER">      0.30000000</i>
     <i type="int" name="NRMM">     4</i>
     <i name="TIME">      0.40000000</i>
    </separator>
   </separator>
   <separator name="electronic mixer" >
    <i name="AMIX">      0.40000000</i>
    <i name="BMIX">      1.00000000</i>
    <i name="AMIN">      0.10000000</i>
    <i name="AMIX_MAG">      1.60000000</i>
    <i name="BMIX_MAG">      1.00000000</i>
    <separator name="electronic mixer details" >
     <i type="int" name="IMIX">     4</i>
     <i type="logical" name="MIXFIRST"> F  </i>
     <i type="int" name="MAXMIX">   -45</i>
     <i name="WC">    100.00000000</i>
     <i type="int" name="INIMIX">     1</i>
     <i type="int" name="MIXPRE">     1</i>
     <i type="int" name="MREMOVE">     5</i>
    </separator>
   </separator>
   <separator name="electronic dipolcorrection" >
    <i type="logical" name="LDIPOL"> F  </i>
    <i type="logical" name="LMONO"> F  </i>
    <i type="int" name="IDIPOL">     0</i>
    <i name="EPSILON">      1.00000000</i>
    <v name="DIPOL">   -100.00000000   -100.00000000   -100.00000000</v>
    <i name="EFIELD">      0.00000000</i>
    <i type="logical" name="LVACPOTAV"> F  </i>
   </separator>
  </separator>
  <separator name="grids" >
   <i type="int" name="NGX">    28</i>
   <i type="int" name="NGY">    28</i>
   <i type="int" name="NGZ">    28</i>
   <i type="int" name="NGXF">    56</i>
   <i type="int" name="NGYF">    56</i>
   <i type="int" name="NGZF">    56</i>
   <i type="logical" name="ADDGRID"> F  </i>
  </separator>
  <separator name="ionic" >
   <i type="int" name="NSW">     0</i>
   <i type="int" name="IBRION">    -1</i>
   <i type="int" name="MDALGO">     0</i>
   <i type="int" name="ISIF">     2</i>
   <i name="PSTRESS">      0.00000000</i>
   <i name="EDIFFG">      0.00001000</i>
   <i type="int" name="NFREE">     0</i>
   <i name="POTIM">      0.50000000</i>
   <i name="SMASS">     -3.00000000</i>
   <i name="SCALEE">      1.00000000</i>
  </separator>
  <separator name="ionic md" >
   <i name="TEBEG">      0.00010000</i>
   <i name="TEEND">      0.00010000</i>
   <i type="int" name="NBLOCK">     1</i>
   <i type="int" name="KBLOCK">     1</i>
   <i type="int" name="NPACO">   256</i>
   <i name="APACO">     10.00000000</i>
  </separator>
  <separator name="symmetry" >
   <i type="int" name="ISYM">     2</i>
   <i name="SYMPREC">      0.00001000</i>
  </separator>
  <separator name="dos" >
   <i type="int" name="LORBIT">    11</i>
   <v name="RWIGS">     -1.00000000</v>
   <i type="int" name="NEDOS">   301</i>
   <i name="EMIN">     10.00000000</i>
   <i name="EMAX">    -10.00000000</i>
   <i name="EFERMI">      0.00000000</i>
  </separator>
  <separator name="writing" >
   <i type="int" name="NWRITE">     2</i>
   <i type="logical" name="LWAVE"> F  </i>
   <i type="logical" name="LDOWNSAMPLE"> F  </i>
   <i type="logical" name="LCHARG"> F  </i>
   <i type="logical" name="LPARD"> F  </i>
   <i type="logical" name="LVTOT"> F  </i>
   <i type="logical" name="LVHAR"> F  </i>
   <i type="logical" name="LELF"> F  </i>
   <i type="logical" name="LOPTICS"> F  </i>
   <v name="STM">      0.00000000      0.00000000      0.00000000      0.00000000      0.00000000      0.00000000      0.00000000</v>
  </separator>
  <separator name="performance" >
   <i type="int" name="NPAR">     1</i>
   <i type="int" name="NSIM">     4</i>
   <i type="int" name="NBLK">    -1</i>
   <i type="logical" name="LPLANE"> T  </i>
   <i type="logical" name="LSCALAPACK"> T  </i>
   <i type="logical" name="LSCAAWARE"> F  </i>
   <i type="logical" name="LSCALU"> F  </i>
   <i type="logical" name="LASYNC"> F  </i>
   <i type="logical" name="LORBITALREAL"> F  </i>
  </separator>
  <separator name="miscellaneous" >
   <i type="int" name="IDIOT">     3</i>
   <i type="int" name="PHON_NSTRUCT">    -1</i>
   <i type="logical" name="LMUSIC"> F  </i>
   <v name="POMASS">     28.08500000</v>
   <v name="DARWINR">      0.00000000</v>
   <v name="DARWINV">      1.00000000</v>
   <i type="logical" name="LCORR"> T  </i>
  </separator>
  <i type="logical" name="GGA_COMPAT"> T  </i>
  <i type="logical" name="LBERRY"> F  </i>
  <i type="int" name="ICORELEVEL">     0</i>
  <i type="logical" name="LDAU"> F  </i>
  <i type="int" name="I_CONSTRAINED_M">     0</i>
  <separator name="electronic exchange-correlation" >
   <i type="string" name="GGA    ">PE</i>
   <i type="string" name="XC_C">1</i>
   <i type="int" name="VOSKOWN">     0</i>
   <i type="logical" name="LHFCALC"> F  </i>
   <i type="string" name="PRECFOCK"></i>
   <i type="logical" name="LSYMGRAD"> F  </i>
   <i type="logical" name="LHFONE"> F  </i>
   <i type="logical" name="LRHFCALC"> F  </i>
   <i type="logical" name="LTHOMAS"> F  </i>
   <i type="logical" name="LMODELHF"> F  </i>
   <i type="logical" name="LFOCKACE"> F  </i>
   <i name="ENCUT4O">     -1.00000000</i>
   <i type="int" name="EXXOEP">     0</i>
   <i type="int" name="FOURORBIT">     0</i>
   <i name="AEXX">      0.00000000</i>
   <i name="BEXX">      1.00000000</i>
   <i name="HFALPHA">      0.00000000</i>
   <i name="MCALPHA">      0.00000000</i>
   <i name="ALDAX">      1.00000000</i>
   <i name="BLDAX">      0.00000000</i>
   <i name="AGGAX">      1.00000000</i>
   <i name="BGGAX">      0.00000000</i>
   <i name="AMGGAX">      1.00000000</i>
   <i name="ALDAC">      1.00000000</i>
   <i name="AGGAC">      1.00000000</i>
   <i name="AMGGAC">      1.00000000</i>
   <i type="int" name="NKREDX">     1</i>
   <i type="int" name="NKREDY">     1</i>
   <i type="int" name="NKREDZ">     1</i>
   <i type="logical" name="SHIFTRED"> F  </i>
   <i type="logical" name="ODDONLY"> F  </i>
   <i type="logical" name="EVENONLY"> F  </i>
   <i type="int" name="LMAXFOCK">     0</i>
   <i type="int" name="NMAXFOCKAE">     0</i>
   <i type="logical" name="LFOCKAEDFT"> F  </i>
   <i name="HFSCREEN">      0.00000000</i>
   <i name="HFSCREENC">      0.00000000</i>
   <i type="int" name="NBANDSGWLOW">     0</i>
  </separator>
  <separator name="vdW DFT" >
   <i type="logical" name="LUSE_VDW"> F  </i>
   <i type="int" name="IVDW_NL">    -1</i>
   <i type="logical" name="LSPIN_VDW"> F  </i>
   <i name="ZAB_VDW">     -0.84910000</i>
   <i name="GAMMA_VDW">      1.39626340</i>
   <i name="ALPHA_VDW">      0.00000000</i>
   <i name="PARAM1">      0.12340000</i>
   <i name="PARAM2">      1.00000000</i>
   <i name="BPARAM">      6.30000000</i>
   <i name="CPARAM">      0.00930000</i>
  </separator>
  <separator name="model GW" >
   <i type="int" name="MODEL_GW">     0</i>
   <i name="MODEL_EPS0">     12.00772552</i>
   <i name="MODEL_ALPHA">      1.00000000</i>
  </separator>
  <separator name="linear response parameters" >
   <i type="logical" name="LEPSILON"> F  </i>
   <i type="logical" name="LRPA"> F  </i>
   <i type="logical" name="LNABLA"> F  </i>
   <i type="logical" name="LVEL"> F  </i>
   <i name="CSHIFT">      0.10000000</i>
   <i name="OMEGAMAX">     -1.00000000</i>
   <i name="DEG_THRESHOLD">      0.00200000</i>
   <i name="RTIME">     -0.10000000</i>
   <i name="WPLASMAI">      0.00000000</i>
   <v name="DFIELD">      0.00000000      0.00000000      0.00000000</v>
   <v name="WPLASMA">      0.00000000      0.00000000      0.00000000      0.00000000      0.00000000      0.00000000      0.00000000      0.00000000      0.00000000</v>
  </separator>
  <separator name="orbital magnetization" >
   <i type="logical" name="NUCIND"> F  </i>
   <v name="MAGPOS">      0.00000000      0.00000000      0.00000000</v>
   <i type="logical" name="LNICSALL"> F  </i>
   <i type="logical" name="ORBITALMAG"> F  </i>
   <i type="logical" name="LMAGBLOCH"> F  </i>
   <i type="logical" name="LCHIMAG"> F  </i>
   <i type="logical" name="LGAUGE"> T  </i>
   <i type="int" name="MAGATOM">     0</i>
   <v name="MAGDIPOL">      0.00000000      0.00000000      0.00000000</v>
   <v name="AVECCONST">      0.00000000      0.00000000      0.00000000</v>
  </separator>
  <separator name="response functions" >
   <i type="logical" name="LALL_IN_ONE"> F  </i>
   <i type="int" name="IALL_IN_ONE">    -1</i>
   <i type="int" name="NBANDS_WAVE">    -1</i>
   <i type="logical" name="LFINITE_TEMPERATURE"> F  </i>
   <i type="logical" name="LADDER"> F  </i>
   <i type="logical" name="LRPAFORCE"> F  </i>
   <i type="logical" name="LFXC"> F  </i>
   <i type="logical" name="LHARTREE"> T  </i>
   <i type="int" name="IBSE">     2</i>
   <v type="int" name="KPOINT">    -1     0     0     0</v>
   <i type="logical" name="LTCTC"> F  </i>
   <i type="logical" name="LTCTE"> F  </i>
   <i type="logical" name="LTETE"> F  </i>
   <i type="logical" name="LTRIPLET"> F  </i>
   <i type="logical" name="LFXCEPS"> F  </i>
   <i type="logical" name="LFXHEG"> F  </i>
   <i type="int" name="NATURALO">     2</i>
   <i type="logical" name="LHOLEGF"> F  </i>
   <i type="logical" name="L2ORDER"> F  </i>
   <i type="logical" name="LDMP1"> F  </i>
   <i type="logical" name="LMP2LT"> F  </i>
   <i type="logical" name="LSMP2LT"> F  </i>
   <i type="logical" name="LGWLF"> F  </i>
   <i name="ENCUTGW">     -1.60000002</i>
   <i name="ENCUTGWSOFT">     -1.60000002</i>
   <i name="ENCUTLF">     -1.00000000</i>
   <i type="logical" name="ESF_SPLINES"> F  </i>
   <i name="ESF_CONV">      0.01000000</i>
   <i type="int" name="ESF_NINTER">    15</i>
   <i type="int" name="LMAXMP2">    -1</i>
   <i name="SCISSOR">      0.00000000</i>
   <i type="int" name="NOMEGA">     0</i>
   <i type="int" name="NOMEGAR">     0</i>
   <i type="int" name="NBANDSGW">    -1</i>
   <i type="int" name="NBANDSO">    -1</i>
   <i type="int" name="NBANDSV">    -1</i>
   <i type="int" name="NELMGW">     1</i>
   <i type="int" name="NELMHF">     1</i>
   <i type="int" name="DIM">     3</i>
   <i type="int" name="IESPILON">     4</i>
   <i type="int" name="ANTIRES">     0</i>
   <i name="OMEGAMAX">    -30.00000000</i>
   <i name="OMEGAMIN">    -30.00000000</i>
   <i name="OMEGATL">   -200.00000000</i>
   <i type="int" name="OMEGAGRID">     0</i>
   <i name="CSHIFT">     -0.10000000</i>
   <i type="logical" name="LSELFENERGY"> F  </i>
   <i type="logical" name="LSPECTRAL"> F  </i>
   <i type="logical" name="LSPECTRALGW"> F  </i>
   <i type="logical" name="LSINGLES"> F  </i>
   <i type="logical" name="LFERMIGW"> F  </i>
   <i type="logical" name="ODDONLYGW"> F  </i>
   <i type="logical" name="EVENONLYGW"> F  </i>
   <i type="int" name="NKREDLFX">     1</i>
   <i type="int" name="NKREDLFY">     1</i>
   <i type="int" name="NKREDLFZ">     1</i>
   <i type="int" name="MAXMEM">  2800</i>
   <i type="int" name="TELESCOPE">     0</i>
   <i type="int" name="NTAUPAR">    -1</i>
   <i type="int" name="NOMEGAPAR">    -1</i>
   <i name="DAMP_NEWTON">      0.80000001</i>
   <i type="logical" name="LFOCKSTD"> F  </i>
   <i type="logical" name="LCRPA"> F  </i>
   <i type="logical" name="LTWO_CENTRE"> F  </i>
   <i type="logical" name="LPCRPA"> T  </i>
   <i type="logical" name="LPCRPA_REV"> F  </i>
   <i type="logical" name="LDISENTANGLED"> F  </i>
   <i type="logical" name="LWCRPA"> F  </i>
   <i type="logical" name="LSCRPA"> F  </i>
   <i name="MSDGW_F">     -1.00000000</i>
   <i type="int" name="MSDGW_NS">    -1</i>
   <i type="int" name="MSDGW_NP">    -1</i>
   <i type="int" name="MSDGW_NXI">     2</i>
   <i type="int" name="MSDGW_SEED">  4357</i>
   <i name="LAMBDA">      1.00000000</i>
  </separator>
  <separator name="External order field" >
   <i name="OFIELD_KAPPA">      0.00000000</i>
   <v name="OFIELD_K">      0.00000000      0.00000000      0.00000000</v>
   <i name="OFIELD_Q6_NEAR">      0.00000000</i>
   <i name="OFIELD_Q6_FAR">      0.00000000</i>
   <i name="OFIELD_A">      0.00000000</i>
  </separator>
  <separator name="optional k-points parameters" >
   <i type="int" name="KPOINTS_OPT_MODE">     1</i>
   <i type="logical" name="LKPOINTS_OPT"> F  </i>
  </separator>
 </parameters>
 <atominfo>
  <atoms>       2 </atoms>
  <types>       1 </types>
  <array name="atoms" >
   <dimension dim="1">ion</dimension>
   <field type="string">element</field>
   <field type="int">atomtype</field>
   <set>
    <rc><c>Si</c><c>   1</c></rc>
    <rc><c>Si</c><c>   1</c></rc>
   </set>
  </array>
  <array name="atomtypes" >
   <dimension dim="1">type</dimension>
   <field type="int">atomspertype</field>
   <field type="string">element</field>
   <field>mass</field>
   <field>valence</field>
   <field type="string">pseudopotential</field>
   <set>
    <rc><c>   2</c><c>Si</c><c>     28.08500000</c><c>      4.00000000</c><c> PAW_PBE Si 05Jan2001                   </c></rc>
   </set>
  </array>
 </atominfo>
 <structure name="initialpos" >
  <crystal>
   <varray name="basis" >
    <v>       0.00000000       2.71500000       2.71500000 </v>
    <v>       2.71500000       0.00000000       2.71500000 </v>
    <v>       2.71500000       2.71500000       0.00000000 </v>
   </varray>
   <i name="volume">     40.02575175 </i>
   <varray name="rec_basis" >
    <v>      -0.18416206       0.18416206       0.18416206 </v>
    <v>       0.18416206      -0.18416206       0.18416206 </v>
    <v>       0.18416206       0.18416206      -0.18416206 </v>
   </varray>
  </crystal>
  <varray name="positions" >
   <v>       0.00000000       0.00000000       0.00000000 </v>
   <v>       0.25000000       0.25000000       0.25000000 </v>
  </varray>
 </structure>
 <calculation>
  <scstep>
   <time name="dav">    0.37    0.37</time>
   <time name="total">    0.38    0.38</time>
   <energy>
    <i name="alphaZ">      3.36414203 </i>
    <i name="ewald">   -228.56352493 </i>
    <i name="hartreedc">    -14.93075029 </i>
    <i name="XCdc">    -17.95976175 </i>
    <i name="pawpsdc">     74.30595835 </i>
    <i name="pawaedc">    -39.34389256 </i>
    <i name="eentropy">     -0.00117749 </i>
    <i name="bandstr">     22.85958020 </i>
    <i name="atom">    206.13149246 </i>
    <i name="e_fr_energy">      5.86206602 </i>
    <i name="e_wo_entrp">      5.86324350 </i>
    <i name="e_0_energy">      5.86265476 </i>
   </energy>
  </scstep>
  <scstep>
   <time name="dav">    0.44    0.44</time>
   <time name="total">    0.44    0.44</time>
   <energy>
    <i name="e_fr_energy">     -8.36009803 </i>
    <i name="e_wo_entrp">     -8.35958919 </i>
    <i name="e_0_energy">     -8.35984361 </i>
   </energy>
  </scstep>
  <scstep>
   <time name="dav">    0.44    0.44</time>
   <time name="total">    0.44    0.44</time>
   <energy>
    <i name="e_fr_energy">     -8.84576141 </i>
    <i name="e_wo_entrp">     -8.84576141 </i>
    <i name="e_0_energy">     -8.84576141 </i>
   </energy>
  </scstep>
  <scstep>
   <time name="dav">    0.40    0.40</time>
   <time name="total">    0.40    0.40</time>
   <energy>
    <i name="e_fr_energy">     -8.84900599 </i>
    <i name="e_wo_entrp">     -8.84900599 </i>
    <i name="e_0_energy">     -8.84900599 </i>
   </energy>
  </scstep>
  <scstep>
   <time name="dav">    0.43    0.43</time>
   <time name="total">    0.43    0.43</time>
   <energy>
    <i name="e_fr_energy">     -8.84903455 </i>
    <i name="e_wo_entrp">     -8.84903455 </i>
    <i name="e_0_energy">     -8.84903455 </i>
   </energy>
  </scstep>
  <scstep>
   <time name="diag">    0.10    0.10</time>
   <time name="diis">    0.25    0.25</time>
   <time name="orth">    0.00    0.00</time>
   <time name="total">    0.35    0.35</time>
   <energy>
    <i name="alphaZ">      3.36414203 </i>
    <i name="ewald">   -228.56352493 </i>
    <i name="hartreedc">    -14.93075029 </i>
    <i name="XCdc">    -17.95976175 </i>
    <i name="pawpsdc">     74.30595835 </i>
    <i name="pawaedc">    -39.34389256 </i>
    <i name="eentropy">     -0.00000000 </i>
    <i name="bandstr">      8.14730186 </i>
    <i name="atom">    206.13149246 </i>
    <i name="e_fr_energy">     -8.84903483 </i>
    <i name="e_wo_entrp">     -8.84903483 </i>
    <i name="e_0_energy">     -8.84903483 </i>
   </energy>
  </scstep>
  <structure>
   <crystal>
    <varray name="basis" >
     <v>       0.00000000       2.71500000       2.71500000 </v>
     <v>       2.71500000       0.00000000       2.71500000 </v>
     <v>       2.71500000       2.71500000       0.00000000 </v>
    </varray>
    <i name="volume">     40.02575175 </i>
    <varray name="rec_basis" >
     <v>      -0.18416206       0.18416206       0.18416206 </v>
     <v>       0.18416206      -0.18416206       0.18416206 </v>
     <v>       0.18416206       0.18416206      -0.18416206 </v>
    </varray>
   </crystal>
   <varray name="positions" >
    <v>       0.00000000       0.00000000       0.00000000 </v>
    <v>       0.25000000       0.25000000       0.25000000 </v>
   </varray>
  </structure>
  <varray name="forces" >
   <v>       0.00000000       0.00000000       0.00000000 </v>
   <v>      -0.00000000      -0.00000000      -0.00000000 </v>
  </varray>
  <varray name="stress" >
   <v>      89.06693210       0.00000000       0.00000000 </v>
   <v>       0.00000000      89.06693210      -0.00000000 </v>
   <v>       0.00000000      -0.00000000      89.06693210 </v>
  </varray>
  <energy>
   <i name="e_fr_energy">     -8.84903483 </i>
   <i name="e_wo_entrp">     -8.84903483 </i>
   <i name="e_0_energy">     -8.84903483 </i>
  </energy>
  <time name="totalsc">    2.57    2.57</time>
  <eigenvalues>
   <array>
    <dimension dim="1">band</dimension>
    <dimension dim="2">kpoint</dimension>
    <dimension dim="3">spin</dimension>
    <field>eigene</field>
    <field>occ</field>
    <set>
     <set comment="spin 1">
      <set comment="kpoint 1">
       <r>   -3.7966    1.0000 </r>
       <r>   -1.1364    1.0000 </r>
       <r>    4.6342    1.0000 </r>
       <r>    4.6342    1.0000 </r>
       <r>    7.3735    0.0000 </r>
       <r>    9.1720    0.0000 </r>
       <r>    9.1720    0.0000 </r>
       <r>   13.5616    0.0000 </r>
       <r>   16.3840    0.0000 </r>
       <r>   16.3843    0.0000 </r>
       <r>   17.1791    0.0000 </r>
       <r>   17.1918    0.0000 </r>
      </set>
      <set comment="kpoint 2">
       <r>   -3.8083    1.0000 </r>
       <r>   -1.1196    1.0000 </r>
       <r>    4.6357    1.0000 </r>
       <r>    4.6357    1.0000 </r>
       <r>    7.3752    0.0000 </r>
       <r>    9.1737    0.0000 </r>
       <r>    9.1737    0.0000 </r>
       <r>   13.5643    0.0000 </r>
       <r>   16.2864    0.0000 </r>
       <r>   16.2867    0.0000 </r>
       <r>   17.1496    0.0000 </r>
       <r>   17.2828    0.0000 </r>
      </set>
      <set comment="kpoint 3">
       <r>   -3.8426    1.0000 </r>
       <r>   -1.0702    1.0000 </r>
       <r>    4.6401    1.0000 </r>
       <r>    4.6401    1.0000 </r>
       <r>    7.3802    0.0000 </r>
       <r>    9.1788    0.0000 </r>
       <r>    9.1788    0.0000 </r>
       <r>   13.5721    0.0000 </r>
       <r>   16.0736    0.0000 </r>
       <r>   16.0737    0.0000 </r>
       <r>   17.0233    0.0000 </r>
       <r>   17.5135    0.0000 </r>
      </set>
      <set comment="kpoint 4">
       <r>   -3.8971    1.0000 </r>
       <r>   -0.9905    1.0000 </r>
       <r>    4.6474    1.0000 </r>
       <r>    4.6474    1.0000 </r>
       <r>    7.3886    0.0000 </r>
       <r>    9.1870    0.0000 </r>
       <r>    9.1870    0.0000 </r>
       <r>   13.5850    0.0000 </r>
       <r>   15.8259    0.0000 </r>
       <r>   15.8259    0.0000 </r>
       <r>   16.8461    0.0000 </r>
       <r>   17.7918    0.0000 </r>
      </set>
      <set comment="kpoint 5">
       <r>   -3.9684    1.0000 </r>
       <r>   -0.8840    1.0000 </r>
       <r>    4.6576    1.0000 </r>
       <r>    4.6576    1.0000 </r>
       <r>    7.4004    0.0000 </r>
       <r>    9.1984    0.0000 </r>
       <r>    9.1984    0.0000 </r>
       <r>   13.6024    0.0000 </r>
       <r>   15.5696    0.0000 </r>
       <r>   15.5696    0.0000 </r>
       <r>   16.6372    0.0000 </r>
       <r>   18.0906    0.0000 </r>
      </set>
      <set comment="kpoint 6">
       <r>   -4.0528    1.0000 </r>
       <r>   -0.7542    1.0000 </r>
       <r>    4.6708    1.0000 </r>
       <r>    4.6708    1.0000 </r>
       <r>    7.4155    0.0000 </r>
       <r>    9.2126    0.0000 </r>
       <r>    9.2126    0.0000 </r>
       <r>   13.6239    0.0000 </r>
       <r>   15.3142    0.0000 </r>
       <r>   15.3142    0.0000 </r>
       <r>   16.4105    0.0000 </r>
       <r>   18.4006    0.0000 </r>
      </set>
      <set comment="kpoint 7">
       <r>   -4.1471    1.0000 </r>
       <r>   -0.6046    1.0000 </r>
       <r>    4.6868    1.0000 </r>
       <r>    4.6868    1.0000 </r>
       <r>    7.4339    0.0000 </r>
       <r>    9.2293    0.0000 </r>
       <r>    9.2293    0.0000 </r>
       <r>   13.6485    0.0000 </r>
       <r>   15.0635    0.0000 </r>
       <r>   15.0635    0.0000 </r>
       <r>   16.1750    0.0000 </r>
       <r>   18.7167    0.0000 </r>
      </set>
      <set comment="kpoint 8">
       <r>   -4.2483    1.0000 </r>
       <r>   -0.4382    1.0000 </r>
       <r>    4.7058    1.0000 </r>
       <r>    4.7058    1.0000 </r>
       <r>    7.4556    0.0000 </r>
       <r>    9.2478    0.0000 </r>
       <r>    9.2478    0.0000 </r>
       <r>   13.6747    0.0000 </r>
       <r>   14.8200    0.0000 </r>
       <r>   14.8200    0.0000 </r>
       <r>   15.9367    0.0000 </r>
       <r>   19.0373    0.0000 </r>
      </set>
      <set comment="kpoint 9">
       <r>   -4.3539    1.0000 </r>
       <r>   -0.2574    1.0000 </r>
       <r>    4.7277    1.0000 </r>
       <r>    4.7277    1.0000 </r>
       <r>    7.4806    0.0000 </r>
       <r>    9.2678    0.0000 </r>
       <r>    9.2678    0.0000 </r>
       <r>   13.7003    0.0000 </r>
       <r>   14.5851    0.0000 </r>
       <r>   14.5851    0.0000 </r>
       <r>   15.7007    0.0000 </r>
       <r>   19.3570    0.0000 </r>
      </set>
      <set comment="kpoint 10">
       <r>   -4.4620    1.0000 </r>
       <r>   -0.0643    1.0000 </r>
       <r>    4.7524    1.0000 </r>
       <r>    4.7524    1.0000 </r>
       <r>    7.5087    0.0000 </r>
       <r>    9.2883    0.0000 </r>
       <r>    9.2883    0.0000 </r>
       <r>   13.7218    0.0000 </r>
       <r>   14.3600    0.0000 </r>
       <r>   14.3600    0.0000 </r>
       <r>   15.4720    0.0000 </r>
       <r>   19.6815    0.0000 </r>
      </set>
      <set comment="kpoint 11">
       <r>   -4.5710    1.0000 </r>
       <r>    0.1394    1.0000 </r>
       <r>    4.7800    1.0000 </r>
       <r>    4.7800    1.0000 </r>
       <r>    7.5399    0.0000 </r>
       <r>    9.3086    0.0000 </r>
       <r>    9.3086    0.0000 </r>
       <r>   13.7332    0.0000 </r>
       <r>   14.1462    0.0000 </r>
       <r>   14.1462    0.0000 </r>
       <r>   15.2574    0.0000 </r>
       <r>   19.8237    0.0000 </r>
      </set>
      <set comment="kpoint 12">
       <r>   -4.6797    1.0000 </r>
       <r>    0.3525    1.0000 </r>
       <r>    4.8104    1.0000 </r>
       <r>    4.8104    1.0000 </r>
       <r>    7.5743    0.0000 </r>
       <r>    9.3278    0.0000 </r>
       <r>    9.3278    0.0000 </r>
       <r>   13.7258    0.0000 </r>
       <r>   13.9448    0.0000 </r>
       <r>   13.9448    0.0000 </r>
       <r>   15.0664    0.0000 </r>
       <r>   19.6275    0.0000 </r>
      </set>
      <set comment="kpoint 13">
       <r>   -4.7872    1.0000 </r>
       <r>    0.5740    1.0000 </r>
       <r>    4.8436    1.0000 </r>
       <r>    4.8436    1.0000 </r>
       <r>    7.6117    0.0000 </r>
       <r>    9.3446    0.0000 </r>
       <r>    9.3446    0.0000 </r>
       <r>   13.6870    0.0000 </r>
       <r>   13.7570    0.0000 </r>
       <r>   13.7570    0.0000 </r>
       <r>   14.9113    0.0000 </r>
       <r>   19.3690    0.0000 </r>
      </set>
      <set comment="kpoint 14">
       <r>   -4.8927    1.0000 </r>
       <r>    0.8029    1.0000 </r>
       <r>    4.8795    1.0000 </r>
       <r>    4.8795    1.0000 </r>
       <r>    7.6519    0.0000 </r>
       <r>    9.3579    0.0000 </r>
       <r>    9.3579    0.0000 </r>
       <r>   13.5842    0.0000 </r>
       <r>   13.5842    0.0000 </r>
       <r>   13.6046    0.0000 </r>
       <r>   14.8044    0.0000 </r>
       <r>   19.0786    0.0000 </r>
      </set>
      <set comment="kpoint 15">
       <r>   -4.9956    1.0000 </r>
       <r>    1.0384    1.0000 </r>
       <r>    4.9180    1.0000 </r>
       <r>    4.9180    1.0000 </r>
       <r>    7.6950    0.0000 </r>
       <r>    9.3663    0.0000 </r>
       <r>    9.3663    0.0000 </r>
       <r>   13.4276    0.0000 </r>
       <r>   13.4276    0.0000 </r>
       <r>   13.4738    0.0000 </r>
       <r>   14.7498    0.0000 </r>
       <r>   18.7701    0.0000 </r>
      </set>
      <set comment="kpoint 16">
       <r>   -5.0954    1.0000 </r>
       <r>    1.2800    1.0000 </r>
       <r>    4.9592    1.0000 </r>
       <r>    4.9592    1.0000 </r>
       <r>    7.7406    0.0000 </r>
       <r>    9.3686    0.0000 </r>
       <r>    9.3686    0.0000 </r>
       <r>   13.2890    0.0000 </r>
       <r>   13.2890    0.0000 </r>
       <r>   13.3010    0.0000 </r>
       <r>   14.7401    0.0000 </r>
       <r>   18.4539    0.0000 </r>
      </set>
      <set comment="kpoint 17">
       <r>   -5.1917    1.0000 </r>
       <r>    1.5270    1.0000 </r>
       <r>    5.0028    1.0000 </r>
       <r>    5.0028    1.0000 </r>
       <r>    7.7886    0.0000 </r>
       <r>    9.3633    0.0000 </r>
       <r>    9.3633    0.0000 </r>
       <r>   13.0981    0.0000 </r>
       <r>   13.1694    0.0000 </r>
       <r>   13.1694    0.0000 </r>
       <r>   14.7623    0.0000 </r>
       <r>   18.1383    0.0000 </r>
      </set>
      <set comment="kpoint 18">
       <r>   -5.2842    1.0000 </r>
       <r>    1.7789    1.0000 </r>
       <r>    5.0488    1.0000 </r>
       <r>    5.0488    1.0000 </r>
       <r>    7.8389    0.0000 </r>
       <r>    9.3495    0.0000 </r>
       <r>    9.3495    0.0000 </r>
       <r>   12.8752    0.0000 </r>
       <r>   13.0699    0.0000 </r>
       <r>   13.0699    0.0000 </r>
       <r>   14.8044    0.0000 </r>
       <r>   17.8292    0.0000 </r>
      </set>
      <set comment="kpoint 19">
       <r>   -5.3726    1.0000 </r>
       <r>    2.0352    1.0000 </r>
       <r>    5.0970    1.0000 </r>
       <r>    5.0970    1.0000 </r>
       <r>    7.8911    0.0000 </r>
       <r>    9.3261    0.0000 </r>
       <r>    9.3261    0.0000 </r>
       <r>   12.6395    0.0000 </r>
       <r>   12.9913    0.0000 </r>
       <r>   12.9913    0.0000 </r>
       <r>   14.8564    0.0000 </r>
       <r>   17.5330    0.0000 </r>
      </set>
      <set comment="kpoint 20">
       <r>   -5.4567    1.0000 </r>
       <r>    2.2954    1.0000 </r>
       <r>    5.1472    1.0000 </r>
       <r>    5.1472    1.0000 </r>
       <r>    7.9450    0.0000 </r>
       <r>    9.2928    0.0000 </r>
       <r>    9.2928    0.0000 </r>
       <r>   12.3953    0.0000 </r>
       <r>   12.9341    0.0000 </r>
       <r>   12.9341    0.0000 </r>
       <r>   14.9099    0.0000 </r>
       <r>   17.2557    0.0000 </r>
      </set>
      <set comment="kpoint 21">
       <r>   -5.5363    1.0000 </r>
       <r>    2.5588    1.0000 </r>
       <r>    5.1993    1.0000 </r>
       <r>    5.1993    1.0000 </r>
       <r>    8.0002    0.0000 </r>
       <r>    9.2496    0.0000 </r>
       <r>    9.2496    0.0000 </r>
       <r>   12.1456    0.0000 </r>
       <r>   12.8981    0.0000 </r>
       <r>   12.8981    0.0000 </r>
       <r>   14.9562    0.0000 </r>
       <r>   17.0052    0.0000 </r>
      </set>
      <set comment="kpoint 22">
       <r>   -5.6113    1.0000 </r>
       <r>    2.8250    1.0000 </r>
       <r>    5.2528    1.0000 </r>
       <r>    5.2528    1.0000 </r>
       <r>    8.0563    0.0000 </r>
       <r>    9.1970    0.0000 </r>
       <r>    9.1970    0.0000 </r>
       <r>   11.8922    0.0000 </r>
       <r>   12.8827    0.0000 </r>
       <r>   12.8827    0.0000 </r>
       <r>   14.9850    0.0000 </r>
       <r>   16.7908    0.0000 </r>
      </set>
      <set comment="kpoint 23">
       <r>   -5.6815    1.0000 </r>
       <r>    3.0932    1.0000 </r>
       <r>    5.3076    1.0000 </r>
       <r>    5.3076    1.0000 </r>
       <r>    8.1126    0.0000 </r>
       <r>    9.1361    0.0000 </r>
       <r>    9.1361    0.0000 </r>
       <r>   11.6364    0.0000 </r>
       <r>   12.8863    0.0000 </r>
       <r>   12.8863    0.0000 </r>
       <r>   14.9848    0.0000 </r>
       <r>   16.6242    0.0000 </r>
      </set>
      <set comment="kpoint 24">
       <r>   -5.7469    1.0000 </r>
       <r>    3.3626    1.0000 </r>
       <r>    5.3631    1.0000 </r>
       <r>    5.3631    1.0000 </r>
       <r>    8.1686    0.0000 </r>
       <r>    9.0682    0.0000 </r>
       <r>    9.0682    0.0000 </r>
       <r>   11.3794    0.0000 </r>
       <r>   12.9076    0.0000 </r>
       <r>   12.9076    0.0000 </r>
       <r>   14.9457    0.0000 </r>
       <r>   16.5152    0.0000 </r>
      </set>
      <set comment="kpoint 25">
       <r>   -5.8073    1.0000 </r>
       <r>    3.6324    1.0000 </r>
       <r>    5.4190    1.0000 </r>
       <r>    5.4190    1.0000 </r>
       <r>    8.2235    0.0000 </r>
       <r>    8.9950    0.0000 </r>
       <r>    8.9950    0.0000 </r>
       <r>   11.1224    0.0000 </r>
       <r>   12.9444    0.0000 </r>
       <r>   12.9444    0.0000 </r>
       <r>   14.8652    0.0000 </r>
       <r>   16.4662    0.0000 </r>
      </set>
      <set comment="kpoint 26">
       <r>   -5.8627    1.0000 </r>
       <r>    3.9015    1.0000 </r>
       <r>    5.4746    1.0000 </r>
       <r>    5.4746    1.0000 </r>
       <r>    8.2764    0.0000 </r>
       <r>    8.9186    0.0000 </r>
       <r>    8.9186    0.0000 </r>
       <r>   10.8669    0.0000 </r>
       <r>   12.9944    0.0000 </r>
       <r>   12.9944    0.0000 </r>
       <r>   14.7507    0.0000 </r>
       <r>   16.4697    0.0000 </r>
      </set>
      <set comment="kpoint 27">
       <r>   -5.9129    1.0000 </r>
       <r>    4.1684    1.0000 </r>
       <r>    5.5294    1.0000 </r>
       <r>    5.5294    1.0000 </r>
       <r>    8.3260    0.0000 </r>
       <r>    8.8407    0.0000 </r>
       <r>    8.8407    0.0000 </r>
       <r>   10.6145    0.0000 </r>
       <r>   13.0549    0.0000 </r>
       <r>   13.0549    0.0000 </r>
       <r>   14.6154    0.0000 </r>
       <r>   16.5119    0.0000 </r>
      </set>
      <set comment="kpoint 28">
       <r>   -5.9581    1.0000 </r>
       <r>    4.4312    1.0000 </r>
       <r>    5.5826    1.0000 </r>
       <r>    5.5826    1.0000 </r>
       <r>    8.3710    0.0000 </r>
       <r>    8.7635    0.0000 </r>
       <r>    8.7635    0.0000 </r>
       <r>   10.3678    0.0000 </r>
       <r>   13.1233    0.0000 </r>
       <r>   13.1233    0.0000 </r>
       <r>   14.4722    0.0000 </r>
       <r>   16.5795    0.0000 </r>
      </set>
      <set comment="kpoint 29">
       <r>   -5.9979    1.0000 </r>
       <r>    4.6876    1.0000 </r>
       <r>    5.6333    1.0000 </r>
       <r>    5.6333    1.0000 </r>
       <r>    8.4094    0.0000 </r>
       <r>    8.6891    0.0000 </r>
       <r>    8.6891    0.0000 </r>
       <r>   10.1301    0.0000 </r>
       <r>   13.1967    0.0000 </r>
       <r>   13.1967    0.0000 </r>
       <r>   14.3311    0.0000 </r>
       <r>   16.6614    0.0000 </r>
      </set>
      <set comment="kpoint 30">
       <r>   -6.0326    1.0000 </r>
       <r>    4.9342    1.0000 </r>
       <r>    5.6805    1.0000 </r>
       <r>    5.6805    1.0000 </r>
       <r>    8.4390    0.0000 </r>
       <r>    8.6194    0.0000 </r>
       <r>    8.6194    0.0000 </r>
       <r>    9.9059    0.0000 </r>
       <r>   13.2717    0.0000 </r>
       <r>   13.2717    0.0000 </r>
       <r>   14.1990    0.0000 </r>
       <r>   16.7513    0.0000 </r>
      </set>
      <set comment="kpoint 31">
       <r>   -6.0620    1.0000 </r>
       <r>    5.1666    1.0000 </r>
       <r>    5.7232    1.0000 </r>
       <r>    5.7232    1.0000 </r>
       <r>    8.4570    0.0000 </r>
       <r>    8.5562    0.0000 </r>
       <r>    8.5562    0.0000 </r>
       <r>    9.7016    0.0000 </r>
       <r>   13.3448    0.0000 </r>
       <r>   13.3448    0.0000 </r>
       <r>   14.0809    0.0000 </r>
       <r>   16.8369    0.0000 </r>
      </set>
      <set comment="kpoint 32">
       <r>   -6.0861    1.0000 </r>
       <r>    5.3786    1.0000 </r>
       <r>    5.7603    1.0000 </r>
       <r>    5.7603    1.0000 </r>
       <r>    8.4608    0.0000 </r>
       <r>    8.5016    0.0000 </r>
       <r>    8.5016    0.0000 </r>
       <r>    9.5251    0.0000 </r>
       <r>   13.4123    0.0000 </r>
       <r>   13.4123    0.0000 </r>
       <r>   13.9803    0.0000 </r>
       <r>   16.9180    0.0000 </r>
      </set>
      <set comment="kpoint 33">
       <r>   -6.1048    1.0000 </r>
       <r>    5.5619    1.0000 </r>
       <r>    5.7905    1.0000 </r>
       <r>    5.7905    1.0000 </r>
       <r>    8.4498    0.0000 </r>
       <r>    8.4570    0.0000 </r>
       <r>    8.4570    0.0000 </r>
       <r>    9.3845    0.0000 </r>
       <r>   13.4703    0.0000 </r>
       <r>   13.4703    0.0000 </r>
       <r>   13.8996    0.0000 </r>
       <r>   16.9895    0.0000 </r>
      </set>
      <set comment="kpoint 34">
       <r>   -6.1182    1.0000 </r>
       <r>    5.7060    1.0000 </r>
       <r>    5.8130    1.0000 </r>
       <r>    5.8130    1.0000 </r>
       <r>    8.4241    0.0000 </r>
       <r>    8.4241    0.0000 </r>
       <r>    8.4279    0.0000 </r>
       <r>    9.2854    0.0000 </r>
       <r>   13.5150    0.0000 </r>
       <r>   13.5150    0.0000 </r>
       <r>   13.8408    0.0000 </r>
       <r>   17.0452    0.0000 </r>
      </set>
      <set comment="kpoint 35">
       <r>   -6.1262    1.0000 </r>
       <r>    5.7992    1.0000 </r>
       <r>    5.8269    1.0000 </r>
       <r>    5.8269    1.0000 </r>
       <r>    8.4038    0.0000 </r>
       <r>    8.4038    0.0000 </r>
       <r>    8.4061    0.0000 </r>
       <r>    9.2282    0.0000 </r>
       <r>   13.5434    0.0000 </r>
       <r>   13.5434    0.0000 </r>
       <r>   13.8050    0.0000 </r>
       <r>   17.0974    0.0000 </r>
      </set>
      <set comment="kpoint 36">
       <r>   -6.1289    1.0000 </r>
       <r>    5.8315    1.0000 </r>
       <r>    5.8315    1.0000 </r>
       <r>    5.8315    1.0000 </r>
       <r>    8.3969    0.0000 </r>
       <r>    8.3969    0.0000 </r>
       <r>    8.3969    0.0000 </r>
       <r>    9.2098    0.0000 </r>
       <r>   13.5531    0.0000 </r>
       <r>   13.5531    0.0000 </r>
       <r>   13.7930    0.0000 </r>
       <r>   17.0859    0.0000 </r>
      </set>
      <set comment="kpoint 37">
       <r>   -6.1289    1.0000 </r>
       <r>    5.8315    1.0000 </r>
       <r>    5.8315    1.0000 </r>
       <r>    5.8315    1.0000 </r>
       <r>    8.3969    0.0000 </r>
       <r>    8.3969    0.0000 </r>
       <r>    8.3969    0.0000 </r>
       <r>    9.2098    0.0000 </r>
       <r>   13.5531    0.0000 </r>
       <r>   13.5531    0.0000 </r>
       <r>   13.7930    0.0000 </r>
       <r>   17.0859    0.0000 </r>
      </set>
      <set comment="kpoint 38">
       <r>   -6.1254    1.0000 </r>
       <r>    5.8069    1.0000 </r>
       <r>    5.8160    1.0000 </r>
       <r>    5.8160    1.0000 </r>
       <r>    8.3880    0.0000 </r>
       <r>    8.4169    0.0000 </r>
       <r>    8.4169    0.0000 </r>
       <r>    9.2339    0.0000 </r>
       <r>   13.5233    0.0000 </r>
       <r>   13.5570    0.0000 </r>
       <r>   13.8090    0.0000 </r>
       <r>   17.0922    0.0000 </r>
      </set>
      <set comment="kpoint 39">
       <r>   -6.1146    1.0000 </r>
       <r>    5.7353    1.0000 </r>
       <r>    5.7707    1.0000 </r>
       <r>    5.7707    1.0000 </r>
       <r>    8.3616    0.0000 </r>
       <r>    8.4754    0.0000 </r>
       <r>    8.4754    0.0000 </r>
       <r>    9.3039    0.0000 </r>
       <r>   13.4376    0.0000 </r>
       <r>   13.5689    0.0000 </r>
       <r>   13.8567    0.0000 </r>
       <r>   17.1110    0.0000 </r>
      </set>
      <set comment="kpoint 40">
       <r>   -6.0968    1.0000 </r>
       <r>    5.6222    1.0000 </r>
       <r>    5.6996    1.0000 </r>
       <r>    5.6996    1.0000 </r>
       <r>    8.3186    0.0000 </r>
       <r>    8.5685    0.0000 </r>
       <r>    8.5685    0.0000 </r>
       <r>    9.4129    0.0000 </r>
       <r>   13.3050    0.0000 </r>
       <r>   13.5887    0.0000 </r>
       <r>   13.9349    0.0000 </r>
       <r>   17.1422    0.0000 </r>
      </set>
      <set comment="kpoint 41">
       <r>   -6.0718    1.0000 </r>
       <r>    5.4749    1.0000 </r>
       <r>    5.6077    1.0000 </r>
       <r>    5.6077    1.0000 </r>
       <r>    8.2608    0.0000 </r>
       <r>    8.6911    0.0000 </r>
       <r>    8.6911    0.0000 </r>
       <r>    9.5519    0.0000 </r>
       <r>   13.1380    0.0000 </r>
       <r>   13.6163    0.0000 </r>
       <r>   14.0421    0.0000 </r>
       <r>   17.1864    0.0000 </r>
      </set>
      <set comment="kpoint 42">
       <r>   -6.0396    1.0000 </r>
       <r>    5.3007    1.0000 </r>
       <r>    5.5002    1.0000 </r>
       <r>    5.5002    1.0000 </r>
       <r>    8.1900    0.0000 </r>
       <r>    8.8381    0.0000 </r>
       <r>    8.8381    0.0000 </r>
       <r>    9.7101    0.0000 </r>
       <r>   12.9504    0.0000 </r>
       <r>   13.6519    0.0000 </r>
       <r>   14.1762    0.0000 </r>
       <r>   17.2421    0.0000 </r>
      </set>
      <set comment="kpoint 43">
       <r>   -6.0003    1.0000 </r>
       <r>    5.1057    1.0000 </r>
       <r>    5.3815    1.0000 </r>
       <r>    5.3815    1.0000 </r>
       <r>    8.1083    0.0000 </r>
       <r>    9.0048    0.0000 </r>
       <r>    9.0048    0.0000 </r>
       <r>    9.8756    0.0000 </r>
       <r>   12.7568    0.0000 </r>
       <r>   13.6954    0.0000 </r>
       <r>   14.3350    0.0000 </r>
       <r>   17.3110    0.0000 </r>
      </set>
      <set comment="kpoint 44">
       <r>   -5.9540    1.0000 </r>
       <r>    4.8952    1.0000 </r>
       <r>    5.2554    1.0000 </r>
       <r>    5.2554    1.0000 </r>
       <r>    8.0179    0.0000 </r>
       <r>    9.1877    0.0000 </r>
       <r>    9.1877    0.0000 </r>
       <r>   10.0344    0.0000 </r>
       <r>   12.5737    0.0000 </r>
       <r>   13.7471    0.0000 </r>
       <r>   14.5162    0.0000 </r>
       <r>   17.3894    0.0000 </r>
      </set>
      <set comment="kpoint 45">
       <r>   -5.9006    1.0000 </r>
       <r>    4.6728    1.0000 </r>
       <r>    5.1249    1.0000 </r>
       <r>    5.1249    1.0000 </r>
       <r>    7.9210    0.0000 </r>
       <r>    9.3834    0.0000 </r>
       <r>    9.3834    0.0000 </r>
       <r>   10.1682    0.0000 </r>
       <r>   12.4210    0.0000 </r>
       <r>   13.8064    0.0000 </r>
       <r>   14.7176    0.0000 </r>
       <r>   17.4816    0.0000 </r>
      </set>
      <set comment="kpoint 46">
       <r>   -5.8401    1.0000 </r>
       <r>    4.4416    1.0000 </r>
       <r>    4.9922    1.0000 </r>
       <r>    4.9922    1.0000 </r>
       <r>    7.8193    0.0000 </r>
       <r>    9.5897    0.0000 </r>
       <r>    9.5897    0.0000 </r>
       <r>   10.2547    0.0000 </r>
       <r>   12.3228    0.0000 </r>
       <r>   13.8736    0.0000 </r>
       <r>   14.9371    0.0000 </r>
       <r>   17.5858    0.0000 </r>
      </set>
      <set comment="kpoint 47">
       <r>   -5.7726    1.0000 </r>
       <r>    4.2036    1.0000 </r>
       <r>    4.8590    1.0000 </r>
       <r>    4.8590    1.0000 </r>
       <r>    7.7147    0.0000 </r>
       <r>    9.8048    0.0000 </r>
       <r>    9.8048    0.0000 </r>
       <r>   10.2727    0.0000 </r>
       <r>   12.3009    0.0000 </r>
       <r>   13.9487    0.0000 </r>
       <r>   15.1725    0.0000 </r>
       <r>   17.7018    0.0000 </r>
      </set>
      <set comment="kpoint 48">
       <r>   -5.6981    1.0000 </r>
       <r>    3.9605    1.0000 </r>
       <r>    4.7267    1.0000 </r>
       <r>    4.7267    1.0000 </r>
       <r>    7.6087    0.0000 </r>
       <r>   10.0271    0.0000 </r>
       <r>   10.0271    0.0000 </r>
       <r>   10.2143    0.0000 </r>
       <r>   12.3648    0.0000 </r>
       <r>   14.0317    0.0000 </r>
       <r>   15.4221    0.0000 </r>
       <r>   17.8293    0.0000 </r>
      </set>
      <set comment="kpoint 49">
       <r>   -5.6167    1.0000 </r>
       <r>    3.7135    1.0000 </r>
       <r>    4.5963    1.0000 </r>
       <r>    4.5963    1.0000 </r>
       <r>    7.5026    0.0000 </r>
       <r>   10.0903    0.0000 </r>
       <r>   10.2559    0.0000 </r>
       <r>   10.2559    0.0000 </r>
       <r>   12.5042    0.0000 </r>
       <r>   14.1228    0.0000 </r>
       <r>   15.6842    0.0000 </r>
       <r>   17.9653    0.0000 </r>
      </set>
      <set comment="kpoint 50">
       <r>   -5.5283    1.0000 </r>
       <r>    3.4635    1.0000 </r>
       <r>    4.4687    1.0000 </r>
       <r>    4.4687    1.0000 </r>
       <r>    7.3976    0.0000 </r>
       <r>    9.9204    0.0000 </r>
       <r>   10.4896    0.0000 </r>
       <r>   10.4896    0.0000 </r>
       <r>   12.6995    0.0000 </r>
       <r>   14.2215    0.0000 </r>
       <r>   15.9571    0.0000 </r>
       <r>   18.1125    0.0000 </r>
      </set>
      <set comment="kpoint 51">
       <r>   -5.4331    1.0000 </r>
       <r>    3.2112    1.0000 </r>
       <r>    4.3444    1.0000 </r>
       <r>    4.3444    1.0000 </r>
       <r>    7.2947    0.0000 </r>
       <r>    9.7231    0.0000 </r>
       <r>   10.7281    0.0000 </r>
       <r>   10.7281    0.0000 </r>
       <r>   12.9331    0.0000 </r>
       <r>   14.3281    0.0000 </r>
       <r>   16.2390    0.0000 </r>
       <r>   18.2680    0.0000 </r>
      </set>
      <set comment="kpoint 52">
       <r>   -5.3311    1.0000 </r>
       <r>    2.9572    1.0000 </r>
       <r>    4.2241    1.0000 </r>
       <r>    4.2241    1.0000 </r>
       <r>    7.1948    0.0000 </r>
       <r>    9.5113    0.0000 </r>
       <r>   10.9705    0.0000 </r>
       <r>   10.9705    0.0000 </r>
       <r>   13.1924    0.0000 </r>
       <r>   14.4425    0.0000 </r>
       <r>   16.5285    0.0000 </r>
       <r>   18.4304    0.0000 </r>
      </set>
      <set comment="kpoint 53">
       <r>   -5.2223    1.0000 </r>
       <r>    2.7020    1.0000 </r>
       <r>    4.1081    1.0000 </r>
       <r>    4.1081    1.0000 </r>
       <r>    7.0987    0.0000 </r>
       <r>    9.2931    0.0000 </r>
       <r>   11.2164    0.0000 </r>
       <r>   11.2164    0.0000 </r>
       <r>   13.4690    0.0000 </r>
       <r>   14.5648    0.0000 </r>
       <r>   16.8238    0.0000 </r>
       <r>   18.6019    0.0000 </r>
      </set>
      <set comment="kpoint 54">
       <r>   -5.1068    1.0000 </r>
       <r>    2.4458    1.0000 </r>
       <r>    3.9968    1.0000 </r>
       <r>    3.9968    1.0000 </r>
       <r>    7.0068    0.0000 </r>
       <r>    9.0741    0.0000 </r>
       <r>   11.4654    0.0000 </r>
       <r>   11.4654    0.0000 </r>
       <r>   13.7574    0.0000 </r>
       <r>   14.6948    0.0000 </r>
       <r>   17.1230    0.0000 </r>
       <r>   18.7659    0.0000 </r>
      </set>
      <set comment="kpoint 55">
       <r>   -4.9846    1.0000 </r>
       <r>    2.1892    1.0000 </r>
       <r>    3.8904    1.0000 </r>
       <r>    3.8904    1.0000 </r>
       <r>    6.9200    0.0000 </r>
       <r>    8.8578    0.0000 </r>
       <r>   11.7172    0.0000 </r>
       <r>   11.7172    0.0000 </r>
       <r>   14.0539    0.0000 </r>
       <r>   14.8327    0.0000 </r>
       <r>   17.4241    0.0000 </r>
       <r>   18.9335    0.0000 </r>
      </set>
      <set comment="kpoint 56">
       <r>   -4.8559    1.0000 </r>
       <r>    1.9323    1.0000 </r>
       <r>    3.7893    1.0000 </r>
       <r>    3.7893    1.0000 </r>
       <r>    6.8388    0.0000 </r>
       <r>    8.6468    0.0000 </r>
       <r>   11.9716    0.0000 </r>
       <r>   11.9716    0.0000 </r>
       <r>   14.3559    0.0000 </r>
       <r>   14.9784    0.0000 </r>
       <r>   17.7246    0.0000 </r>
       <r>   19.0848    0.0000 </r>
      </set>
      <set comment="kpoint 57">
       <r>   -4.7206    1.0000 </r>
       <r>    1.6755    1.0000 </r>
       <r>    3.6936    1.0000 </r>
       <r>    3.6936    1.0000 </r>
       <r>    6.7633    0.0000 </r>
       <r>    8.4425    0.0000 </r>
       <r>   12.2282    0.0000 </r>
       <r>   12.2282    0.0000 </r>
       <r>   14.6614    0.0000 </r>
       <r>   15.1320    0.0000 </r>
       <r>   18.0215    0.0000 </r>
       <r>   19.2172    0.0000 </r>
      </set>
      <set comment="kpoint 58">
       <r>   -4.5790    1.0000 </r>
       <r>    1.4191    1.0000 </r>
       <r>    3.6034    1.0000 </r>
       <r>    3.6034    1.0000 </r>
       <r>    6.6942    0.0000 </r>
       <r>    8.2462    0.0000 </r>
       <r>   12.4870    0.0000 </r>
       <r>   12.4870    0.0000 </r>
       <r>   14.9687    0.0000 </r>
       <r>   15.2933    0.0000 </r>
       <r>   18.3111    0.0000 </r>
       <r>   19.3141    0.0000 </r>
      </set>
      <set comment="kpoint 59">
       <r>   -4.4309    1.0000 </r>
       <r>    1.1633    1.0000 </r>
       <r>    3.5190    1.0000 </r>
       <r>    3.5190    1.0000 </r>
       <r>    6.6317    0.0000 </r>
       <r>    8.0588    0.0000 </r>
       <r>   12.7478    0.0000 </r>
       <r>   12.7478    0.0000 </r>
       <r>   15.2768    0.0000 </r>
       <r>   15.4624    0.0000 </r>
       <r>   18.5894    0.0000 </r>
       <r>   19.3596    0.0000 </r>
      </set>
      <set comment="kpoint 60">
       <r>   -4.2767    1.0000 </r>
       <r>    0.9083    1.0000 </r>
       <r>    3.4404    1.0000 </r>
       <r>    3.4404    1.0000 </r>
       <r>    6.5762    0.0000 </r>
       <r>    7.8808    0.0000 </r>
       <r>   13.0104    0.0000 </r>
       <r>   13.0105    0.0000 </r>
       <r>   15.5843    0.0000 </r>
       <r>   15.6393    0.0000 </r>
       <r>   18.8576    0.0000 </r>
       <r>   19.3406    0.0000 </r>
      </set>
      <set comment="kpoint 61">
       <r>   -4.1163    1.0000 </r>
       <r>    0.6545    1.0000 </r>
       <r>    3.3678    1.0000 </r>
       <r>    3.3678    1.0000 </r>
       <r>    6.5279    0.0000 </r>
       <r>    7.7126    0.0000 </r>
       <r>   13.2749    0.0000 </r>
       <r>   13.2749    0.0000 </r>
       <r>   15.8239    0.0000 </r>
       <r>   15.8902    0.0000 </r>
       <r>   19.1125    0.0000 </r>
       <r>   19.2525    0.0000 </r>
      </set>
      <set comment="kpoint 62">
       <r>   -3.9499    1.0000 </r>
       <r>    0.4022    1.0000 </r>
       <r>    3.3013    1.0000 </r>
       <r>    3.3013    1.0000 </r>
       <r>    6.4872    0.0000 </r>
       <r>    7.5545    0.0000 </r>
       <r>   13.5410    0.0000 </r>
       <r>   13.5410    0.0000 </r>
       <r>   16.0162    0.0000 </r>
       <r>   16.1939    0.0000 </r>
       <r>   19.1036    0.0000 </r>
       <r>   19.1246    0.0000 </r>
      </set>
      <set comment="kpoint 63">
       <r>   -3.7775    1.0000 </r>
       <r>    0.1515    1.0000 </r>
       <r>    3.2408    1.0000 </r>
       <r>    3.2408    1.0000 </r>
       <r>    6.4542    0.0000 </r>
       <r>    7.4066    0.0000 </r>
       <r>   13.8086    0.0000 </r>
       <r>   13.8086    0.0000 </r>
       <r>   16.2162    0.0000 </r>
       <r>   16.4942    0.0000 </r>
       <r>   18.9070    0.0000 </r>
       <r>   18.9332    0.0000 </r>
      </set>
      <set comment="kpoint 64">
       <r>   -3.5993    1.0000 </r>
       <r>   -0.0972    1.0000 </r>
       <r>    3.1866    1.0000 </r>
       <r>    3.1866    1.0000 </r>
       <r>    6.4292    0.0000 </r>
       <r>    7.2692    0.0000 </r>
       <r>   14.0775    0.0000 </r>
       <r>   14.0775    0.0000 </r>
       <r>   16.4239    0.0000 </r>
       <r>   16.7907    0.0000 </r>
       <r>   18.6777    0.0000 </r>
       <r>   18.7138    0.0000 </r>
      </set>
      <set comment="kpoint 65">
       <r>   -3.4155    1.0000 </r>
       <r>   -0.3436    1.0000 </r>
       <r>    3.1387    1.0000 </r>
       <r>    3.1387    1.0000 </r>
       <r>    6.4124    0.0000 </r>
       <r>    7.1422    0.0000 </r>
       <r>   14.3473    0.0000 </r>
       <r>   14.3474    0.0000 </r>
       <r>   16.6387    0.0000 </r>
       <r>   17.0823    0.0000 </r>
       <r>   18.4265    0.0000 </r>
       <r>   18.4316    0.0000 </r>
      </set>
      <set comment="kpoint 66">
       <r>   -3.2262    1.0000 </r>
       <r>   -0.5875    1.0000 </r>
       <r>    3.0970    1.0000 </r>
       <r>    3.0970    1.0000 </r>
       <r>    6.4040    0.0000 </r>
       <r>    7.0257    0.0000 </r>
       <r>   14.6179    0.0000 </r>
       <r>   14.6179    0.0000 </r>
       <r>   16.8616    0.0000 </r>
       <r>   17.3682    0.0000 </r>
       <r>   18.1623    0.0000 </r>
       <r>   18.1623    0.0000 </r>
      </set>
      <set comment="kpoint 67">
       <r>   -3.0314    1.0000 </r>
       <r>   -0.8286    1.0000 </r>
       <r>    3.0617    1.0000 </r>
       <r>    3.0617    1.0000 </r>
       <r>    6.4043    0.0000 </r>
       <r>    6.9196    0.0000 </r>
       <r>   14.8877    0.0000 </r>
       <r>   14.8877    0.0000 </r>
       <r>   17.0924    0.0000 </r>
       <r>   17.6478    0.0000 </r>
       <r>   17.8923    0.0000 </r>
       <r>   17.8956    0.0000 </r>
      </set>
      <set comment="kpoint 68">
       <r>   -2.8315    1.0000 </r>
       <r>   -1.0666    1.0000 </r>
       <r>    3.0327    1.0000 </r>
       <r>    3.0327    1.0000 </r>
       <r>    6.4134    0.0000 </r>
       <r>    6.8237    0.0000 </r>
       <r>   15.1550    0.0000 </r>
       <r>   15.1550    0.0000 </r>
       <r>   17.3304    0.0000 </r>
       <r>   17.6188    0.0000 </r>
       <r>   17.6189    0.0000 </r>
       <r>   17.9195    0.0000 </r>
      </set>
      <set comment="kpoint 69">
       <r>   -2.6265    1.0000 </r>
       <r>   -1.3013    1.0000 </r>
       <r>    3.0102    1.0000 </r>
       <r>    3.0102    1.0000 </r>
       <r>    6.4313    0.0000 </r>
       <r>    6.7380    0.0000 </r>
       <r>   15.4159    0.0000 </r>
       <r>   15.4159    0.0000 </r>
       <r>   17.3523    0.0000 </r>
       <r>   17.3523    0.0000 </r>
       <r>   17.5760    0.0000 </r>
       <r>   18.1822    0.0000 </r>
      </set>
      <set comment="kpoint 70">
       <r>   -2.4166    1.0000 </r>
       <r>   -1.5324    1.0000 </r>
       <r>    2.9940    1.0000 </r>
       <r>    2.9940    1.0000 </r>
       <r>    6.4585    0.0000 </r>
       <r>    6.6625    0.0000 </r>
       <r>   15.6608    0.0000 </r>
       <r>   15.6608    0.0000 </r>
       <r>   17.1024    0.0000 </r>
       <r>   17.1024    0.0000 </r>
       <r>   17.8292    0.0000 </r>
       <r>   18.4347    0.0000 </r>
      </set>
      <set comment="kpoint 71">
       <r>   -2.2021    1.0000 </r>
       <r>   -1.7598    1.0000 </r>
       <r>    2.9844    1.0000 </r>
       <r>    2.9844    1.0000 </r>
       <r>    6.4951    0.0000 </r>
       <r>    6.5969    0.0000 </r>
       <r>   15.8625    0.0000 </r>
       <r>   15.8625    0.0000 </r>
       <r>   16.8973    0.0000 </r>
       <r>   16.8974    0.0000 </r>
       <r>   18.0906    0.0000 </r>
       <r>   18.6380    0.0000 </r>
      </set>
      <set comment="kpoint 72">
       <r>   -1.9830    1.0000 </r>
       <r>   -1.9830    1.0000 </r>
       <r>    2.9811    1.0000 </r>
       <r>    2.9811    1.0000 </r>
       <r>    6.5412    0.0000 </r>
       <r>    6.5412    0.0000 </r>
       <r>   15.9508    0.0000 </r>
       <r>   15.9508    0.0000 </r>
       <r>   16.8078    0.0000 </r>
       <r>   16.8078    0.0000 </r>
       <r>   18.3583    0.0000 </r>
       <r>   18.3583    0.0000 </r>
      </set>
      <set comment="kpoint 73">
       <r>   -1.9830    1.0000 </r>
       <r>   -1.9830    1.0000 </r>
       <r>    2.9811    1.0000 </r>
       <r>    2.9811    1.0000 </r>
       <r>    6.5412    0.0000 </r>
       <r>    6.5412    0.0000 </r>
       <r>   15.9508    0.0000 </r>
       <r>   15.9508    0.0000 </r>
       <r>   16.8078    0.0000 </r>
       <r>   16.8078    0.0000 </r>
       <r>   18.3587    0.0000 </r>
       <r>   18.3984    0.0000 </r>
      </set>
      <set comment="kpoint 74">
       <r>   -1.9827    1.0000 </r>
       <r>   -1.9827    1.0000 </r>
       <r>    2.9784    1.0000 </r>
       <r>    2.9784    1.0000 </r>
       <r>    6.5462    0.0000 </r>
       <r>    6.5462    0.0000 </r>
       <r>   15.9428    0.0000 </r>
       <r>   15.9429    0.0000 </r>
       <r>   16.7951    0.0000 </r>
       <r>   16.7951    0.0000 </r>
       <r>   18.3692    0.0000 </r>
       <r>   18.3708    0.0000 </r>
      </set>
      <set comment="kpoint 75">
       <r>   -1.9818    1.0000 </r>
       <r>   -1.9818    1.0000 </r>
       <r>    2.9702    1.0000 </r>
       <r>    2.9702    1.0000 </r>
       <r>    6.5611    0.0000 </r>
       <r>    6.5611    0.0000 </r>
       <r>   15.9183    0.0000 </r>
       <r>   15.9183    0.0000 </r>
       <r>   16.7599    0.0000 </r>
       <r>   16.7600    0.0000 </r>
       <r>   18.3985    0.0000 </r>
       <r>   18.4019    0.0000 </r>
      </set>
      <set comment="kpoint 76">
       <r>   -1.9804    1.0000 </r>
       <r>   -1.9804    1.0000 </r>
       <r>    2.9567    1.0000 </r>
       <r>    2.9567    1.0000 </r>
       <r>    6.5860    0.0000 </r>
       <r>    6.5860    0.0000 </r>
       <r>   15.8753    0.0000 </r>
       <r>   15.8753    0.0000 </r>
       <r>   16.7101    0.0000 </r>
       <r>   16.7101    0.0000 </r>
       <r>   18.4377    0.0000 </r>
       <r>   18.4393    0.0000 </r>
      </set>
      <set comment="kpoint 77">
       <r>   -1.9783    1.0000 </r>
       <r>   -1.9783    1.0000 </r>
       <r>    2.9383    1.0000 </r>
       <r>    2.9383    1.0000 </r>
       <r>    6.6202    0.0000 </r>
       <r>    6.6202    0.0000 </r>
       <r>   15.8119    0.0000 </r>
       <r>   15.8119    0.0000 </r>
       <r>   16.6550    0.0000 </r>
       <r>   16.6550    0.0000 </r>
       <r>   18.4772    0.0000 </r>
       <r>   18.4795    0.0000 </r>
      </set>
      <set comment="kpoint 78">
       <r>   -1.9756    1.0000 </r>
       <r>   -1.9756    1.0000 </r>
       <r>    2.9151    1.0000 </r>
       <r>    2.9151    1.0000 </r>
       <r>    6.6636    0.0000 </r>
       <r>    6.6636    0.0000 </r>
       <r>   15.7267    0.0000 </r>
       <r>   15.7268    0.0000 </r>
       <r>   16.6024    0.0000 </r>
       <r>   16.6024    0.0000 </r>
       <r>   18.5116    0.0000 </r>
       <r>   18.5145    0.0000 </r>
      </set>
      <set comment="kpoint 79">
       <r>   -1.9724    1.0000 </r>
       <r>   -1.9724    1.0000 </r>
       <r>    2.8877    1.0000 </r>
       <r>    2.8877    1.0000 </r>
       <r>    6.7158    0.0000 </r>
       <r>    6.7158    0.0000 </r>
       <r>   15.6202    0.0000 </r>
       <r>   15.6202    0.0000 </r>
       <r>   16.5570    0.0000 </r>
       <r>   16.5570    0.0000 </r>
       <r>   18.5400    0.0000 </r>
       <r>   18.5438    0.0000 </r>
      </set>
      <set comment="kpoint 80">
       <r>   -1.9687    1.0000 </r>
       <r>   -1.9687    1.0000 </r>
       <r>    2.8564    1.0000 </r>
       <r>    2.8564    1.0000 </r>
       <r>    6.7764    0.0000 </r>
       <r>    6.7764    0.0000 </r>
       <r>   15.4946    0.0000 </r>
       <r>   15.4946    0.0000 </r>
       <r>   16.5204    0.0000 </r>
       <r>   16.5204    0.0000 </r>
       <r>   18.5632    0.0000 </r>
       <r>   18.5635    0.0000 </r>
      </set>
      <set comment="kpoint 81">
       <r>   -1.9644    1.0000 </r>
       <r>   -1.9644    1.0000 </r>
       <r>    2.8218    1.0000 </r>
       <r>    2.8218    1.0000 </r>
       <r>    6.8448    0.0000 </r>
       <r>    6.8448    0.0000 </r>
       <r>   15.3532    0.0000 </r>
       <r>   15.3532    0.0000 </r>
       <r>   16.4920    0.0000 </r>
       <r>   16.4920    0.0000 </r>
       <r>   18.5826    0.0000 </r>
       <r>   18.5828    0.0000 </r>
      </set>
      <set comment="kpoint 82">
       <r>   -1.9597    1.0000 </r>
       <r>   -1.9597    1.0000 </r>
       <r>    2.7844    1.0000 </r>
       <r>    2.7844    1.0000 </r>
       <r>    6.9207    0.0000 </r>
       <r>    6.9207    0.0000 </r>
       <r>   15.1994    0.0000 </r>
       <r>   15.1994    0.0000 </r>
       <r>   16.4705    0.0000 </r>
       <r>   16.4705    0.0000 </r>
       <r>   18.5996    0.0000 </r>
       <r>   18.6000    0.0000 </r>
      </set>
      <set comment="kpoint 83">
       <r>   -1.9545    1.0000 </r>
       <r>   -1.9545    1.0000 </r>
       <r>    2.7447    1.0000 </r>
       <r>    2.7447    1.0000 </r>
       <r>    7.0035    0.0000 </r>
       <r>    7.0035    0.0000 </r>
       <r>   15.0363    0.0000 </r>
       <r>   15.0363    0.0000 </r>
       <r>   16.4543    0.0000 </r>
       <r>   16.4543    0.0000 </r>
       <r>   18.6150    0.0000 </r>
       <r>   18.6152    0.0000 </r>
      </set>
      <set comment="kpoint 84">
       <r>   -1.9488    1.0000 </r>
       <r>   -1.9488    1.0000 </r>
       <r>    2.7031    1.0000 </r>
       <r>    2.7031    1.0000 </r>
       <r>    7.0927    0.0000 </r>
       <r>    7.0927    0.0000 </r>
       <r>   14.8662    0.0000 </r>
       <r>   14.8662    0.0000 </r>
       <r>   16.4421    0.0000 </r>
       <r>   16.4421    0.0000 </r>
       <r>   18.6295    0.0000 </r>
       <r>   18.6301    0.0000 </r>
      </set>
      <set comment="kpoint 85">
       <r>   -1.9429    1.0000 </r>
       <r>   -1.9429    1.0000 </r>
       <r>    2.6601    1.0000 </r>
       <r>    2.6601    1.0000 </r>
       <r>    7.1879    0.0000 </r>
       <r>    7.1879    0.0000 </r>
       <r>   14.6908    0.0000 </r>
       <r>   14.6909    0.0000 </r>
       <r>   16.4328    0.0000 </r>
       <r>   16.4328    0.0000 </r>
       <r>   18.6433    0.0000 </r>
       <r>   18.6445    0.0000 </r>
      </set>
      <set comment="kpoint 86">
       <r>   -1.9365    1.0000 </r>
       <r>   -1.9365    1.0000 </r>
       <r>    2.6161    1.0000 </r>
       <r>    2.6161    1.0000 </r>
       <r>    7.2888    0.0000 </r>
       <r>    7.2888    0.0000 </r>
       <r>   14.5118    0.0000 </r>
       <r>   14.5118    0.0000 </r>
       <r>   16.4262    0.0000 </r>
       <r>   16.4262    0.0000 </r>
       <r>   18.6570    0.0000 </r>
       <r>   18.6570    0.0000 </r>
      </set>
      <set comment="kpoint 87">
       <r>   -1.9299    1.0000 </r>
       <r>   -1.9299    1.0000 </r>
       <r>    2.5715    1.0000 </r>
       <r>    2.5715    1.0000 </r>
       <r>    7.3949    0.0000 </r>
       <r>    7.3949    0.0000 </r>
       <r>   14.3299    0.0000 </r>
       <r>   14.3299    0.0000 </r>
       <r>   16.4211    0.0000 </r>
       <r>   16.4211    0.0000 </r>
       <r>   18.6706    0.0000 </r>
       <r>   18.6707    0.0000 </r>
      </set>
      <set comment="kpoint 88">
       <r>   -1.9230    1.0000 </r>
       <r>   -1.9230    1.0000 </r>
       <r>    2.5268    1.0000 </r>
       <r>    2.5268    1.0000 </r>
       <r>    7.5059    0.0000 </r>
       <r>    7.5059    0.0000 </r>
       <r>   14.1460    0.0000 </r>
       <r>   14.1460    0.0000 </r>
       <r>   16.4173    0.0000 </r>
       <r>   16.4173    0.0000 </r>
       <r>   18.6841    0.0000 </r>
       <r>   18.6841    0.0000 </r>
      </set>
      <set comment="kpoint 89">
       <r>   -1.9159    1.0000 </r>
       <r>   -1.9159    1.0000 </r>
       <r>    2.4822    1.0000 </r>
       <r>    2.4822    1.0000 </r>
       <r>    7.6214    0.0000 </r>
       <r>    7.6214    0.0000 </r>
       <r>   13.9608    0.0000 </r>
       <r>   13.9608    0.0000 </r>
       <r>   16.4146    0.0000 </r>
       <r>   16.4146    0.0000 </r>
       <r>   18.6977    0.0000 </r>
       <r>   18.6978    0.0000 </r>
      </set>
      <set comment="kpoint 90">
       <r>   -1.9086    1.0000 </r>
       <r>   -1.9086    1.0000 </r>
       <r>    2.4381    1.0000 </r>
       <r>    2.4381    1.0000 </r>
       <r>    7.7411    0.0000 </r>
       <r>    7.7411    0.0000 </r>
       <r>   13.7748    0.0000 </r>
       <r>   13.7748    0.0000 </r>
       <r>   16.4126    0.0000 </r>
       <r>   16.4126    0.0000 </r>
       <r>   18.7114    0.0000 </r>
       <r>   18.7114    0.0000 </r>
      </set>
      <set comment="kpoint 91">
       <r>   -1.9013    1.0000 </r>
       <r>   -1.9013    1.0000 </r>
       <r>    2.3949    1.0000 </r>
       <r>    2.3949    1.0000 </r>
       <r>    7.8648    0.0000 </r>
       <r>    7.8648    0.0000 </r>
       <r>   13.5883    0.0000 </r>
       <r>   13.5883    0.0000 </r>
       <r>   16.4114    0.0000 </r>
       <r>   16.4114    0.0000 </r>
       <r>   18.7250    0.0000 </r>
       <r>   18.7250    0.0000 </r>
      </set>
      <set comment="kpoint 92">
       <r>   -1.8939    1.0000 </r>
       <r>   -1.8939    1.0000 </r>
       <r>    2.3527    1.0000 </r>
       <r>    2.3527    1.0000 </r>
       <r>    7.9922    0.0000 </r>
       <r>    7.9922    0.0000 </r>
       <r>   13.4018    0.0000 </r>
       <r>   13.4018    0.0000 </r>
       <r>   16.4106    0.0000 </r>
       <r>   16.4106    0.0000 </r>
       <r>   18.7387    0.0000 </r>
       <r>   18.7388    0.0000 </r>
      </set>
      <set comment="kpoint 93">
       <r>   -1.8866    1.0000 </r>
       <r>   -1.8866    1.0000 </r>
       <r>    2.3118    1.0000 </r>
       <r>    2.3118    1.0000 </r>
       <r>    8.1231    0.0000 </r>
       <r>    8.1231    0.0000 </r>
       <r>   13.2154    0.0000 </r>
       <r>   13.2154    0.0000 </r>
       <r>   16.4103    0.0000 </r>
       <r>   16.4103    0.0000 </r>
       <r>   18.7522    0.0000 </r>
       <r>   18.7523    0.0000 </r>
      </set>
      <set comment="kpoint 94">
       <r>   -1.8793    1.0000 </r>
       <r>   -1.8793    1.0000 </r>
       <r>    2.2726    1.0000 </r>
       <r>    2.2726    1.0000 </r>
       <r>    8.2571    0.0000 </r>
       <r>    8.2571    0.0000 </r>
       <r>   13.0295    0.0000 </r>
       <r>   13.0295    0.0000 </r>
       <r>   16.4102    0.0000 </r>
       <r>   16.4102    0.0000 </r>
       <r>   18.7655    0.0000 </r>
       <r>   18.7658    0.0000 </r>
      </set>
      <set comment="kpoint 95">
       <r>   -1.8722    1.0000 </r>
       <r>   -1.8722    1.0000 </r>
       <r>    2.2351    1.0000 </r>
       <r>    2.2351    1.0000 </r>
       <r>    8.3941    0.0000 </r>
       <r>    8.3941    0.0000 </r>
       <r>   12.8443    0.0000 </r>
       <r>   12.8443    0.0000 </r>
       <r>   16.4104    0.0000 </r>
       <r>   16.4104    0.0000 </r>
       <r>   18.7788    0.0000 </r>
       <r>   18.7789    0.0000 </r>
      </set>
      <set comment="kpoint 96">
       <r>   -1.8653    1.0000 </r>
       <r>   -1.8653    1.0000 </r>
       <r>    2.1996    1.0000 </r>
       <r>    2.1996    1.0000 </r>
       <r>    8.5339    0.0000 </r>
       <r>    8.5339    0.0000 </r>
       <r>   12.6600    0.0000 </r>
       <r>   12.6600    0.0000 </r>
       <r>   16.4108    0.0000 </r>
       <r>   16.4108    0.0000 </r>
       <r>   18.7916    0.0000 </r>
       <r>   18.7917    0.0000 </r>
      </set>
      <set comment="kpoint 97">
       <r>   -1.8587    1.0000 </r>
       <r>   -1.8587    1.0000 </r>
       <r>    2.1662    1.0000 </r>
       <r>    2.1662    1.0000 </r>
       <r>    8.6760    0.0000 </r>
       <r>    8.6760    0.0000 </r>
       <r>   12.4768    0.0000 </r>
       <r>   12.4768    0.0000 </r>
       <r>   16.4111    0.0000 </r>
       <r>   16.4111    0.0000 </r>
       <r>   18.8039    0.0000 </r>
       <r>   18.8039    0.0000 </r>
      </set>
      <set comment="kpoint 98">
       <r>   -1.8524    1.0000 </r>
       <r>   -1.8524    1.0000 </r>
       <r>    2.1352    1.0000 </r>
       <r>    2.1352    1.0000 </r>
       <r>    8.8205    0.0000 </r>
       <r>    8.8205    0.0000 </r>
       <r>   12.2950    0.0000 </r>
       <r>   12.2950    0.0000 </r>
       <r>   16.4117    0.0000 </r>
       <r>   16.4117    0.0000 </r>
       <r>   18.8156    0.0000 </r>
       <r>   18.8156    0.0000 </r>
      </set>
      <set comment="kpoint 99">
       <r>   -1.8465    1.0000 </r>
       <r>   -1.8465    1.0000 </r>
       <r>    2.1067    1.0000 </r>
       <r>    2.1067    1.0000 </r>
       <r>    8.9668    0.0000 </r>
       <r>    8.9668    0.0000 </r>
       <r>   12.1149    0.0000 </r>
       <r>   12.1149    0.0000 </r>
       <r>   16.4123    0.0000 </r>
       <r>   16.4123    0.0000 </r>
       <r>   18.8265    0.0000 </r>
       <r>   18.8265    0.0000 </r>
      </set>
      <set comment="kpoint 100">
       <r>   -1.8411    1.0000 </r>
       <r>   -1.8411    1.0000 </r>
       <r>    2.0808    1.0000 </r>
       <r>    2.0808    1.0000 </r>
       <r>    9.1147    0.0000 </r>
       <r>    9.1147    0.0000 </r>
       <r>   11.9369    0.0000 </r>
       <r>   11.9369    0.0000 </r>
       <r>   16.4129    0.0000 </r>
       <r>   16.4129    0.0000 </r>
       <r>   18.8367    0.0000 </r>
       <r>   18.8367    0.0000 </r>
      </set>
      <set comment="kpoint 101">
       <r>   -1.8361    1.0000 </r>
       <r>   -1.8361    1.0000 </r>
       <r>    2.0577    1.0000 </r>
       <r>    2.0577    1.0000 </r>
       <r>    9.2636    0.0000 </r>
       <r>    9.2636    0.0000 </r>
       <r>   11.7615    0.0000 </r>
       <r>   11.7615    0.0000 </r>
       <r>   16.4135    0.0000 </r>
       <r>   16.4135    0.0000 </r>
       <r>   18.8460    0.0000 </r>
       <r>   18.8460    0.0000 </r>
      </set>
      <set comment="kpoint 102">
       <r>   -1.8317    1.0000 </r>
       <r>   -1.8317    1.0000 </r>
       <r>    2.0374    1.0000 </r>
       <r>    2.0374    1.0000 </r>
       <r>    9.4128    0.0000 </r>
       <r>    9.4128    0.0000 </r>
       <r>   11.5893    0.0000 </r>
       <r>   11.5893    0.0000 </r>
       <r>   16.4140    0.0000 </r>
       <r>   16.4140    0.0000 </r>
       <r>   18.8543    0.0000 </r>
       <r>   18.8544    0.0000 </r>
      </set>
      <set comment="kpoint 103">
       <r>   -1.8279    1.0000 </r>
       <r>   -1.8279    1.0000 </r>
       <r>    2.0201    1.0000 </r>
       <r>    2.0201    1.0000 </r>
       <r>    9.5611    0.0000 </r>
       <r>    9.5611    0.0000 </r>
       <r>   11.4216    0.0000 </r>
       <r>   11.4216    0.0000 </r>
       <r>   16.4145    0.0000 </r>
       <r>   16.4145    0.0000 </r>
       <r>   18.8615    0.0000 </r>
       <r>   18.8615    0.0000 </r>
      </set>
      <set comment="kpoint 104">
       <r>   -1.8247    1.0000 </r>
       <r>   -1.8247    1.0000 </r>
       <r>    2.0058    1.0000 </r>
       <r>    2.0058    1.0000 </r>
       <r>    9.7066    0.0000 </r>
       <r>    9.7066    0.0000 </r>
       <r>   11.2603    0.0000 </r>
       <r>   11.2603    0.0000 </r>
       <r>   16.4150    0.0000 </r>
       <r>   16.4150    0.0000 </r>
       <r>   18.8673    0.0000 </r>
       <r>   18.8673    0.0000 </r>
      </set>
      <set comment="kpoint 105">
       <r>   -1.8222    1.0000 </r>
       <r>   -1.8222    1.0000 </r>
       <r>    1.9946    1.0000 </r>
       <r>    1.9946    1.0000 </r>
       <r>    9.8453    0.0000 </r>
       <r>    9.8453    0.0000 </r>
       <r>   11.1093    0.0000 </r>
       <r>   11.1093    0.0000 </r>
       <r>   16.4153    0.0000 </r>
       <r>   16.4153    0.0000 </r>
       <r>   18.8720    0.0000 </r>
       <r>   18.8721    0.0000 </r>
      </set>
      <set comment="kpoint 106">
       <r>   -1.8204    1.0000 </r>
       <r>   -1.8204    1.0000 </r>
       <r>    1.9866    1.0000 </r>
       <r>    1.9866    1.0000 </r>
       <r>    9.9694    0.0000 </r>
       <r>    9.9694    0.0000 </r>
       <r>   10.9763    0.0000 </r>
       <r>   10.9763    0.0000 </r>
       <r>   16.4156    0.0000 </r>
       <r>   16.4156    0.0000 </r>
       <r>   18.8755    0.0000 </r>
       <r>   18.8761    0.0000 </r>
      </set>
      <set comment="kpoint 107">
       <r>   -1.8194    1.0000 </r>
       <r>   -1.8194    1.0000 </r>
       <r>    1.9818    1.0000 </r>
       <r>    1.9818    1.0000 </r>
       <r>   10.0631    0.0000 </r>
       <r>   10.0631    0.0000 </r>
       <r>   10.8773    0.0000 </r>
       <r>   10.8773    0.0000 </r>
       <r>   16.4157    0.0000 </r>
       <r>   16.4157    0.0000 </r>
       <r>   18.8776    0.0000 </r>
       <r>   18.8776    0.0000 </r>
      </set>
      <set comment="kpoint 108">
       <r>   -1.8190    1.0000 </r>
       <r>   -1.8190    1.0000 </r>
       <r>    1.9802    1.0000 </r>
       <r>    1.9802    1.0000 </r>
       <r>   10.0999    0.0000 </r>
       <r>   10.0999    0.0000 </r>
       <r>   10.8388    0.0000 </r>
       <r>   10.8388    0.0000 </r>
       <r>   16.4158    0.0000 </r>
       <r>   16.4158    0.0000 </r>
       <r>   18.8783    0.0000 </r>
       <r>   18.8783    0.0000 </r>
      </set>
      <set comment="kpoint 109">
       <r>   -1.8190    1.0000 </r>
       <r>   -1.8190    1.0000 </r>
       <r>    1.9802    1.0000 </r>
       <r>    1.9802    1.0000 </r>
       <r>   10.0999    0.0000 </r>
       <r>   10.0999    0.0000 </r>
       <r>   10.8388    0.0000 </r>
       <r>   10.8388    0.0000 </r>
       <r>   16.4158    0.0000 </r>
       <r>   16.4158    0.0000 </r>
       <r>   18.8783    0.0000 </r>
       <r>   18.8783    0.0000 </r>
      </set>
      <set comment="kpoint 110">
       <r>   -1.8514    1.0000 </r>
       <r>   -1.7869    1.0000 </r>
       <r>    1.9558    1.0000 </r>
       <r>    2.0062    1.0000 </r>
       <r>   10.0569    0.0000 </r>
       <r>   10.1214    0.0000 </r>
       <r>   10.8307    0.0000 </r>
       <r>   10.8702    0.0000 </r>
       <r>   16.3545    0.0000 </r>
       <r>   16.4736    0.0000 </r>
       <r>   18.8170    0.0000 </r>
       <r>   18.9422    0.0000 </r>
      </set>
      <set comment="kpoint 111">
       <r>   -1.8828    1.0000 </r>
       <r>   -1.7564    1.0000 </r>
       <r>    1.9319    1.0000 </r>
       <r>    2.0348    1.0000 </r>
       <r>    9.9820    0.0000 </r>
       <r>   10.1369    0.0000 </r>
       <r>   10.8568    0.0000 </r>
       <r>   10.9090    0.0000 </r>
       <r>   16.2912    0.0000 </r>
       <r>   16.5262    0.0000 </r>
       <r>   18.7594    0.0000 </r>
       <r>   19.0082    0.0000 </r>
      </set>
      <set comment="kpoint 112">
       <r>   -1.9134    1.0000 </r>
       <r>   -1.7274    1.0000 </r>
       <r>    1.9087    1.0000 </r>
       <r>    2.0660    1.0000 </r>
       <r>    9.8849    0.0000 </r>
       <r>   10.1469    0.0000 </r>
       <r>   10.9072    0.0000 </r>
       <r>   10.9547    0.0000 </r>
       <r>   16.2259    0.0000 </r>
       <r>   16.5726    0.0000 </r>
       <r>   18.7067    0.0000 </r>
       <r>   19.0759    0.0000 </r>
      </set>
      <set comment="kpoint 113">
       <r>   -1.9430    1.0000 </r>
       <r>   -1.6999    1.0000 </r>
       <r>    1.8861    1.0000 </r>
       <r>    2.0996    1.0000 </r>
       <r>    9.7746    0.0000 </r>
       <r>   10.1522    0.0000 </r>
       <r>   10.9732    0.0000 </r>
       <r>   11.0065    0.0000 </r>
       <r>   16.1588    0.0000 </r>
       <r>   16.6114    0.0000 </r>
       <r>   18.6604    0.0000 </r>
       <r>   19.1453    0.0000 </r>
      </set>
      <set comment="kpoint 114">
       <r>   -1.9717    1.0000 </r>
       <r>   -1.6740    1.0000 </r>
       <r>    1.8642    1.0000 </r>
       <r>    2.1357    1.0000 </r>
       <r>    9.6565    0.0000 </r>
       <r>   10.1536    0.0000 </r>
       <r>   11.0493    0.0000 </r>
       <r>   11.0635    0.0000 </r>
       <r>   16.0901    0.0000 </r>
       <r>   16.6416    0.0000 </r>
       <r>   18.6217    0.0000 </r>
       <r>   19.2161    0.0000 </r>
      </set>
      <set comment="kpoint 115">
       <r>   -1.9995    1.0000 </r>
       <r>   -1.6496    1.0000 </r>
       <r>    1.8429    1.0000 </r>
       <r>    2.1742    1.0000 </r>
       <r>    9.5342    0.0000 </r>
       <r>   10.1518    0.0000 </r>
       <r>   11.1251    0.0000 </r>
       <r>   11.1320    0.0000 </r>
       <r>   16.0199    0.0000 </r>
       <r>   16.6618    0.0000 </r>
       <r>   18.5918    0.0000 </r>
       <r>   19.2878    0.0000 </r>
      </set>
      <set comment="kpoint 116">
       <r>   -2.0263    1.0000 </r>
       <r>   -1.6267    1.0000 </r>
       <r>    1.8222    1.0000 </r>
       <r>    2.2148    1.0000 </r>
       <r>    9.4099    0.0000 </r>
       <r>   10.1475    0.0000 </r>
       <r>   11.1904    0.0000 </r>
       <r>   11.2194    0.0000 </r>
       <r>   15.9483    0.0000 </r>
       <r>   16.6709    0.0000 </r>
       <r>   18.5722    0.0000 </r>
       <r>   19.3608    0.0000 </r>
      </set>
      <set comment="kpoint 117">
       <r>   -2.0522    1.0000 </r>
       <r>   -1.6052    1.0000 </r>
       <r>    1.8022    1.0000 </r>
       <r>    2.2577    1.0000 </r>
       <r>    9.2847    0.0000 </r>
       <r>   10.1414    0.0000 </r>
       <r>   11.2589    0.0000 </r>
       <r>   11.3102    0.0000 </r>
       <r>   15.8755    0.0000 </r>
       <r>   16.6683    0.0000 </r>
       <r>   18.5636    0.0000 </r>
       <r>   19.4348    0.0000 </r>
      </set>
      <set comment="kpoint 118">
       <r>   -2.0772    1.0000 </r>
       <r>   -1.5851    1.0000 </r>
       <r>    1.7828    1.0000 </r>
       <r>    2.3026    1.0000 </r>
       <r>    9.1594    0.0000 </r>
       <r>   10.1339    0.0000 </r>
       <r>   11.3302    0.0000 </r>
       <r>   11.4036    0.0000 </r>
       <r>   15.8014    0.0000 </r>
       <r>   16.6534    0.0000 </r>
       <r>   18.5666    0.0000 </r>
       <r>   19.5100    0.0000 </r>
      </set>
      <set comment="kpoint 119">
       <r>   -2.1013    1.0000 </r>
       <r>   -1.5664    1.0000 </r>
       <r>    1.7642    1.0000 </r>
       <r>    2.3494    1.0000 </r>
       <r>    9.0348    0.0000 </r>
       <r>   10.1253    0.0000 </r>
       <r>   11.4036    0.0000 </r>
       <r>   11.4992    0.0000 </r>
       <r>   15.7263    0.0000 </r>
       <r>   16.6263    0.0000 </r>
       <r>   18.5812    0.0000 </r>
       <r>   19.5857    0.0000 </r>
      </set>
      <set comment="kpoint 120">
       <r>   -2.1244    1.0000 </r>
       <r>   -1.5490    1.0000 </r>
       <r>    1.7462    1.0000 </r>
       <r>    2.3979    1.0000 </r>
       <r>    8.9112    0.0000 </r>
       <r>   10.1161    0.0000 </r>
       <r>   11.4791    0.0000 </r>
       <r>   11.5966    0.0000 </r>
       <r>   15.6501    0.0000 </r>
       <r>   16.5876    0.0000 </r>
       <r>   18.6073    0.0000 </r>
       <r>   19.6621    0.0000 </r>
      </set>
      <set comment="kpoint 121">
       <r>   -2.1466    1.0000 </r>
       <r>   -1.5328    1.0000 </r>
       <r>    1.7289    1.0000 </r>
       <r>    2.4480    1.0000 </r>
       <r>    8.7890    0.0000 </r>
       <r>   10.1063    0.0000 </r>
       <r>   11.5561    0.0000 </r>
       <r>   11.6954    0.0000 </r>
       <r>   15.5728    0.0000 </r>
       <r>   16.5379    0.0000 </r>
       <r>   18.6436    0.0000 </r>
       <r>   19.7392    0.0000 </r>
      </set>
      <set comment="kpoint 122">
       <r>   -2.1678    1.0000 </r>
       <r>   -1.5179    1.0000 </r>
       <r>    1.7123    1.0000 </r>
       <r>    2.4996    1.0000 </r>
       <r>    8.6685    0.0000 </r>
       <r>   10.0963    0.0000 </r>
       <r>   11.6347    0.0000 </r>
       <r>   11.7956    0.0000 </r>
       <r>   15.4947    0.0000 </r>
       <r>   16.4785    0.0000 </r>
       <r>   18.6894    0.0000 </r>
       <r>   19.8169    0.0000 </r>
      </set>
      <set comment="kpoint 123">
       <r>   -2.1881    1.0000 </r>
       <r>   -1.5041    1.0000 </r>
       <r>    1.6963    1.0000 </r>
       <r>    2.5523    1.0000 </r>
       <r>    8.5499    0.0000 </r>
       <r>   10.0861    0.0000 </r>
       <r>   11.7145    0.0000 </r>
       <r>   11.8970    0.0000 </r>
       <r>   15.4157    0.0000 </r>
       <r>   16.4104    0.0000 </r>
       <r>   18.7436    0.0000 </r>
       <r>   19.8947    0.0000 </r>
      </set>
      <set comment="kpoint 124">
       <r>   -2.2075    1.0000 </r>
       <r>   -1.4915    1.0000 </r>
       <r>    1.6811    1.0000 </r>
       <r>    2.6061    1.0000 </r>
       <r>    8.4335    0.0000 </r>
       <r>   10.0760    0.0000 </r>
       <r>   11.7953    0.0000 </r>
       <r>   11.9995    0.0000 </r>
       <r>   15.3359    0.0000 </r>
       <r>   16.3349    0.0000 </r>
       <r>   18.8052    0.0000 </r>
       <r>   19.9734    0.0000 </r>
      </set>
      <set comment="kpoint 125">
       <r>   -2.2259    1.0000 </r>
       <r>   -1.4798    1.0000 </r>
       <r>    1.6666    1.0000 </r>
       <r>    2.6608    1.0000 </r>
       <r>    8.3195    0.0000 </r>
       <r>   10.0660    0.0000 </r>
       <r>   11.8772    0.0000 </r>
       <r>   12.1030    0.0000 </r>
       <r>   15.2554    0.0000 </r>
       <r>   16.2529    0.0000 </r>
       <r>   18.8731    0.0000 </r>
       <r>   20.0515    0.0000 </r>
      </set>
      <set comment="kpoint 126">
       <r>   -2.2434    1.0000 </r>
       <r>   -1.4692    1.0000 </r>
       <r>    1.6529    1.0000 </r>
       <r>    2.7159    1.0000 </r>
       <r>    8.2083    0.0000 </r>
       <r>   10.0562    0.0000 </r>
       <r>   11.9598    0.0000 </r>
       <r>   12.2074    0.0000 </r>
       <r>   15.1741    0.0000 </r>
       <r>   16.1655    0.0000 </r>
       <r>   18.9465    0.0000 </r>
       <r>   20.1313    0.0000 </r>
      </set>
      <set comment="kpoint 127">
       <r>   -2.2600    1.0000 </r>
       <r>   -1.4595    1.0000 </r>
       <r>    1.6398    1.0000 </r>
       <r>    2.7714    1.0000 </r>
       <r>    8.0999    0.0000 </r>
       <r>   10.0467    0.0000 </r>
       <r>   12.0432    0.0000 </r>
       <r>   12.3127    0.0000 </r>
       <r>   15.0923    0.0000 </r>
       <r>   16.0735    0.0000 </r>
       <r>   19.0246    0.0000 </r>
       <r>   20.2091    0.0000 </r>
      </set>
      <set comment="kpoint 128">
       <r>   -2.2756    1.0000 </r>
       <r>   -1.4506    1.0000 </r>
       <r>    1.6274    1.0000 </r>
       <r>    2.8269    1.0000 </r>
       <r>    7.9948    0.0000 </r>
       <r>   10.0375    0.0000 </r>
       <r>   12.1272    0.0000 </r>
       <r>   12.4188    0.0000 </r>
       <r>   15.0098    0.0000 </r>
       <r>   15.9775    0.0000 </r>
       <r>   19.1068    0.0000 </r>
       <r>   20.2887    0.0000 </r>
      </set>
      <set comment="kpoint 129">
       <r>   -2.2902    1.0000 </r>
       <r>   -1.4426    1.0000 </r>
       <r>    1.6158    1.0000 </r>
       <r>    2.8821    1.0000 </r>
       <r>    7.8931    0.0000 </r>
       <r>   10.0287    0.0000 </r>
       <r>   12.2116    0.0000 </r>
       <r>   12.5256    0.0000 </r>
       <r>   14.9269    0.0000 </r>
       <r>   15.8781    0.0000 </r>
       <r>   19.1925    0.0000 </r>
       <r>   20.3716    0.0000 </r>
      </set>
      <set comment="kpoint 130">
       <r>   -2.3040    1.0000 </r>
       <r>   -1.4354    1.0000 </r>
       <r>    1.6050    1.0000 </r>
       <r>    2.9367    1.0000 </r>
       <r>    7.7952    0.0000 </r>
       <r>   10.0203    0.0000 </r>
       <r>   12.2965    0.0000 </r>
       <r>   12.6332    0.0000 </r>
       <r>   14.8435    0.0000 </r>
       <r>   15.7762    0.0000 </r>
       <r>   19.2811    0.0000 </r>
       <r>   20.4467    0.0000 </r>
      </set>
      <set comment="kpoint 131">
       <r>   -2.3168    1.0000 </r>
       <r>   -1.4288    1.0000 </r>
       <r>    1.5948    1.0000 </r>
       <r>    2.9903    1.0000 </r>
       <r>    7.7014    0.0000 </r>
       <r>   10.0124    0.0000 </r>
       <r>   12.3816    0.0000 </r>
       <r>   12.7415    0.0000 </r>
       <r>   14.7599    0.0000 </r>
       <r>   15.6719    0.0000 </r>
       <r>   19.3722    0.0000 </r>
       <r>   20.5243    0.0000 </r>
      </set>
      <set comment="kpoint 132">
       <r>   -2.3286    1.0000 </r>
       <r>   -1.4230    1.0000 </r>
       <r>    1.5854    1.0000 </r>
       <r>    3.0426    1.0000 </r>
       <r>    7.6121    0.0000 </r>
       <r>   10.0050    0.0000 </r>
       <r>   12.4670    0.0000 </r>
       <r>   12.8504    0.0000 </r>
       <r>   14.6761    0.0000 </r>
       <r>   15.5658    0.0000 </r>
       <r>   19.4659    0.0000 </r>
       <r>   20.6068    0.0000 </r>
      </set>
      <set comment="kpoint 133">
       <r>   -2.3395    1.0000 </r>
       <r>   -1.4178    1.0000 </r>
       <r>    1.5767    1.0000 </r>
       <r>    3.0931    1.0000 </r>
       <r>    7.5275    0.0000 </r>
       <r>    9.9981    0.0000 </r>
       <r>   12.5523    0.0000 </r>
       <r>   12.9598    0.0000 </r>
       <r>   14.5921    0.0000 </r>
       <r>   15.4581    0.0000 </r>
       <r>   19.5610    0.0000 </r>
       <r>   20.7319    0.0000 </r>
      </set>
      <set comment="kpoint 134">
       <r>   -2.3494    1.0000 </r>
       <r>   -1.4131    1.0000 </r>
       <r>    1.5688    1.0000 </r>
       <r>    3.1415    1.0000 </r>
       <r>    7.4482    0.0000 </r>
       <r>    9.9917    0.0000 </r>
       <r>   12.6375    0.0000 </r>
       <r>   13.0697    0.0000 </r>
       <r>   14.5082    0.0000 </r>
       <r>   15.3491    0.0000 </r>
       <r>   19.6579    0.0000 </r>
       <r>   20.7549    0.0000 </r>
      </set>
      <set comment="kpoint 135">
       <r>   -2.3584    1.0000 </r>
       <r>   -1.4091    1.0000 </r>
       <r>    1.5616    1.0000 </r>
       <r>    3.1873    1.0000 </r>
       <r>    7.3746    0.0000 </r>
       <r>    9.9859    0.0000 </r>
       <r>   12.7223    0.0000 </r>
       <r>   13.1800    0.0000 </r>
       <r>   14.4246    0.0000 </r>
       <r>   15.2390    0.0000 </r>
       <r>   19.7569    0.0000 </r>
       <r>   21.1245    0.0000 </r>
      </set>
      <set comment="kpoint 136">
       <r>   -2.3665    1.0000 </r>
       <r>   -1.4055    1.0000 </r>
       <r>    1.5552    1.0000 </r>
       <r>    3.2300    1.0000 </r>
       <r>    7.3070    0.0000 </r>
       <r>    9.9807    0.0000 </r>
       <r>   12.8064    0.0000 </r>
       <r>   13.2906    0.0000 </r>
       <r>   14.3415    0.0000 </r>
       <r>   15.1283    0.0000 </r>
       <r>   19.8573    0.0000 </r>
       <r>   20.9045    0.0000 </r>
      </set>
      <set comment="kpoint 137">
       <r>   -2.3736    1.0000 </r>
       <r>   -1.4024    1.0000 </r>
       <r>    1.5495    1.0000 </r>
       <r>    3.2692    1.0000 </r>
       <r>    7.2459    0.0000 </r>
       <r>    9.9761    0.0000 </r>
       <r>   12.8895    0.0000 </r>
       <r>   13.4014    0.0000 </r>
       <r>   14.2594    0.0000 </r>
       <r>   15.0171    0.0000 </r>
       <r>   19.9643    0.0000 </r>
       <r>   21.0300    0.0000 </r>
      </set>
      <set comment="kpoint 138">
       <r>   -2.3798    1.0000 </r>
       <r>   -1.3998    1.0000 </r>
       <r>    1.5446    1.0000 </r>
       <r>    3.3043    1.0000 </r>
       <r>    7.1918    0.0000 </r>
       <r>    9.9720    0.0000 </r>
       <r>   12.9709    0.0000 </r>
       <r>   13.5123    0.0000 </r>
       <r>   14.1788    0.0000 </r>
       <r>   14.9057    0.0000 </r>
       <r>   20.0570    0.0000 </r>
       <r>   21.0842    0.0000 </r>
      </set>
      <set comment="kpoint 139">
       <r>   -2.3850    1.0000 </r>
       <r>   -1.3977    1.0000 </r>
       <r>    1.5405    1.0000 </r>
       <r>    3.3350    1.0000 </r>
       <r>    7.1451    0.0000 </r>
       <r>    9.9686    0.0000 </r>
       <r>   13.0498    0.0000 </r>
       <r>   13.6229    0.0000 </r>
       <r>   14.1006    0.0000 </r>
       <r>   14.7945    0.0000 </r>
       <r>   20.1603    0.0000 </r>
       <r>   21.0579    0.0000 </r>
      </set>
      <set comment="kpoint 140">
       <r>   -2.3892    1.0000 </r>
       <r>   -1.3959    1.0000 </r>
       <r>    1.5371    1.0000 </r>
       <r>    3.3607    1.0000 </r>
       <r>    7.1064    0.0000 </r>
       <r>    9.9658    0.0000 </r>
       <r>   13.1246    0.0000 </r>
       <r>   13.7326    0.0000 </r>
       <r>   14.0264    0.0000 </r>
       <r>   14.6842    0.0000 </r>
       <r>   20.2610    0.0000 </r>
       <r>   20.9867    0.0000 </r>
      </set>
      <set comment="kpoint 141">
       <r>   -2.3925    1.0000 </r>
       <r>   -1.3946    1.0000 </r>
       <r>    1.5344    1.0000 </r>
       <r>    3.3812    1.0000 </r>
       <r>    7.0758    0.0000 </r>
       <r>    9.9636    0.0000 </r>
       <r>   13.1929    0.0000 </r>
       <r>   13.8405    0.0000 </r>
       <r>   13.9586    0.0000 </r>
       <r>   14.5758    0.0000 </r>
       <r>   20.3575    0.0000 </r>
       <r>   21.0025    0.0000 </r>
      </set>
      <set comment="kpoint 142">
       <r>   -2.3949    1.0000 </r>
       <r>   -1.3937    1.0000 </r>
       <r>    1.5325    1.0000 </r>
       <r>    3.3961    1.0000 </r>
       <r>    7.0537    0.0000 </r>
       <r>    9.9620    0.0000 </r>
       <r>   13.2504    0.0000 </r>
       <r>   13.9015    0.0000 </r>
       <r>   13.9435    0.0000 </r>
       <r>   14.4723    0.0000 </r>
       <r>   20.4512    0.0000 </r>
       <r>   20.8574    0.0000 </r>
      </set>
      <set comment="kpoint 143">
       <r>   -2.3963    1.0000 </r>
       <r>   -1.3931    1.0000 </r>
       <r>    1.5314    1.0000 </r>
       <r>    3.4051    1.0000 </r>
       <r>    7.0403    0.0000 </r>
       <r>    9.9610    0.0000 </r>
       <r>   13.2903    0.0000 </r>
       <r>   13.8617    0.0000 </r>
       <r>   14.0327    0.0000 </r>
       <r>   14.3829    0.0000 </r>
       <r>   20.5587    0.0000 </r>
       <r>   20.7824    0.0000 </r>
      </set>
      <set comment="kpoint 144">
       <r>   -2.3968    1.0000 </r>
       <r>   -1.3929    1.0000 </r>
       <r>    1.5310    1.0000 </r>
       <r>    3.4081    1.0000 </r>
       <r>    7.0358    0.0000 </r>
       <r>    9.9607    0.0000 </r>
       <r>   13.3050    0.0000 </r>
       <r>   13.8472    0.0000 </r>
       <r>   14.0751    0.0000 </r>
       <r>   14.3403    0.0000 </r>
       <r>   20.5907    0.0000 </r>
       <r>   20.7406    0.0000 </r>
      </set>
      <set comment="kpoint 145">
       <r>   -2.3968    1.0000 </r>
       <r>   -1.3929    1.0000 </r>
       <r>    1.5310    1.0000 </r>
       <r>    3.4081    1.0000 </r>
       <r>    7.0358    0.0000 </r>
       <r>    9.9607    0.0000 </r>
       <r>   13.3050    0.0000 </r>
       <r>   13.8472    0.0000 </r>
       <r>   14.0751    0.0000 </r>
       <r>   14.3403    0.0000 </r>
       <r>   20.6330    0.0000 </r>
       <r>   20.7773    0.0000 </r>
      </set>
      <set comment="kpoint 146">
       <r>   -2.4993    1.0000 </r>
       <r>   -1.2878    1.0000 </r>
       <r>    1.4680    1.0000 </r>
       <r>    3.4817    1.0000 </r>
       <r>    7.1212    0.0000 </r>
       <r>   10.3949    0.0000 </r>
       <r>   13.0418    0.0000 </r>
       <r>   13.5798    0.0000 </r>
       <r>   13.8637    0.0000 </r>
       <r>   14.1124    0.0000 </r>
       <r>   20.6731    0.0000 </r>
       <r>   20.9630    0.0000 </r>
      </set>
      <set comment="kpoint 147">
       <r>   -2.6147    1.0000 </r>
       <r>   -1.1742    1.0000 </r>
       <r>    1.4292    1.0000 </r>
       <r>    3.5603    1.0000 </r>
       <r>    7.2124    0.0000 </r>
       <r>   10.8330    0.0000 </r>
       <r>   12.7838    0.0000 </r>
       <r>   13.3249    0.0000 </r>
       <r>   13.6552    0.0000 </r>
       <r>   13.8919    0.0000 </r>
       <r>   20.6003    0.0000 </r>
       <r>   21.2040    0.0000 </r>
      </set>
      <set comment="kpoint 148">
       <r>   -2.7418    1.0000 </r>
       <r>   -1.0521    1.0000 </r>
       <r>    1.4143    1.0000 </r>
       <r>    3.6436    1.0000 </r>
       <r>    7.3091    0.0000 </r>
       <r>   11.2669    0.0000 </r>
       <r>   12.5315    0.0000 </r>
       <r>   13.0896    0.0000 </r>
       <r>   13.4508    0.0000 </r>
       <r>   13.6797    0.0000 </r>
       <r>   20.4097    0.0000 </r>
       <r>   21.0134    0.0000 </r>
      </set>
      <set comment="kpoint 149">
       <r>   -2.8791    1.0000 </r>
       <r>   -0.9215    1.0000 </r>
       <r>    1.4221    1.0000 </r>
       <r>    3.7313    1.0000 </r>
       <r>    7.4109    0.0000 </r>
       <r>   11.6740    0.0000 </r>
       <r>   12.2852    0.0000 </r>
       <r>   12.8957    0.0000 </r>
       <r>   13.2513    0.0000 </r>
       <r>   13.4762    0.0000 </r>
       <r>   20.1816    0.0000 </r>
       <r>   20.7616    0.0000 </r>
      </set>
      <set comment="kpoint 150">
       <r>   -3.0249    1.0000 </r>
       <r>   -0.7826    1.0000 </r>
       <r>    1.4513    1.0000 </r>
       <r>    3.8232    1.0000 </r>
       <r>    7.5171    0.0000 </r>
       <r>   11.9729    0.0000 </r>
       <r>   12.0453    0.0000 </r>
       <r>   12.8228    0.0000 </r>
       <r>   13.0576    0.0000 </r>
       <r>   13.2821    0.0000 </r>
       <r>   19.9440    0.0000 </r>
       <r>   20.5198    0.0000 </r>
      </set>
      <set comment="kpoint 151">
       <r>   -3.1773    1.0000 </r>
       <r>   -0.6354    1.0000 </r>
       <r>    1.5004    1.0000 </r>
       <r>    3.9186    1.0000 </r>
       <r>    7.6273    0.0000 </r>
       <r>   11.8120    0.0000 </r>
       <r>   12.0156    0.0000 </r>
       <r>   12.8707    0.0000 </r>
       <r>   13.0177    0.0000 </r>
       <r>   13.0982    0.0000 </r>
       <r>   19.7066    0.0000 </r>
       <r>   20.2872    0.0000 </r>
      </set>
      <set comment="kpoint 152">
       <r>   -3.3344    1.0000 </r>
       <r>   -0.4798    1.0000 </r>
       <r>    1.5677    1.0000 </r>
       <r>    4.0174    1.0000 </r>
       <r>    7.7408    0.0000 </r>
       <r>   11.5855    0.0000 </r>
       <r>   11.8787    0.0000 </r>
       <r>   12.6915    0.0000 </r>
       <r>   12.9247    0.0000 </r>
       <r>   13.4017    0.0000 </r>
       <r>   19.4728    0.0000 </r>
       <r>   20.0669    0.0000 </r>
      </set>
      <set comment="kpoint 153">
       <r>   -3.4945    1.0000 </r>
       <r>   -0.3160    1.0000 </r>
       <r>    1.6518    1.0000 </r>
       <r>    4.1188    1.0000 </r>
       <r>    7.8566    0.0000 </r>
       <r>   11.3660    0.0000 </r>
       <r>   11.6909    0.0000 </r>
       <r>   12.5208    0.0000 </r>
       <r>   12.7628    0.0000 </r>
       <r>   13.8436    0.0000 </r>
       <r>   19.2451    0.0000 </r>
       <r>   19.8605    0.0000 </r>
      </set>
      <set comment="kpoint 154">
       <r>   -3.6561    1.0000 </r>
       <r>   -0.1441    1.0000 </r>
       <r>    1.7511    1.0000 </r>
       <r>    4.2225    1.0000 </r>
       <r>    7.9738    0.0000 </r>
       <r>   11.1538    0.0000 </r>
       <r>   11.4912    0.0000 </r>
       <r>   12.3596    0.0000 </r>
       <r>   12.6130    0.0000 </r>
       <r>   14.3004    0.0000 </r>
       <r>   19.0241    0.0000 </r>
       <r>   19.6721    0.0000 </r>
      </set>
      <set comment="kpoint 155">
       <r>   -3.8178    1.0000 </r>
       <r>    0.0360    1.0000 </r>
       <r>    1.8642    1.0000 </r>
       <r>    4.3278    1.0000 </r>
       <r>    8.0912    0.0000 </r>
       <r>   10.9489    0.0000 </r>
       <r>   11.2907    0.0000 </r>
       <r>   12.2090    0.0000 </r>
       <r>   12.4758    0.0000 </r>
       <r>   14.7553    0.0000 </r>
       <r>   18.8089    0.0000 </r>
       <r>   19.5049    0.0000 </r>
      </set>
      <set comment="kpoint 156">
       <r>   -3.9784    1.0000 </r>
       <r>    0.2241    1.0000 </r>
       <r>    1.9900    1.0000 </r>
       <r>    4.4341    1.0000 </r>
       <r>    8.2073    0.0000 </r>
       <r>   10.7515    0.0000 </r>
       <r>   11.0936    0.0000 </r>
       <r>   12.0702    0.0000 </r>
       <r>   12.3521    0.0000 </r>
       <r>   15.1955    0.0000 </r>
       <r>   18.5992    0.0000 </r>
       <r>   19.3686    0.0000 </r>
      </set>
      <set comment="kpoint 157">
       <r>   -4.1368    1.0000 </r>
       <r>    0.4201    1.0000 </r>
       <r>    2.1273    1.0000 </r>
       <r>    4.5406    1.0000 </r>
       <r>    8.3206    0.0000 </r>
       <r>   10.5615    0.0000 </r>
       <r>   10.9016    0.0000 </r>
       <r>   11.9443    0.0000 </r>
       <r>   12.2422    0.0000 </r>
       <r>   15.6064    0.0000 </r>
       <r>   18.3849    0.0000 </r>
       <r>   18.9306    0.0000 </r>
      </set>
      <set comment="kpoint 158">
       <r>   -4.2922    1.0000 </r>
       <r>    0.6240    1.0000 </r>
       <r>    2.2751    1.0000 </r>
       <r>    4.6467    1.0000 </r>
       <r>    8.4290    0.0000 </r>
       <r>   10.3793    0.0000 </r>
       <r>   10.7156    0.0000 </r>
       <r>   11.8327    0.0000 </r>
       <r>   12.1474    0.0000 </r>
       <r>   15.9683    0.0000 </r>
       <r>   18.1260    0.0000 </r>
       <r>   18.4345    0.0000 </r>
      </set>
      <set comment="kpoint 159">
       <r>   -4.4439    1.0000 </r>
       <r>    0.8356    1.0000 </r>
       <r>    2.4325    1.0000 </r>
       <r>    4.7515    1.0000 </r>
       <r>    8.5305    0.0000 </r>
       <r>   10.2047    0.0000 </r>
       <r>   10.5361    0.0000 </r>
       <r>   11.7366    0.0000 </r>
       <r>   12.0681    0.0000 </r>
       <r>   16.2576    0.0000 </r>
       <r>   17.7318    0.0000 </r>
       <r>   18.1474    0.0000 </r>
      </set>
      <set comment="kpoint 160">
       <r>   -4.5911    1.0000 </r>
       <r>    1.0548    1.0000 </r>
       <r>    2.5986    1.0000 </r>
       <r>    4.8544    1.0000 </r>
       <r>    8.6229    0.0000 </r>
       <r>   10.0380    0.0000 </r>
       <r>   10.3634    0.0000 </r>
       <r>   11.6573    0.0000 </r>
       <r>   12.0050    0.0000 </r>
       <r>   16.4532    0.0000 </r>
       <r>   17.2639    0.0000 </r>
       <r>   17.9540    0.0000 </r>
      </set>
      <set comment="kpoint 161">
       <r>   -4.7333    1.0000 </r>
       <r>    1.2815    1.0000 </r>
       <r>    2.7726    1.0000 </r>
       <r>    4.9545    1.0000 </r>
       <r>    8.7040    0.0000 </r>
       <r>    9.8791    0.0000 </r>
       <r>   10.1977    0.0000 </r>
       <r>   11.5953    0.0000 </r>
       <r>   11.9588    0.0000 </r>
       <r>   16.5489    0.0000 </r>
       <r>   16.7870    0.0000 </r>
       <r>   17.7898    0.0000 </r>
      </set>
      <set comment="kpoint 162">
       <r>   -4.8701    1.0000 </r>
       <r>    1.5155    1.0000 </r>
       <r>    2.9536    1.0000 </r>
       <r>    5.0510    1.0000 </r>
       <r>    8.7720    0.0000 </r>
       <r>    9.7281    0.0000 </r>
       <r>   10.0389    0.0000 </r>
       <r>   11.5507    0.0000 </r>
       <r>   11.9300    0.0000 </r>
       <r>   16.3166    0.0000 </r>
       <r>   16.5561    0.0000 </r>
       <r>   17.6422    0.0000 </r>
      </set>
      <set comment="kpoint 163">
       <r>   -5.0010    1.0000 </r>
       <r>    1.7566    1.0000 </r>
       <r>    3.1408    1.0000 </r>
       <r>    5.1432    1.0000 </r>
       <r>    8.8256    0.0000 </r>
       <r>    9.5851    0.0000 </r>
       <r>    9.8870    0.0000 </r>
       <r>   11.5220    0.0000 </r>
       <r>   11.9193    0.0000 </r>
       <r>   15.8584    0.0000 </r>
       <r>   16.4953    0.0000 </r>
       <r>   17.5085    0.0000 </r>
      </set>
      <set comment="kpoint 164">
       <r>   -5.1257    1.0000 </r>
       <r>    2.0046    1.0000 </r>
       <r>    3.3333    1.0000 </r>
       <r>    5.2305    1.0000 </r>
       <r>    8.8641    0.0000 </r>
       <r>    9.4500    0.0000 </r>
       <r>    9.7422    0.0000 </r>
       <r>   11.5062    0.0000 </r>
       <r>   11.9270    0.0000 </r>
       <r>   15.4170    0.0000 </r>
       <r>   16.3855    0.0000 </r>
       <r>   17.3876    0.0000 </r>
      </set>
      <set comment="kpoint 165">
       <r>   -5.2440    1.0000 </r>
       <r>    2.2591    1.0000 </r>
       <r>    3.5301    1.0000 </r>
       <r>    5.3121    1.0000 </r>
       <r>    8.8879    0.0000 </r>
       <r>    9.3230    0.0000 </r>
       <r>    9.6042    0.0000 </r>
       <r>   11.4976    0.0000 </r>
       <r>   11.9534    0.0000 </r>
       <r>   14.9976    0.0000 </r>
       <r>   16.2401    0.0000 </r>
       <r>   17.2798    0.0000 </r>
      </set>
      <set comment="kpoint 166">
       <r>   -5.3555    1.0000 </r>
       <r>    2.5199    1.0000 </r>
       <r>    3.7304    1.0000 </r>
       <r>    5.3878    1.0000 </r>
       <r>    8.8980    0.0000 </r>
       <r>    9.2041    0.0000 </r>
       <r>    9.4729    0.0000 </r>
       <r>   11.4877    0.0000 </r>
       <r>   11.9983    0.0000 </r>
       <r>   14.6072    0.0000 </r>
       <r>   16.0682    0.0000 </r>
       <r>   17.1851    0.0000 </r>
      </set>
      <set comment="kpoint 167">
       <r>   -5.4601    1.0000 </r>
       <r>    2.7865    1.0000 </r>
       <r>    3.9328    1.0000 </r>
       <r>    5.4571    1.0000 </r>
       <r>    8.8963    0.0000 </r>
       <r>    9.0931    0.0000 </r>
       <r>    9.3484    0.0000 </r>
       <r>   11.4648    0.0000 </r>
       <r>   12.0620    0.0000 </r>
       <r>   14.2556    0.0000 </r>
       <r>   15.8763    0.0000 </r>
       <r>   17.1040    0.0000 </r>
      </set>
      <set comment="kpoint 168">
       <r>   -5.5575    1.0000 </r>
       <r>    3.0583    1.0000 </r>
       <r>    4.1363    1.0000 </r>
       <r>    5.5198    1.0000 </r>
       <r>    8.8848    0.0000 </r>
       <r>    8.9903    0.0000 </r>
       <r>    9.2302    0.0000 </r>
       <r>   11.4135    0.0000 </r>
       <r>   12.1432    0.0000 </r>
       <r>   13.9542    0.0000 </r>
       <r>   15.6692    0.0000 </r>
       <r>   17.0370    0.0000 </r>
      </set>
      <set comment="kpoint 169">
       <r>   -5.6476    1.0000 </r>
       <r>    3.3348    1.0000 </r>
       <r>    4.3392    1.0000 </r>
       <r>    5.5760    1.0000 </r>
       <r>    8.8654    0.0000 </r>
       <r>    8.8957    0.0000 </r>
       <r>    9.1185    0.0000 </r>
       <r>   11.3187    0.0000 </r>
       <r>   12.2416    0.0000 </r>
       <r>   13.7165    0.0000 </r>
       <r>   15.4520    0.0000 </r>
       <r>   16.9849    0.0000 </r>
      </set>
      <set comment="kpoint 170">
       <r>   -5.7303    1.0000 </r>
       <r>    3.6149    1.0000 </r>
       <r>    4.5401    1.0000 </r>
       <r>    5.6257    1.0000 </r>
       <r>    8.8093    0.0000 </r>
       <r>    8.8401    0.0000 </r>
       <r>    9.0132    0.0000 </r>
       <r>   11.1700    0.0000 </r>
       <r>   12.3561    0.0000 </r>
       <r>   13.5494    0.0000 </r>
       <r>   15.2294    0.0000 </r>
       <r>   16.9470    0.0000 </r>
      </set>
      <set comment="kpoint 171">
       <r>   -5.8055    1.0000 </r>
       <r>    3.8976    1.0000 </r>
       <r>    4.7370    1.0000 </r>
       <r>    5.6690    1.0000 </r>
       <r>    8.7311    0.0000 </r>
       <r>    8.8103    0.0000 </r>
       <r>    8.9140    0.0000 </r>
       <r>   10.9680    0.0000 </r>
       <r>   12.4841    0.0000 </r>
       <r>   13.4503    0.0000 </r>
       <r>   15.0067    0.0000 </r>
       <r>   16.9243    0.0000 </r>
      </set>
      <set comment="kpoint 172">
       <r>   -5.8729    1.0000 </r>
       <r>    4.1812    1.0000 </r>
       <r>    4.9275    1.0000 </r>
       <r>    5.7063    1.0000 </r>
       <r>    8.6610    0.0000 </r>
       <r>    8.7770    0.0000 </r>
       <r>    8.8210    0.0000 </r>
       <r>   10.7242    0.0000 </r>
       <r>   12.6240    0.0000 </r>
       <r>   13.4064    0.0000 </r>
       <r>   14.7891    0.0000 </r>
       <r>   16.9161    0.0000 </r>
      </set>
      <set comment="kpoint 173">
       <r>   -5.9327    1.0000 </r>
       <r>    4.4633    1.0000 </r>
       <r>    5.1091    1.0000 </r>
       <r>    5.7379    1.0000 </r>
       <r>    8.5992    0.0000 </r>
       <r>    8.7346    0.0000 </r>
       <r>    8.7405    0.0000 </r>
       <r>   10.4553    0.0000 </r>
       <r>   12.7727    0.0000 </r>
       <r>   13.4010    0.0000 </r>
       <r>   14.5818    0.0000 </r>
       <r>   16.9389    0.0000 </r>
      </set>
      <set comment="kpoint 174">
       <r>   -5.9845    1.0000 </r>
       <r>    4.7407    1.0000 </r>
       <r>    5.2787    1.0000 </r>
       <r>    5.7643    1.0000 </r>
       <r>    8.5455    0.0000 </r>
       <r>    8.6550    0.0000 </r>
       <r>    8.7002    0.0000 </r>
       <r>   10.1787    0.0000 </r>
       <r>   12.9261    0.0000 </r>
       <r>   13.4186    0.0000 </r>
       <r>   14.3899    0.0000 </r>
       <r>   16.9392    0.0000 </r>
      </set>
      <set comment="kpoint 175">
       <r>   -6.0286    1.0000 </r>
       <r>    5.0087    1.0000 </r>
       <r>    5.4328    1.0000 </r>
       <r>    5.7858    1.0000 </r>
       <r>    8.5001    0.0000 </r>
       <r>    8.5834    0.0000 </r>
       <r>    8.6548    0.0000 </r>
       <r>    9.9108    0.0000 </r>
       <r>   13.0793    0.0000 </r>
       <r>   13.4479    0.0000 </r>
       <r>   14.2181    0.0000 </r>
       <r>   16.9669    0.0000 </r>
      </set>
      <set comment="kpoint 176">
       <r>   -6.0647    1.0000 </r>
       <r>    5.2601    1.0000 </r>
       <r>    5.5676    1.0000 </r>
       <r>    5.8028    1.0000 </r>
       <r>    8.4630    0.0000 </r>
       <r>    8.5208    0.0000 </r>
       <r>    8.6016    0.0000 </r>
       <r>    9.6683    0.0000 </r>
       <r>   13.2254    0.0000 </r>
       <r>   13.4801    0.0000 </r>
       <r>   14.0709    0.0000 </r>
       <r>   17.0000    0.0000 </r>
      </set>
      <set comment="kpoint 177">
       <r>   -6.0928    1.0000 </r>
       <r>    5.4845    1.0000 </r>
       <r>    5.6789    1.0000 </r>
       <r>    5.8156    1.0000 </r>
       <r>    8.4341    0.0000 </r>
       <r>    8.4689    0.0000 </r>
       <r>    8.5395    0.0000 </r>
       <r>    9.4678    0.0000 </r>
       <r>   13.3559    0.0000 </r>
       <r>   13.5097    0.0000 </r>
       <r>   13.9519    0.0000 </r>
       <r>   17.0358    0.0000 </r>
      </set>
      <set comment="kpoint 178">
       <r>   -6.1128    1.0000 </r>
       <r>    5.6669    1.0000 </r>
       <r>    5.7622    1.0000 </r>
       <r>    5.8245    1.0000 </r>
       <r>    8.4135    0.0000 </r>
       <r>    8.4298    0.0000 </r>
       <r>    8.4732    0.0000 </r>
       <r>    9.3226    0.0000 </r>
       <r>   13.4606    0.0000 </r>
       <r>   13.5331    0.0000 </r>
       <r>   13.8645    0.0000 </r>
       <r>   17.0725    0.0000 </r>
      </set>
      <set comment="kpoint 179">
       <r>   -6.1249    1.0000 </r>
       <r>    5.7885    1.0000 </r>
       <r>    5.8140    1.0000 </r>
       <r>    5.8298    1.0000 </r>
       <r>    8.4011    0.0000 </r>
       <r>    8.4053    0.0000 </r>
       <r>    8.4186    0.0000 </r>
       <r>    9.2374    0.0000 </r>
       <r>   13.5291    0.0000 </r>
       <r>   13.5480    0.0000 </r>
       <r>   13.8110    0.0000 </r>
       <r>   17.0790    0.0000 </r>
      </set>
      <set comment="kpoint 180">
       <r>   -6.1289    1.0000 </r>
       <r>    5.8315    1.0000 </r>
       <r>    5.8315    1.0000 </r>
       <r>    5.8315    1.0000 </r>
       <r>    8.3969    0.0000 </r>
       <r>    8.3969    0.0000 </r>
       <r>    8.3969    0.0000 </r>
       <r>    9.2098    0.0000 </r>
       <r>   13.5531    0.0000 </r>
       <r>   13.5531    0.0000 </r>
       <r>   13.7930    0.0000 </r>
       <r>   17.0859    0.0000 </r>
      </set>
     </set>
    </set>
   </array>
  </eigenvalues>
  <separator name="orbital magnetization" >
   <v name="MAGDIPOLOUT">      0.00000000      0.00000000      0.00000000</v>
  </separator>
  <dos>
   <i name="efermi">      6.04675874 </i>
   <total>
    <array>
     <dimension dim="1">gridpoints</dimension>
     <dimension dim="2">spin</dimension>
     <field>energy</field>
     <field>total</field>
     <field>integrated</field>
     <set>
      <set comment="spin 1">
       <r>    -7.4956     0.0000     0.0000 </r>
       <r>    -7.3953     0.0000     0.0000 </r>
       <r>    -7.2951     0.0000     0.0000 </r>
       <r>    -7.1949     0.0000     0.0000 </r>
       <r>    -7.0947     0.0000     0.0000 </r>
       <r>    -6.9945     0.0000     0.0000 </r>
       <r>    -6.8942     0.0000     0.0000 </r>
       <r>    -6.7940     0.0000     0.0000 </r>
       <r>    -6.6938     0.0000     0.0000 </r>
       <r>    -6.5936     0.0000     0.0000 </r>
       <r>    -6.4934     0.0000     0.0000 </r>
       <r>    -6.3931     0.0000     0.0000 </r>
       <r>    -6.2929     0.0000     0.0000 </r>
       <r>    -6.1927     0.0277     0.0028 </r>
       <r>    -6.0925     1.1033     0.1134 </r>
       <r>    -5.9923     1.1420     0.2278 </r>
       <r>    -5.8920     0.6871     0.2967 </r>
       <r>    -5.7918     0.5477     0.3516 </r>
       <r>    -5.6916     0.4710     0.3988 </r>
       <r>    -5.5914     0.4203     0.4409 </r>
       <r>    -5.4912     0.3822     0.4792 </r>
       <r>    -5.3909     0.3555     0.5148 </r>
       <r>    -5.2907     0.3376     0.5486 </r>
       <r>    -5.1905     0.3246     0.5812 </r>
       <r>    -5.0903     0.3084     0.6121 </r>
       <r>    -4.9900     0.2811     0.6403 </r>
       <r>    -4.8898     0.2618     0.6665 </r>
       <r>    -4.7896     0.2801     0.6946 </r>
       <r>    -4.6894     0.2867     0.7233 </r>
       <r>    -4.5892     0.2338     0.7467 </r>
       <r>    -4.4889     0.2384     0.7706 </r>
       <r>    -4.3887     0.2899     0.7997 </r>
       <r>    -4.2885     0.2256     0.8223 </r>
       <r>    -4.1883     0.2391     0.8463 </r>
       <r>    -4.0881     0.2942     0.8757 </r>
       <r>    -3.9878     0.2197     0.8978 </r>
       <r>    -3.8876     0.3210     0.9299 </r>
       <r>    -3.7874     0.4175     0.9718 </r>
       <r>    -3.6872     0.1917     0.9910 </r>
       <r>    -3.5870     0.1582     1.0068 </r>
       <r>    -3.4867     0.1100     1.0179 </r>
       <r>    -3.3865     0.1391     1.0318 </r>
       <r>    -3.2863     0.1214     1.0440 </r>
       <r>    -3.1861     0.1458     1.0586 </r>
       <r>    -3.0859     0.0916     1.0678 </r>
       <r>    -2.9856     0.1853     1.0863 </r>
       <r>    -2.8854     0.0801     1.0944 </r>
       <r>    -2.7852     0.1683     1.1112 </r>
       <r>    -2.6850     0.1117     1.1224 </r>
       <r>    -2.5848     0.1853     1.1410 </r>
       <r>    -2.4845     0.1150     1.1525 </r>
       <r>    -2.3843     0.7771     1.2304 </r>
       <r>    -2.2841     1.2178     1.3525 </r>
       <r>    -2.1839     0.7332     1.4259 </r>
       <r>    -2.0836     0.5421     1.4803 </r>
       <r>    -1.9834     1.6025     1.6409 </r>
       <r>    -1.8832     4.1393     2.0557 </r>
       <r>    -1.7830     3.4958     2.4061 </r>
       <r>    -1.6828     0.7374     2.4800 </r>
       <r>    -1.5825     0.5141     2.5315 </r>
       <r>    -1.4823     0.8771     2.6194 </r>
       <r>    -1.3821     1.7657     2.7964 </r>
       <r>    -1.2819     0.6205     2.8586 </r>
       <r>    -1.1817     0.1426     2.8728 </r>
       <r>    -1.0814     0.3504     2.9080 </r>
       <r>    -0.9812     0.3215     2.9402 </r>
       <r>    -0.8810     0.2065     2.9609 </r>
       <r>    -0.7808     0.2415     2.9851 </r>
       <r>    -0.6806     0.1600     3.0011 </r>
       <r>    -0.5803     0.2412     3.0253 </r>
       <r>    -0.4801     0.1482     3.0401 </r>
       <r>    -0.3799     0.1688     3.0571 </r>
       <r>    -0.2797     0.2152     3.0786 </r>
       <r>    -0.1795     0.1195     3.0906 </r>
       <r>    -0.0792     0.2043     3.1111 </r>
       <r>     0.0210     0.1474     3.1259 </r>
       <r>     0.1212     0.1292     3.1388 </r>
       <r>     0.2214     0.2154     3.1604 </r>
       <r>     0.3216     0.0850     3.1689 </r>
       <r>     0.4219     0.2222     3.1912 </r>
       <r>     0.5221     0.0959     3.2008 </r>
       <r>     0.6223     0.1669     3.2175 </r>
       <r>     0.7225     0.1559     3.2331 </r>
       <r>     0.8228     0.1216     3.2453 </r>
       <r>     0.9230     0.1747     3.2628 </r>
       <r>     1.0232     0.0958     3.2724 </r>
       <r>     1.1234     0.1749     3.2899 </r>
       <r>     1.2236     0.1072     3.3007 </r>
       <r>     1.3239     0.1916     3.3199 </r>
       <r>     1.4241     0.2991     3.3499 </r>
       <r>     1.5243     1.0221     3.4523 </r>
       <r>     1.6245     1.7117     3.6238 </r>
       <r>     1.7247     1.0407     3.7281 </r>
       <r>     1.8250     0.8921     3.8176 </r>
       <r>     1.9252     0.7180     3.8895 </r>
       <r>     2.0254     1.9526     4.0852 </r>
       <r>     2.1256     1.5794     4.2435 </r>
       <r>     2.2258     1.1521     4.3590 </r>
       <r>     2.3261     1.1165     4.4709 </r>
       <r>     2.4263     0.8706     4.5581 </r>
       <r>     2.5265     0.9450     4.6528 </r>
       <r>     2.6267     0.9299     4.7460 </r>
       <r>     2.7269     0.8460     4.8308 </r>
       <r>     2.8272     1.0482     4.9359 </r>
       <r>     2.9274     1.1619     5.0523 </r>
       <r>     3.0276     2.2258     5.2754 </r>
       <r>     3.1278     1.2223     5.3979 </r>
       <r>     3.2281     0.8713     5.4852 </r>
       <r>     3.3283     0.8441     5.5698 </r>
       <r>     3.4285     1.1583     5.6859 </r>
       <r>     3.5287     0.6723     5.7533 </r>
       <r>     3.6289     0.5809     5.8115 </r>
       <r>     3.7292     0.5951     5.8711 </r>
       <r>     3.8294     0.4486     5.9161 </r>
       <r>     3.9296     0.5796     5.9742 </r>
       <r>     4.0298     0.5120     6.0255 </r>
       <r>     4.1300     0.3847     6.0640 </r>
       <r>     4.2303     0.6224     6.1264 </r>
       <r>     4.3305     0.3603     6.1625 </r>
       <r>     4.4307     0.4602     6.2086 </r>
       <r>     4.5309     0.5510     6.2639 </r>
       <r>     4.6311     0.8407     6.3481 </r>
       <r>     4.7314     1.9643     6.5450 </r>
       <r>     4.8316     1.2051     6.6658 </r>
       <r>     4.9318     1.0974     6.7757 </r>
       <r>     5.0320     1.0245     6.8784 </r>
       <r>     5.1322     0.9483     6.9735 </r>
       <r>     5.2325     0.8841     7.0621 </r>
       <r>     5.3327     1.0052     7.1628 </r>
       <r>     5.4329     0.9469     7.2577 </r>
       <r>     5.5331     1.0676     7.3647 </r>
       <r>     5.6333     1.1511     7.4801 </r>
       <r>     5.7336     1.4946     7.6299 </r>
       <r>     5.8338     2.7084     7.9013 </r>
       <r>     5.9340     0.9821     7.9997 </r>
       <r>     6.0342     0.0027     8.0000 </r>
       <r>     6.1345     0.0000     8.0000 </r>
       <r>     6.2347     0.0000     8.0000 </r>
       <r>     6.3349     0.0094     8.0009 </r>
       <r>     6.4351     0.5309     8.0542 </r>
       <r>     6.5353     0.9718     8.1515 </r>
       <r>     6.6356     1.2812     8.2800 </r>
       <r>     6.7358     0.7763     8.3578 </r>
       <r>     6.8360     0.6239     8.4203 </r>
       <r>     6.9362     0.5488     8.4753 </r>
       <r>     7.0364     0.7086     8.5463 </r>
       <r>     7.1367     0.9985     8.6464 </r>
       <r>     7.2369     0.7767     8.7242 </r>
       <r>     7.3371     0.7708     8.8015 </r>
       <r>     7.4373     1.3168     8.9334 </r>
       <r>     7.5375     1.0563     9.0393 </r>
       <r>     7.6378     0.9078     9.1303 </r>
       <r>     7.7380     0.8339     9.2139 </r>
       <r>     7.8382     0.7482     9.2888 </r>
       <r>     7.9384     0.8007     9.3691 </r>
       <r>     8.0386     0.7531     9.4446 </r>
       <r>     8.1389     0.7763     9.5224 </r>
       <r>     8.2391     0.7387     9.5964 </r>
       <r>     8.3393     0.9366     9.6903 </r>
       <r>     8.4395     3.1591    10.0069 </r>
       <r>     8.5397     2.4201    10.2494 </r>
       <r>     8.6400     1.5054    10.4003 </r>
       <r>     8.7402     1.5461    10.5552 </r>
       <r>     8.8404     1.5578    10.7114 </r>
       <r>     8.9406     1.5824    10.8699 </r>
       <r>     9.0409     1.0178    10.9720 </r>
       <r>     9.1411     1.0957    11.0818 </r>
       <r>     9.2413     2.8506    11.3675 </r>
       <r>     9.3415     2.9506    11.6632 </r>
       <r>     9.4417     2.0052    11.8641 </r>
       <r>     9.5420     0.7275    11.9370 </r>
       <r>     9.6422     0.7806    12.0153 </r>
       <r>     9.7424     0.7886    12.0943 </r>
       <r>     9.8426     0.6391    12.1584 </r>
       <r>     9.9428     1.1574    12.2744 </r>
       <r>    10.0431     2.4674    12.5216 </r>
       <r>    10.1433     2.4766    12.7698 </r>
       <r>    10.2435     1.2756    12.8977 </r>
       <r>    10.3437     0.4363    12.9414 </r>
       <r>    10.4439     0.4108    12.9826 </r>
       <r>    10.5442     0.3729    13.0200 </r>
       <r>    10.6444     0.2270    13.0427 </r>
       <r>    10.7446     0.3861    13.0814 </r>
       <r>    10.8448     0.7304    13.1546 </r>
       <r>    10.9450     1.1966    13.2745 </r>
       <r>    11.0453     0.8843    13.3631 </r>
       <r>    11.1455     0.7599    13.4393 </r>
       <r>    11.2457     0.8004    13.5195 </r>
       <r>    11.3459     0.7833    13.5980 </r>
       <r>    11.4462     0.8567    13.6839 </r>
       <r>    11.5464     1.1207    13.7962 </r>
       <r>    11.6466     0.9034    13.8867 </r>
       <r>    11.7468     0.8819    13.9751 </r>
       <r>    11.8470     0.6869    14.0440 </r>
       <r>    11.9473     1.1005    14.1543 </r>
       <r>    12.0475     1.2936    14.2839 </r>
       <r>    12.1477     0.9317    14.3773 </r>
       <r>    12.2479     0.8556    14.4630 </r>
       <r>    12.3481     1.0490    14.5682 </r>
       <r>    12.4484     0.8646    14.6548 </r>
       <r>    12.5486     1.0814    14.7632 </r>
       <r>    12.6488     0.7501    14.8384 </r>
       <r>    12.7490     0.8919    14.9277 </r>
       <r>    12.8492     1.0411    15.0321 </r>
       <r>    12.9495     1.9754    15.2301 </r>
       <r>    13.0497     1.7550    15.4059 </r>
       <r>    13.1499     1.4882    15.5551 </r>
       <r>    13.2501     1.3515    15.6905 </r>
       <r>    13.3503     1.6754    15.8584 </r>
       <r>    13.4506     1.7304    16.0319 </r>
       <r>    13.5508     2.5543    16.2879 </r>
       <r>    13.6510     2.4827    16.5367 </r>
       <r>    13.7512     1.4791    16.6849 </r>
       <r>    13.8514     1.9473    16.8801 </r>
       <r>    13.9517     1.5480    17.0352 </r>
       <r>    14.0519     1.1869    17.1542 </r>
       <r>    14.1521     1.2762    17.2821 </r>
       <r>    14.2523     0.8003    17.3623 </r>
       <r>    14.3526     1.1802    17.4806 </r>
       <r>    14.4528     0.9805    17.5788 </r>
       <r>    14.5530     0.7640    17.6554 </r>
       <r>    14.6532     1.0684    17.7625 </r>
       <r>    14.7534     1.0633    17.8690 </r>
       <r>    14.8537     1.2901    17.9983 </r>
       <r>    14.9539     1.2791    18.1265 </r>
       <r>    15.0541     1.2032    18.2471 </r>
       <r>    15.1543     0.7912    18.3264 </r>
       <r>    15.2545     0.9237    18.4190 </r>
       <r>    15.3548     0.8296    18.5021 </r>
       <r>    15.4550     0.9101    18.5933 </r>
       <r>    15.5552     0.7968    18.6732 </r>
       <r>    15.6554     1.0108    18.7745 </r>
       <r>    15.7556     0.9026    18.8650 </r>
       <r>    15.8559     1.0329    18.9685 </r>
       <r>    15.9561     1.6055    19.1294 </r>
       <r>    16.0563     0.9451    19.2241 </r>
       <r>    16.1565     0.5746    19.2817 </r>
       <r>    16.2567     0.8105    19.3629 </r>
       <r>    16.3570     1.0921    19.4724 </r>
       <r>    16.4572     5.8799    20.0616 </r>
       <r>    16.5574     2.6986    20.3321 </r>
       <r>    16.6576     1.6607    20.4985 </r>
       <r>    16.7578     1.0723    20.6060 </r>
       <r>    16.8581     1.3372    20.7400 </r>
       <r>    16.9583     1.0016    20.8404 </r>
       <r>    17.0585     1.1747    20.9581 </r>
       <r>    17.1587     1.5913    21.1176 </r>
       <r>    17.2590     0.7349    21.1913 </r>
       <r>    17.3592     0.7154    21.2630 </r>
       <r>    17.4594     0.5046    21.3135 </r>
       <r>    17.5596     0.4470    21.3583 </r>
       <r>    17.6598     0.5513    21.4136 </r>
       <r>    17.7601     0.4231    21.4560 </r>
       <r>    17.8603     0.5249    21.5086 </r>
       <r>    17.9605     0.4549    21.5542 </r>
       <r>    18.0607     0.2785    21.5821 </r>
       <r>    18.1609     0.6595    21.6482 </r>
       <r>    18.2612     0.3500    21.6833 </r>
       <r>    18.3614     0.5313    21.7365 </r>
       <r>    18.4616     1.4874    21.8856 </r>
       <r>    18.5618     1.2215    22.0080 </r>
       <r>    18.6620     2.4946    22.2580 </r>
       <r>    18.7623     2.4983    22.5084 </r>
       <r>    18.8625     2.8770    22.7967 </r>
       <r>    18.9627     1.9009    22.9873 </r>
       <r>    19.0629     0.6533    23.0527 </r>
       <r>    19.1631     0.7710    23.1300 </r>
       <r>    19.2634     0.5617    23.1863 </r>
       <r>    19.3636     0.7572    23.2622 </r>
       <r>    19.4638     0.5853    23.3208 </r>
       <r>    19.5640     0.4275    23.3637 </r>
       <r>    19.6643     0.4504    23.4088 </r>
       <r>    19.7645     0.5112    23.4600 </r>
       <r>    19.8647     0.4132    23.5015 </r>
       <r>    19.9649     0.3872    23.5403 </r>
       <r>    20.0651     0.3466    23.5750 </r>
       <r>    20.1654     0.3404    23.6091 </r>
       <r>    20.2656     0.3547    23.6447 </r>
       <r>    20.3658     0.3443    23.6792 </r>
       <r>    20.4660     0.3662    23.7159 </r>
       <r>    20.5662     0.3894    23.7549 </r>
       <r>    20.6665     0.4747    23.8025 </r>
       <r>    20.7667     0.4749    23.8501 </r>
       <r>    20.8669     0.3583    23.8860 </r>
       <r>    20.9671     0.2614    23.9122 </r>
       <r>    21.0673     0.5127    23.9636 </r>
       <r>    21.1676     0.2561    23.9892 </r>
       <r>    21.2678     0.1037    23.9996 </r>
       <r>    21.3680     0.0040    24.0000 </r>
       <r>    21.4682     0.0000    24.0000 </r>
       <r>    21.5684     0.0000    24.0000 </r>
       <r>    21.6687     0.0000    24.0000 </r>
       <r>    21.7689     0.0000    24.0000 </r>
       <r>    21.8691     0.0000    24.0000 </r>
       <r>    21.9693     0.0000    24.0000 </r>
       <r>    22.0695     0.0000    24.0000 </r>
       <r>    22.1698     0.0000    24.0000 </r>
       <r>    22.2700     0.0000    24.0000 </r>
       <r>    22.3702     0.0000    24.0000 </r>
       <r>    22.4704     0.0000    24.0000 </r>
       <r>    22.5707     0.0000    24.0000 </r>
      </set>
     </set>
    </array>
   </total>
   <partial>
    <array>
     <dimension dim="1">gridpoints</dimension>
     <dimension dim="2">spin</dimension>
     <dimension dim="3">ion</dimension>
     <field>energy</field>
     <field>    s</field>
     <field>   py</field>
     <field>   pz</field>
     <field>   px</field>
     <field>  dxy</field>
     <field>  dyz</field>
     <field>  dz2</field>
     <field>  dxz</field>
     <field>x2-y2</field>
     <set>
      <set comment="ion 1">
       <set comment="spin 1">
        <r>    -7.4956     0.0000     0.0000     0.0000     0.0000     0.0000     0.0000     0.0000     0.0000     0.0000 </r>
        <r>    -7.3953     0.0000     0.0000     0.0000     0.0000     0.0000     0.0000     0.0000     0.0000     0.0000 </r>
        <r>    -7.2951     0.0000     0.0000     0.0000     0.0000     0.0000     0.0000     0.0000     0.0000     0.0000 </r>
        <r>    -7.1949     0.0000     0.0000     0.0000     0.0000     0.0000     0.0000     0.0000     0.0000     0.0000 </r>
        <r>    -7.0947     0.0000     0.0000     0.0000     0.0000     0.0000     0.0000     0.0000     0.0000     0.0000 </r>
        <r>    -6.9945     0.0000     0.0000     0.0000     0.0000     0.0000     0.0000     0.0000     0.0000     0.0000 </r>
        <r>    -6.8942     0.0000     0.0000     0.0000     0.0000     0.0000     0.0000     0.0000     0.0000     0.0000 </r>
        <r>    -6.7940     0.0000     0.0000     0.0000     0.0000     0.0000     0.0000     0.0000     0.0000     0.0000 </r>
        <r>    -6.6938     0.0000     0.0000     0.0000     0.0000     0.0000     0.0000     0.0000     0.0000     0.0000 </r>
        <r>    -6.5936     0.0000     0.0000     0.0000     0.0000     0.0000     0.0000     0.0000     0.0000     0.0000 </r>
        <r>    -6.4934     0.0000     0.0000     0.0000     0.0000     0.0000     0.0000     0.0000     0.0000     0.0000 </r>
        <r>    -6.3931     0.0000     0.0000     0.0000     0.0000     0.0000     0.0000     0.0000     0.0000     0.0000 </r>
        <r>    -6.2929     0.0000     0.0000     0.0000     0.0000     0.0000     0.0000     0.0000     0.0000     0.0000 </r>
        <r>    -6.1927     0.0059     0.0000     0.0000     0.0000     0.0000     0.0000     0.0000     0.0000     0.0000 </r>
        <r>    -6.0925     0.2354     0.0001     0.0001     0.0001     0.0000     0.0000     0.0000     0.0000     0.0000 </r>
        <r>    -5.9923     0.2433     0.0003     0.0003     0.0003     0.0000     0.0000     0.0000     0.0000     0.0000 </r>
        <r>    -5.8920     0.1460     0.0005     0.0005     0.0005     0.0000     0.0000     0.0000     0.0000     0.0000 </r>
        <r>    -5.7918     0.1161     0.0006     0.0006     0.0006     0.0000     0.0000     0.0000     0.0000     0.0000 </r>
        <r>    -5.6916     0.0997     0.0007     0.0007     0.0007     0.0000     0.0000     0.0000     0.0000     0.0000 </r>
        <r>    -5.5914     0.0887     0.0007     0.0007     0.0007     0.0000     0.0000     0.0000     0.0000     0.0000 </r>
        <r>    -5.4912     0.0805     0.0008     0.0008     0.0008     0.0000     0.0000     0.0000     0.0000     0.0000 </r>
        <r>    -5.3909     0.0748     0.0009     0.0009     0.0009     0.0000     0.0000     0.0000     0.0000     0.0000 </r>
        <r>    -5.2907     0.0709     0.0009     0.0009     0.0009     0.0000     0.0000     0.0000     0.0000     0.0000 </r>
        <r>    -5.1905     0.0681     0.0010     0.0010     0.0010     0.0000     0.0000     0.0000     0.0000     0.0000 </r>
        <r>    -5.0903     0.0646     0.0011     0.0011     0.0011     0.0000     0.0000     0.0000     0.0000     0.0000 </r>
        <r>    -4.9900     0.0588     0.0011     0.0011     0.0011     0.0000     0.0000     0.0000     0.0000     0.0000 </r>
        <r>    -4.8898     0.0548     0.0010     0.0010     0.0010     0.0000     0.0000     0.0000     0.0000     0.0000 </r>
        <r>    -4.7896     0.0585     0.0012     0.0012     0.0012     0.0000     0.0000     0.0000     0.0000     0.0000 </r>
        <r>    -4.6894     0.0599     0.0013     0.0013     0.0013     0.0000     0.0000     0.0000     0.0000     0.0000 </r>
        <r>    -4.5892     0.0489     0.0011     0.0011     0.0011     0.0000     0.0000     0.0000     0.0000     0.0000 </r>
        <r>    -4.4889     0.0499     0.0012     0.0012     0.0012     0.0000     0.0000     0.0000     0.0000     0.0000 </r>
        <r>    -4.3887     0.0606     0.0016     0.0016     0.0016     0.0000     0.0000     0.0000     0.0000     0.0000 </r>
        <r>    -4.2885     0.0474     0.0013     0.0013     0.0013     0.0000     0.0000     0.0000     0.0000     0.0000 </r>
        <r>    -4.1883     0.0503     0.0014     0.0014     0.0014     0.0000     0.0000     0.0000     0.0000     0.0000 </r>
        <r>    -4.0881     0.0619     0.0018     0.0018     0.0018     0.0000     0.0000     0.0000     0.0000     0.0000 </r>
        <r>    -3.9878     0.0469     0.0013     0.0013     0.0013     0.0000     0.0000     0.0000     0.0000     0.0000 </r>
        <r>    -3.8876     0.0685     0.0020     0.0020     0.0020     0.0000     0.0000     0.0000     0.0000     0.0000 </r>
        <r>    -3.7874     0.0913     0.0023     0.0023     0.0023     0.0000     0.0000     0.0000     0.0000     0.0000 </r>
        <r>    -3.6872     0.0409     0.0013     0.0013     0.0013     0.0000     0.0000     0.0000     0.0000     0.0000 </r>
        <r>    -3.5870     0.0326     0.0013     0.0013     0.0013     0.0000     0.0000     0.0000     0.0000     0.0000 </r>
        <r>    -3.4867     0.0228     0.0009     0.0009     0.0009     0.0000     0.0000     0.0000     0.0000     0.0000 </r>
        <r>    -3.3865     0.0284     0.0013     0.0013     0.0013     0.0000     0.0000     0.0000     0.0000     0.0000 </r>
        <r>    -3.2863     0.0254     0.0010     0.0010     0.0010     0.0000     0.0000     0.0000     0.0000     0.0000 </r>
        <r>    -3.1861     0.0298     0.0014     0.0014     0.0014     0.0000     0.0000     0.0000     0.0000     0.0000 </r>
        <r>    -3.0859     0.0192     0.0008     0.0008     0.0008     0.0000     0.0000     0.0000     0.0000     0.0000 </r>
        <r>    -2.9856     0.0382     0.0019     0.0019     0.0019     0.0000     0.0000     0.0000     0.0000     0.0000 </r>
        <r>    -2.8854     0.0169     0.0008     0.0008     0.0008     0.0000     0.0000     0.0000     0.0000     0.0000 </r>
        <r>    -2.7852     0.0345     0.0018     0.0018     0.0018     0.0000     0.0000     0.0000     0.0000     0.0000 </r>
        <r>    -2.6850     0.0237     0.0011     0.0011     0.0011     0.0000     0.0000     0.0000     0.0000     0.0000 </r>
        <r>    -2.5848     0.0381     0.0021     0.0021     0.0021     0.0000     0.0000     0.0000     0.0000     0.0000 </r>
        <r>    -2.4845     0.0244     0.0012     0.0012     0.0012     0.0000     0.0000     0.0000     0.0000     0.0000 </r>
        <r>    -2.3843     0.1641     0.0088     0.0088     0.0088     0.0000     0.0000     0.0000     0.0000     0.0000 </r>
        <r>    -2.2841     0.2586     0.0137     0.0137     0.0137     0.0000     0.0000     0.0000     0.0000     0.0000 </r>
        <r>    -2.1839     0.1535     0.0088     0.0088     0.0088     0.0000     0.0000     0.0000     0.0000     0.0000 </r>
        <r>    -2.0836     0.1130     0.0068     0.0068     0.0068     0.0000     0.0000     0.0000     0.0000     0.0000 </r>
        <r>    -1.9834     0.3169     0.0233     0.0233     0.0233     0.0000     0.0000     0.0000     0.0000     0.0000 </r>
        <r>    -1.8832     0.8171     0.0610     0.0610     0.0610     0.0000     0.0000     0.0000     0.0000     0.0000 </r>
        <r>    -1.7830     0.7088     0.0499     0.0499     0.0499     0.0000     0.0000     0.0000     0.0000     0.0000 </r>
        <r>    -1.6828     0.1492     0.0108     0.0108     0.0108     0.0000     0.0000     0.0000     0.0000     0.0000 </r>
        <r>    -1.5825     0.1028     0.0079     0.0079     0.0079     0.0000     0.0000     0.0000     0.0000     0.0000 </r>
        <r>    -1.4823     0.1704     0.0145     0.0145     0.0145     0.0000     0.0000     0.0000     0.0000     0.0000 </r>
        <r>    -1.3821     0.3303     0.0315     0.0315     0.0315     0.0000     0.0000     0.0000     0.0000     0.0000 </r>
        <r>    -1.2819     0.1147     0.0113     0.0113     0.0113     0.0000     0.0000     0.0000     0.0000     0.0000 </r>
        <r>    -1.1817     0.0248     0.0029     0.0029     0.0029     0.0000     0.0000     0.0000     0.0000     0.0000 </r>
        <r>    -1.0814     0.0448     0.0095     0.0095     0.0095     0.0000     0.0000     0.0000     0.0000     0.0000 </r>
        <r>    -0.9812     0.0456     0.0082     0.0082     0.0082     0.0000     0.0000     0.0000     0.0000     0.0000 </r>
        <r>    -0.8810     0.0287     0.0054     0.0054     0.0054     0.0000     0.0000     0.0000     0.0000     0.0000 </r>
        <r>    -0.7808     0.0377     0.0058     0.0058     0.0058     0.0000     0.0000     0.0000     0.0000     0.0000 </r>
        <r>    -0.6806     0.0219     0.0043     0.0043     0.0043     0.0000     0.0000     0.0000     0.0000     0.0000 </r>
        <r>    -0.5803     0.0366     0.0061     0.0061     0.0061     0.0000     0.0000     0.0000     0.0000     0.0000 </r>
        <r>    -0.4801     0.0232     0.0037     0.0037     0.0037     0.0000     0.0000     0.0000     0.0000     0.0000 </r>
        <r>    -0.3799     0.0229     0.0047     0.0047     0.0047     0.0000     0.0000     0.0000     0.0000     0.0000 </r>
        <r>    -0.2797     0.0352     0.0053     0.0053     0.0053     0.0000     0.0000     0.0000     0.0000     0.0000 </r>
        <r>    -0.1795     0.0150     0.0036     0.0036     0.0036     0.0000     0.0000     0.0000     0.0000     0.0000 </r>
        <r>    -0.0792     0.0325     0.0052     0.0052     0.0052     0.0000     0.0000     0.0000     0.0000     0.0000 </r>
        <r>     0.0210     0.0204     0.0042     0.0042     0.0042     0.0000     0.0000     0.0000     0.0000     0.0000 </r>
        <r>     0.1212     0.0192     0.0036     0.0036     0.0036     0.0000     0.0000     0.0000     0.0000     0.0000 </r>
        <r>     0.2214     0.0319     0.0060     0.0060     0.0060     0.0000     0.0000     0.0000     0.0000     0.0000 </r>
        <r>     0.3216     0.0122     0.0025     0.0025     0.0025     0.0000     0.0000     0.0000     0.0000     0.0000 </r>
        <r>     0.4219     0.0318     0.0065     0.0065     0.0065     0.0000     0.0000     0.0000     0.0000     0.0000 </r>
        <r>     0.5221     0.0149     0.0027     0.0027     0.0027     0.0000     0.0000     0.0000     0.0000     0.0000 </r>
        <r>     0.6223     0.0213     0.0053     0.0053     0.0053     0.0000     0.0000     0.0000     0.0000     0.0000 </r>
        <r>     0.7225     0.0251     0.0043     0.0043     0.0043     0.0000     0.0000     0.0000     0.0000     0.0000 </r>
        <r>     0.8228     0.0145     0.0041     0.0041     0.0041     0.0000     0.0000     0.0000     0.0000     0.0000 </r>
        <r>     0.9230     0.0261     0.0052     0.0052     0.0052     0.0000     0.0000     0.0000     0.0000     0.0000 </r>
        <r>     1.0232     0.0133     0.0030     0.0030     0.0030     0.0000     0.0000     0.0000     0.0000     0.0000 </r>
        <r>     1.1234     0.0223     0.0058     0.0058     0.0058     0.0000     0.0000     0.0000     0.0000     0.0000 </r>
        <r>     1.2236     0.0175     0.0031     0.0031     0.0031     0.0000     0.0000     0.0000     0.0000     0.0000 </r>
        <r>     1.3239     0.0229     0.0067     0.0067     0.0067     0.0000     0.0000     0.0000     0.0000     0.0000 </r>
        <r>     1.4241     0.0139     0.0135     0.0135     0.0135     0.0000     0.0000     0.0000     0.0000     0.0000 </r>
        <r>     1.5243     0.0237     0.0496     0.0496     0.0496     0.0000     0.0000     0.0000     0.0000     0.0000 </r>
        <r>     1.6245     0.0144     0.0871     0.0871     0.0871     0.0000     0.0000     0.0000     0.0000     0.0000 </r>
        <r>     1.7247     0.0199     0.0518     0.0518     0.0518     0.0000     0.0000     0.0000     0.0000     0.0000 </r>
        <r>     1.8250     0.0229     0.0440     0.0440     0.0440     0.0000     0.0000     0.0000     0.0000     0.0000 </r>
        <r>     1.9252     0.0102     0.0368     0.0368     0.0368     0.0000     0.0000     0.0000     0.0000     0.0000 </r>
        <r>     2.0254     0.0256     0.1015     0.1015     0.1015     0.0000     0.0000     0.0000     0.0000     0.0000 </r>
        <r>     2.1256     0.0127     0.0840     0.0840     0.0840     0.0000     0.0000     0.0000     0.0000     0.0000 </r>
        <r>     2.2258     0.0190     0.0608     0.0608     0.0608     0.0000     0.0000     0.0000     0.0000     0.0000 </r>
        <r>     2.3261     0.0240     0.0588     0.0588     0.0588     0.0000     0.0000     0.0000     0.0000     0.0000 </r>
        <r>     2.4263     0.0098     0.0479     0.0479     0.0479     0.0000     0.0000     0.0000     0.0000     0.0000 </r>
        <r>     2.5265     0.0236     0.0508     0.0508     0.0508     0.0000     0.0000     0.0000     0.0000     0.0000 </r>
        <r>     2.6267     0.0166     0.0517     0.0517     0.0517     0.0000     0.0000     0.0000     0.0000     0.0000 </r>
        <r>     2.7269     0.0153     0.0483     0.0483     0.0483     0.0000     0.0000     0.0000     0.0000     0.0000 </r>
        <r>     2.8272     0.0217     0.0601     0.0601     0.0601     0.0000     0.0000     0.0000     0.0000     0.0000 </r>
        <r>     2.9274     0.0109     0.0714     0.0714     0.0714     0.0000     0.0000     0.0000     0.0000     0.0000 </r>
        <r>     3.0276     0.0168     0.1411     0.1411     0.1411     0.0000     0.0000     0.0000     0.0000     0.0000 </r>
        <r>     3.1278     0.0178     0.0753     0.0753     0.0753     0.0000     0.0000     0.0000     0.0000     0.0000 </r>
        <r>     3.2281     0.0134     0.0535     0.0535     0.0535     0.0000     0.0000     0.0000     0.0000     0.0000 </r>
        <r>     3.3283     0.0118     0.0525     0.0525     0.0525     0.0000     0.0000     0.0000     0.0000     0.0000 </r>
        <r>     3.4285     0.0162     0.0726     0.0726     0.0726     0.0000     0.0000     0.0000     0.0000     0.0000 </r>
        <r>     3.5287     0.0127     0.0417     0.0417     0.0417     0.0000     0.0000     0.0000     0.0000     0.0000 </r>
        <r>     3.6289     0.0114     0.0357     0.0357     0.0357     0.0000     0.0000     0.0000     0.0000     0.0000 </r>
        <r>     3.7292     0.0174     0.0356     0.0356     0.0356     0.0000     0.0000     0.0000     0.0000     0.0000 </r>
        <r>     3.8294     0.0055     0.0285     0.0285     0.0285     0.0000     0.0000     0.0000     0.0000     0.0000 </r>
        <r>     3.9296     0.0160     0.0350     0.0350     0.0350     0.0000     0.0000     0.0000     0.0000     0.0000 </r>
        <r>     4.0298     0.0140     0.0311     0.0311     0.0311     0.0000     0.0000     0.0000     0.0000     0.0000 </r>
        <r>     4.1300     0.0025     0.0251     0.0251     0.0251     0.0000     0.0000     0.0000     0.0000     0.0000 </r>
        <r>     4.2303     0.0223     0.0369     0.0369     0.0369     0.0000     0.0000     0.0000     0.0000     0.0000 </r>
        <r>     4.3305     0.0040     0.0234     0.0234     0.0234     0.0000     0.0000     0.0000     0.0000     0.0000 </r>
        <r>     4.4307     0.0090     0.0290     0.0290     0.0290     0.0000     0.0000     0.0000     0.0000     0.0000 </r>
        <r>     4.5309     0.0160     0.0339     0.0339     0.0339     0.0000     0.0000     0.0000     0.0000     0.0000 </r>
        <r>     4.6311     0.0021     0.0587     0.0587     0.0587     0.0000     0.0000     0.0000     0.0000     0.0000 </r>
        <r>     4.7314     0.0155     0.1370     0.1370     0.1370     0.0000     0.0000     0.0000     0.0000     0.0000 </r>
        <r>     4.8316     0.0054     0.0843     0.0843     0.0843     0.0000     0.0000     0.0000     0.0000     0.0000 </r>
        <r>     4.9318     0.0095     0.0754     0.0754     0.0754     0.0000     0.0000     0.0000     0.0000     0.0000 </r>
        <r>     5.0320     0.0078     0.0703     0.0703     0.0703     0.0000     0.0000     0.0000     0.0000     0.0000 </r>
        <r>     5.1322     0.0075     0.0652     0.0652     0.0652     0.0000     0.0000     0.0000     0.0000     0.0000 </r>
        <r>     5.2325     0.0057     0.0611     0.0611     0.0611     0.0000     0.0000     0.0000     0.0000     0.0000 </r>
        <r>     5.3327     0.0080     0.0692     0.0692     0.0692     0.0000     0.0000     0.0000     0.0000     0.0000 </r>
        <r>     5.4329     0.0042     0.0661     0.0661     0.0661     0.0000     0.0000     0.0000     0.0000     0.0000 </r>
        <r>     5.5331     0.0062     0.0746     0.0746     0.0746     0.0000     0.0000     0.0000     0.0000     0.0000 </r>
        <r>     5.6333     0.0037     0.0814     0.0814     0.0814     0.0000     0.0000     0.0000     0.0000     0.0000 </r>
        <r>     5.7336     0.0034     0.1064     0.1064     0.1064     0.0000     0.0000     0.0000     0.0000     0.0000 </r>
        <r>     5.8338     0.0017     0.1946     0.1946     0.1946     0.0000     0.0000     0.0000     0.0000     0.0000 </r>
        <r>     5.9340     0.0002     0.0707     0.0707     0.0707     0.0000     0.0000     0.0000     0.0000     0.0000 </r>
        <r>     6.0342     0.0000     0.0002     0.0002     0.0002     0.0000     0.0000     0.0000     0.0000     0.0000 </r>
        <r>     6.1345     0.0000     0.0000     0.0000     0.0000     0.0000     0.0000     0.0000     0.0000     0.0000 </r>
        <r>     6.2347     0.0000     0.0000     0.0000     0.0000     0.0000     0.0000     0.0000     0.0000     0.0000 </r>
        <r>     6.3349     0.0005     0.0001     0.0001     0.0001     0.0000     0.0000     0.0000     0.0000     0.0000 </r>
        <r>     6.4351     0.0282     0.0077     0.0077     0.0077     0.0000     0.0000     0.0000     0.0000     0.0000 </r>
        <r>     6.5353     0.0507     0.0135     0.0135     0.0135     0.0000     0.0000     0.0000     0.0000     0.0000 </r>
        <r>     6.6356     0.0655     0.0169     0.0169     0.0169     0.0000     0.0000     0.0000     0.0000     0.0000 </r>
        <r>     6.7358     0.0386     0.0113     0.0113     0.0113     0.0000     0.0000     0.0000     0.0000     0.0000 </r>
        <r>     6.8360     0.0302     0.0098     0.0098     0.0098     0.0000     0.0000     0.0000     0.0000     0.0000 </r>
        <r>     6.9362     0.0259     0.0091     0.0091     0.0091     0.0000     0.0000     0.0000     0.0000     0.0000 </r>
        <r>     7.0364     0.0339     0.0116     0.0116     0.0116     0.0000     0.0000     0.0000     0.0000     0.0000 </r>
        <r>     7.1367     0.0486     0.0160     0.0160     0.0160     0.0000     0.0000     0.0000     0.0000     0.0000 </r>
        <r>     7.2369     0.0365     0.0135     0.0135     0.0135     0.0000     0.0000     0.0000     0.0000     0.0000 </r>
        <r>     7.3371     0.0434     0.0134     0.0134     0.0134     0.0000     0.0000     0.0000     0.0000     0.0000 </r>
        <r>     7.4373     0.1489     0.0172     0.0172     0.0172     0.0000     0.0000     0.0000     0.0000     0.0000 </r>
        <r>     7.5375     0.1068     0.0161     0.0161     0.0161     0.0000     0.0000     0.0000     0.0000     0.0000 </r>
        <r>     7.6378     0.0786     0.0157     0.0157     0.0157     0.0000     0.0000     0.0000     0.0000     0.0000 </r>
        <r>     7.7380     0.0666     0.0156     0.0156     0.0156     0.0000     0.0000     0.0000     0.0000     0.0000 </r>
        <r>     7.8382     0.0573     0.0154     0.0154     0.0154     0.0000     0.0000     0.0000     0.0000     0.0000 </r>
        <r>     7.9384     0.0555     0.0170     0.0170     0.0170     0.0000     0.0000     0.0000     0.0000     0.0000 </r>
        <r>     8.0386     0.0501     0.0177     0.0177     0.0177     0.0000     0.0000     0.0000     0.0000     0.0000 </r>
        <r>     8.1389     0.0483     0.0190     0.0190     0.0190     0.0000     0.0000     0.0000     0.0000     0.0000 </r>
        <r>     8.2391     0.0438     0.0200     0.0200     0.0200     0.0000     0.0000     0.0000     0.0000     0.0000 </r>
        <r>     8.3393     0.0441     0.0296     0.0296     0.0296     0.0000     0.0000     0.0000     0.0000     0.0000 </r>
        <r>     8.4395     0.0466     0.1420     0.1420     0.1420     0.0000     0.0000     0.0000     0.0000     0.0000 </r>
        <r>     8.5397     0.0339     0.1085     0.1085     0.1085     0.0000     0.0000     0.0000     0.0000     0.0000 </r>
        <r>     8.6400     0.0272     0.0646     0.0646     0.0646     0.0000     0.0000     0.0000     0.0000     0.0000 </r>
        <r>     8.7402     0.0432     0.0628     0.0628     0.0628     0.0000     0.0000     0.0000     0.0000     0.0000 </r>
        <r>     8.8404     0.0641     0.0612     0.0612     0.0612     0.0000     0.0000     0.0000     0.0000     0.0000 </r>
        <r>     8.9406     0.0773     0.0601     0.0601     0.0601     0.0000     0.0000     0.0000     0.0000     0.0000 </r>
        <r>     9.0409     0.0152     0.0439     0.0439     0.0439     0.0000     0.0000     0.0000     0.0000     0.0000 </r>
        <r>     9.1411     0.0177     0.0423     0.0423     0.0423     0.0000     0.0000     0.0000     0.0000     0.0000 </r>
        <r>     9.2413     0.1775     0.0896     0.0896     0.0896     0.0000     0.0000     0.0000     0.0000     0.0000 </r>
        <r>     9.3415     0.1797     0.0959     0.0959     0.0959     0.0000     0.0000     0.0000     0.0000     0.0000 </r>
        <r>     9.4417     0.0960     0.0735     0.0735     0.0735     0.0000     0.0000     0.0000     0.0000     0.0000 </r>
        <r>     9.5420     0.0850     0.0190     0.0190     0.0190     0.0000     0.0000     0.0000     0.0000     0.0000 </r>
        <r>     9.6422     0.0517     0.0276     0.0276     0.0276     0.0000     0.0000     0.0000     0.0000     0.0000 </r>
        <r>     9.7424     0.0890     0.0212     0.0212     0.0212     0.0000     0.0000     0.0000     0.0000     0.0000 </r>
        <r>     9.8426     0.0259     0.0239     0.0239     0.0239     0.0000     0.0000     0.0000     0.0000     0.0000 </r>
        <r>     9.9428     0.0911     0.0339     0.0339     0.0339     0.0000     0.0000     0.0000     0.0000     0.0000 </r>
        <r>    10.0431     0.0728     0.0755     0.0755     0.0755     0.0000     0.0000     0.0000     0.0000     0.0000 </r>
        <r>    10.1433     0.0715     0.0734     0.0734     0.0734     0.0000     0.0000     0.0000     0.0000     0.0000 </r>
        <r>    10.2435     0.0819     0.0403     0.0403     0.0403     0.0000     0.0000     0.0000     0.0000     0.0000 </r>
        <r>    10.3437     0.0412     0.0166     0.0166     0.0166     0.0000     0.0000     0.0000     0.0000     0.0000 </r>
        <r>    10.4439     0.0311     0.0152     0.0152     0.0152     0.0000     0.0000     0.0000     0.0000     0.0000 </r>
        <r>    10.5442     0.0169     0.0173     0.0173     0.0173     0.0000     0.0000     0.0000     0.0000     0.0000 </r>
        <r>    10.6444     0.0195     0.0092     0.0092     0.0092     0.0000     0.0000     0.0000     0.0000     0.0000 </r>
        <r>    10.7446     0.0212     0.0174     0.0174     0.0174     0.0000     0.0000     0.0000     0.0000     0.0000 </r>
        <r>    10.8448     0.0396     0.0273     0.0273     0.0273     0.0000     0.0000     0.0000     0.0000     0.0000 </r>
        <r>    10.9450     0.0727     0.0430     0.0430     0.0430     0.0000     0.0000     0.0000     0.0000     0.0000 </r>
        <r>    11.0453     0.0430     0.0352     0.0352     0.0352     0.0000     0.0000     0.0000     0.0000     0.0000 </r>
        <r>    11.1455     0.0454     0.0275     0.0275     0.0275     0.0000     0.0000     0.0000     0.0000     0.0000 </r>
        <r>    11.2457     0.0356     0.0326     0.0326     0.0326     0.0000     0.0000     0.0000     0.0000     0.0000 </r>
        <r>    11.3459     0.0355     0.0284     0.0284     0.0284     0.0000     0.0000     0.0000     0.0000     0.0000 </r>
        <r>    11.4462     0.0495     0.0330     0.0330     0.0330     0.0000     0.0000     0.0000     0.0000     0.0000 </r>
        <r>    11.5464     0.0553     0.0412     0.0412     0.0412     0.0000     0.0000     0.0000     0.0000     0.0000 </r>
        <r>    11.6466     0.0459     0.0329     0.0329     0.0329     0.0000     0.0000     0.0000     0.0000     0.0000 </r>
        <r>    11.7468     0.0321     0.0338     0.0338     0.0338     0.0000     0.0000     0.0000     0.0000     0.0000 </r>
        <r>    11.8470     0.0245     0.0266     0.0266     0.0266     0.0000     0.0000     0.0000     0.0000     0.0000 </r>
        <r>    11.9473     0.0354     0.0287     0.0287     0.0287     0.0000     0.0000     0.0000     0.0000     0.0000 </r>
        <r>    12.0475     0.0188     0.0318     0.0318     0.0318     0.0000     0.0000     0.0000     0.0000     0.0000 </r>
        <r>    12.1477     0.0276     0.0252     0.0252     0.0252     0.0000     0.0000     0.0000     0.0000     0.0000 </r>
        <r>    12.2479     0.0239     0.0272     0.0272     0.0272     0.0000     0.0000     0.0000     0.0000     0.0000 </r>
        <r>    12.3481     0.0327     0.0280     0.0280     0.0280     0.0000     0.0000     0.0000     0.0000     0.0000 </r>
        <r>    12.4484     0.0385     0.0219     0.0219     0.0219     0.0000     0.0000     0.0000     0.0000     0.0000 </r>
        <r>    12.5486     0.0313     0.0351     0.0351     0.0351     0.0000     0.0000     0.0000     0.0000     0.0000 </r>
        <r>    12.6488     0.0227     0.0204     0.0204     0.0204     0.0000     0.0000     0.0000     0.0000     0.0000 </r>
        <r>    12.7490     0.0349     0.0301     0.0301     0.0301     0.0000     0.0000     0.0000     0.0000     0.0000 </r>
        <r>    12.8492     0.0203     0.0330     0.0330     0.0330     0.0000     0.0000     0.0000     0.0000     0.0000 </r>
        <r>    12.9495     0.0389     0.0324     0.0324     0.0324     0.0000     0.0000     0.0000     0.0000     0.0000 </r>
        <r>    13.0497     0.0228     0.0408     0.0408     0.0408     0.0000     0.0000     0.0000     0.0000     0.0000 </r>
        <r>    13.1499     0.0258     0.0329     0.0329     0.0329     0.0000     0.0000     0.0000     0.0000     0.0000 </r>
        <r>    13.2501     0.0278     0.0316     0.0316     0.0316     0.0000     0.0000     0.0000     0.0000     0.0000 </r>
        <r>    13.3503     0.0197     0.0462     0.0462     0.0462     0.0000     0.0000     0.0000     0.0000     0.0000 </r>
        <r>    13.4506     0.0244     0.0265     0.0265     0.0265     0.0000     0.0000     0.0000     0.0000     0.0000 </r>
        <r>    13.5508     0.0289     0.0286     0.0286     0.0286     0.0000     0.0000     0.0000     0.0000     0.0000 </r>
        <r>    13.6510     0.0216     0.0408     0.0408     0.0408     0.0000     0.0000     0.0000     0.0000     0.0000 </r>
        <r>    13.7512     0.0298     0.0331     0.0331     0.0331     0.0000     0.0000     0.0000     0.0000     0.0000 </r>
        <r>    13.8514     0.0998     0.0394     0.0394     0.0394     0.0000     0.0000     0.0000     0.0000     0.0000 </r>
        <r>    13.9517     0.0693     0.0306     0.0306     0.0306     0.0000     0.0000     0.0000     0.0000     0.0000 </r>
        <r>    14.0519     0.0550     0.0291     0.0291     0.0291     0.0000     0.0000     0.0000     0.0000     0.0000 </r>
        <r>    14.1521     0.0472     0.0368     0.0368     0.0368     0.0000     0.0000     0.0000     0.0000     0.0000 </r>
        <r>    14.2523     0.0320     0.0146     0.0146     0.0146     0.0000     0.0000     0.0000     0.0000     0.0000 </r>
        <r>    14.3526     0.0347     0.0305     0.0305     0.0305     0.0000     0.0000     0.0000     0.0000     0.0000 </r>
        <r>    14.4528     0.0295     0.0219     0.0219     0.0219     0.0000     0.0000     0.0000     0.0000     0.0000 </r>
        <r>    14.5530     0.0230     0.0193     0.0193     0.0193     0.0000     0.0000     0.0000     0.0000     0.0000 </r>
        <r>    14.6532     0.0320     0.0293     0.0293     0.0293     0.0000     0.0000     0.0000     0.0000     0.0000 </r>
        <r>    14.7534     0.0447     0.0277     0.0277     0.0277     0.0000     0.0000     0.0000     0.0000     0.0000 </r>
        <r>    14.8537     0.0483     0.0259     0.0259     0.0259     0.0000     0.0000     0.0000     0.0000     0.0000 </r>
        <r>    14.9539     0.0487     0.0355     0.0355     0.0355     0.0000     0.0000     0.0000     0.0000     0.0000 </r>
        <r>    15.0541     0.0504     0.0306     0.0306     0.0306     0.0000     0.0000     0.0000     0.0000     0.0000 </r>
        <r>    15.1543     0.0157     0.0252     0.0252     0.0252     0.0000     0.0000     0.0000     0.0000     0.0000 </r>
        <r>    15.2545     0.0256     0.0360     0.0360     0.0360     0.0000     0.0000     0.0000     0.0000     0.0000 </r>
        <r>    15.3548     0.0236     0.0259     0.0259     0.0259     0.0000     0.0000     0.0000     0.0000     0.0000 </r>
        <r>    15.4550     0.0222     0.0358     0.0358     0.0358     0.0000     0.0000     0.0000     0.0000     0.0000 </r>
        <r>    15.5552     0.0199     0.0303     0.0303     0.0303     0.0000     0.0000     0.0000     0.0000     0.0000 </r>
        <r>    15.6554     0.0199     0.0413     0.0413     0.0413     0.0000     0.0000     0.0000     0.0000     0.0000 </r>
        <r>    15.7556     0.0214     0.0413     0.0413     0.0413     0.0000     0.0000     0.0000     0.0000     0.0000 </r>
        <r>    15.8559     0.0108     0.0460     0.0460     0.0460     0.0000     0.0000     0.0000     0.0000     0.0000 </r>
        <r>    15.9561     0.0313     0.0941     0.0941     0.0941     0.0000     0.0000     0.0000     0.0000     0.0000 </r>
        <r>    16.0563     0.0103     0.0436     0.0436     0.0436     0.0000     0.0000     0.0000     0.0000     0.0000 </r>
        <r>    16.1565     0.0095     0.0171     0.0171     0.0171     0.0000     0.0000     0.0000     0.0000     0.0000 </r>
        <r>    16.2567     0.0262     0.0271     0.0271     0.0271     0.0000     0.0000     0.0000     0.0000     0.0000 </r>
        <r>    16.3570     0.0120     0.0349     0.0349     0.0349     0.0000     0.0000     0.0000     0.0000     0.0000 </r>
        <r>    16.4572     0.0181     0.2300     0.2300     0.2300     0.0000     0.0000     0.0000     0.0000     0.0000 </r>
        <r>    16.5574     0.0303     0.0854     0.0854     0.0854     0.0000     0.0000     0.0000     0.0000     0.0000 </r>
        <r>    16.6576     0.0166     0.0446     0.0446     0.0446     0.0000     0.0000     0.0000     0.0000     0.0000 </r>
        <r>    16.7578     0.0102     0.0214     0.0214     0.0214     0.0000     0.0000     0.0000     0.0000     0.0000 </r>
        <r>    16.8581     0.0278     0.0198     0.0198     0.0198     0.0000     0.0000     0.0000     0.0000     0.0000 </r>
        <r>    16.9583     0.0116     0.0099     0.0099     0.0099     0.0000     0.0000     0.0000     0.0000     0.0000 </r>
        <r>    17.0585     0.0184     0.0167     0.0167     0.0167     0.0000     0.0000     0.0000     0.0000     0.0000 </r>
        <r>    17.1587     0.0201     0.0289     0.0289     0.0289     0.0000     0.0000     0.0000     0.0000     0.0000 </r>
        <r>    17.2590     0.0136     0.0177     0.0177     0.0177     0.0000     0.0000     0.0000     0.0000     0.0000 </r>
        <r>    17.3592     0.0126     0.0140     0.0140     0.0140     0.0000     0.0000     0.0000     0.0000     0.0000 </r>
        <r>    17.4594     0.0116     0.0111     0.0111     0.0111     0.0000     0.0000     0.0000     0.0000     0.0000 </r>
        <r>    17.5596     0.0057     0.0071     0.0071     0.0071     0.0000     0.0000     0.0000     0.0000     0.0000 </r>
        <r>    17.6598     0.0093     0.0111     0.0111     0.0111     0.0000     0.0000     0.0000     0.0000     0.0000 </r>
        <r>    17.7601     0.0128     0.0116     0.0116     0.0116     0.0000     0.0000     0.0000     0.0000     0.0000 </r>
        <r>    17.8603     0.0069     0.0087     0.0087     0.0087     0.0000     0.0000     0.0000     0.0000     0.0000 </r>
        <r>    17.9605     0.0098     0.0119     0.0119     0.0119     0.0000     0.0000     0.0000     0.0000     0.0000 </r>
        <r>    18.0607     0.0040     0.0064     0.0064     0.0064     0.0000     0.0000     0.0000     0.0000     0.0000 </r>
        <r>    18.1609     0.0112     0.0133     0.0133     0.0133     0.0000     0.0000     0.0000     0.0000     0.0000 </r>
        <r>    18.2612     0.0088     0.0105     0.0105     0.0105     0.0000     0.0000     0.0000     0.0000     0.0000 </r>
        <r>    18.3614     0.0032     0.0063     0.0063     0.0063     0.0000     0.0000     0.0000     0.0000     0.0000 </r>
        <r>    18.4616     0.0133     0.0199     0.0199     0.0199     0.0000     0.0000     0.0000     0.0000     0.0000 </r>
        <r>    18.5618     0.0170     0.0241     0.0241     0.0241     0.0000     0.0000     0.0000     0.0000     0.0000 </r>
        <r>    18.6620     0.0484     0.0669     0.0669     0.0669     0.0000     0.0000     0.0000     0.0000     0.0000 </r>
        <r>    18.7623     0.0515     0.0757     0.0757     0.0757     0.0000     0.0000     0.0000     0.0000     0.0000 </r>
        <r>    18.8625     0.0688     0.0955     0.0955     0.0955     0.0000     0.0000     0.0000     0.0000     0.0000 </r>
        <r>    18.9627     0.0392     0.0628     0.0628     0.0628     0.0000     0.0000     0.0000     0.0000     0.0000 </r>
        <r>    19.0629     0.0098     0.0184     0.0184     0.0184     0.0000     0.0000     0.0000     0.0000     0.0000 </r>
        <r>    19.1631     0.0080     0.0248     0.0248     0.0248     0.0000     0.0000     0.0000     0.0000     0.0000 </r>
        <r>    19.2634     0.0068     0.0144     0.0144     0.0144     0.0000     0.0000     0.0000     0.0000     0.0000 </r>
        <r>    19.3636     0.0078     0.0194     0.0194     0.0194     0.0000     0.0000     0.0000     0.0000     0.0000 </r>
        <r>    19.4638     0.0086     0.0174     0.0174     0.0174     0.0000     0.0000     0.0000     0.0000     0.0000 </r>
        <r>    19.5640     0.0082     0.0117     0.0117     0.0117     0.0000     0.0000     0.0000     0.0000     0.0000 </r>
        <r>    19.6643     0.0068     0.0166     0.0166     0.0166     0.0000     0.0000     0.0000     0.0000     0.0000 </r>
        <r>    19.7645     0.0073     0.0143     0.0143     0.0143     0.0000     0.0000     0.0000     0.0000     0.0000 </r>
        <r>    19.8647     0.0060     0.0164     0.0164     0.0164     0.0000     0.0000     0.0000     0.0000     0.0000 </r>
        <r>    19.9649     0.0056     0.0116     0.0116     0.0116     0.0000     0.0000     0.0000     0.0000     0.0000 </r>
        <r>    20.0651     0.0045     0.0113     0.0113     0.0113     0.0000     0.0000     0.0000     0.0000     0.0000 </r>
        <r>    20.1654     0.0041     0.0112     0.0112     0.0112     0.0000     0.0000     0.0000     0.0000     0.0000 </r>
        <r>    20.2656     0.0038     0.0118     0.0118     0.0118     0.0000     0.0000     0.0000     0.0000     0.0000 </r>
        <r>    20.3658     0.0036     0.0120     0.0120     0.0120     0.0000     0.0000     0.0000     0.0000     0.0000 </r>
        <r>    20.4660     0.0029     0.0133     0.0133     0.0133     0.0000     0.0000     0.0000     0.0000     0.0000 </r>
        <r>    20.5662     0.0033     0.0152     0.0152     0.0152     0.0000     0.0000     0.0000     0.0000     0.0000 </r>
        <r>    20.6665     0.0021     0.0246     0.0246     0.0246     0.0000     0.0000     0.0000     0.0000     0.0000 </r>
        <r>    20.7667     0.0020     0.0135     0.0135     0.0135     0.0000     0.0000     0.0000     0.0000     0.0000 </r>
        <r>    20.8669     0.0012     0.0071     0.0071     0.0071     0.0000     0.0000     0.0000     0.0000     0.0000 </r>
        <r>    20.9671     0.0005     0.0061     0.0061     0.0061     0.0000     0.0000     0.0000     0.0000     0.0000 </r>
        <r>    21.0673     0.0016     0.0118     0.0118     0.0118     0.0000     0.0000     0.0000     0.0000     0.0000 </r>
        <r>    21.1676     0.0006     0.0062     0.0062     0.0062     0.0000     0.0000     0.0000     0.0000     0.0000 </r>
        <r>    21.2678     0.0004     0.0013     0.0013     0.0013     0.0000     0.0000     0.0000     0.0000     0.0000 </r>
        <r>    21.3680     0.0000     0.0000     0.0000     0.0000     0.0000     0.0000     0.0000     0.0000     0.0000 </r>
        <r>    21.4682     0.0000     0.0000     0.0000     0.0000     0.0000     0.0000     0.0000     0.0000     0.0000 </r>
        <r>    21.5684     0.0000     0.0000     0.0000     0.0000     0.0000     0.0000     0.0000     0.0000     0.0000 </r>
        <r>    21.6687     0.0000     0.0000     0.0000     0.0000     0.0000     0.0000     0.0000     0.0000     0.0000 </r>
        <r>    21.7689     0.0000     0.0000     0.0000     0.0000     0.0000     0.0000     0.0000     0.0000     0.0000 </r>
        <r>    21.8691     0.0000     0.0000     0.0000     0.0000     0.0000     0.0000     0.0000     0.0000     0.0000 </r>
        <r>    21.9693     0.0000     0.0000     0.0000     0.0000     0.0000     0.0000     0.0000     0.0000     0.0000 </r>
        <r>    22.0695     0.0000     0.0000     0.0000     0.0000     0.0000     0.0000     0.0000     0.0000     0.0000 </r>
        <r>    22.1698     0.0000     0.0000     0.0000     0.0000     0.0000     0.0000     0.0000     0.0000     0.0000 </r>
        <r>    22.2700     0.0000     0.0000     0.0000     0.0000     0.0000     0.0000     0.0000     0.0000     0.0000 </r>
        <r>    22.3702     0.0000     0.0000     0.0000     0.0000     0.0000     0.0000     0.0000     0.0000     0.0000 </r>
        <r>    22.4704     0.0000     0.0000     0.0000     0.0000     0.0000     0.0000     0.0000     0.0000     0.0000 </r>
        <r>    22.5707     0.0000     0.0000     0.0000     0.0000     0.0000     0.0000     0.0000     0.0000     0.0000 </r>
       </set>
      </set>
      <set comment="ion 2">
       <set comment="spin 1">
        <r>    -7.4956     0.0000     0.0000     0.0000     0.0000     0.0000     0.0000     0.0000     0.0000     0.0000 </r>
        <r>    -7.3953     0.0000     0.0000     0.0000     0.0000     0.0000     0.0000     0.0000     0.0000     0.0000 </r>
        <r>    -7.2951     0.0000     0.0000     0.0000     0.0000     0.0000     0.0000     0.0000     0.0000     0.0000 </r>
        <r>    -7.1949     0.0000     0.0000     0.0000     0.0000     0.0000     0.0000     0.0000     0.0000     0.0000 </r>
        <r>    -7.0947     0.0000     0.0000     0.0000     0.0000     0.0000     0.0000     0.0000     0.0000     0.0000 </r>
        <r>    -6.9945     0.0000     0.0000     0.0000     0.0000     0.0000     0.0000     0.0000     0.0000     0.0000 </r>
        <r>    -6.8942     0.0000     0.0000     0.0000     0.0000     0.0000     0.0000     0.0000     0.0000     0.0000 </r>
        <r>    -6.7940     0.0000     0.0000     0.0000     0.0000     0.0000     0.0000     0.0000     0.0000     0.0000 </r>
        <r>    -6.6938     0.0000     0.0000     0.0000     0.0000     0.0000     0.0000     0.0000     0.0000     0.0000 </r>
        <r>    -6.5936     0.0000     0.0000     0.0000     0.0000     0.0000     0.0000     0.0000     0.0000     0.0000 </r>
        <r>    -6.4934     0.0000     0.0000     0.0000     0.0000     0.0000     0.0000     0.0000     0.0000     0.0000 </r>
        <r>    -6.3931     0.0000     0.0000     0.0000     0.0000     0.0000     0.0000     0.0000     0.0000     0.0000 </r>
        <r>    -6.2929     0.0000     0.0000     0.0000     0.0000     0.0000     0.0000     0.0000     0.0000     0.0000 </r>
        <r>    -6.1927     0.0059     0.0000     0.0000     0.0000     0.0000     0.0000     0.0000     0.0000     0.0000 </r>
        <r>    -6.0925     0.2354     0.0001     0.0001     0.0001     0.0000     0.0000     0.0000     0.0000     0.0000 </r>
        <r>    -5.9923     0.2433     0.0003     0.0003     0.0003     0.0000     0.0000     0.0000     0.0000     0.0000 </r>
        <r>    -5.8920     0.1460     0.0005     0.0005     0.0005     0.0000     0.0000     0.0000     0.0000     0.0000 </r>
        <r>    -5.7918     0.1161     0.0006     0.0006     0.0006     0.0000     0.0000     0.0000     0.0000     0.0000 </r>
        <r>    -5.6916     0.0997     0.0007     0.0007     0.0007     0.0000     0.0000     0.0000     0.0000     0.0000 </r>
        <r>    -5.5914     0.0887     0.0007     0.0007     0.0007     0.0000     0.0000     0.0000     0.0000     0.0000 </r>
        <r>    -5.4912     0.0805     0.0008     0.0008     0.0008     0.0000     0.0000     0.0000     0.0000     0.0000 </r>
        <r>    -5.3909     0.0748     0.0009     0.0009     0.0009     0.0000     0.0000     0.0000     0.0000     0.0000 </r>
        <r>    -5.2907     0.0709     0.0009     0.0009     0.0009     0.0000     0.0000     0.0000     0.0000     0.0000 </r>
        <r>    -5.1905     0.0681     0.0010     0.0010     0.0010     0.0000     0.0000     0.0000     0.0000     0.0000 </r>
        <r>    -5.0903     0.0646     0.0011     0.0011     0.0011     0.0000     0.0000     0.0000     0.0000     0.0000 </r>
        <r>    -4.9900     0.0588     0.0011     0.0011     0.0011     0.0000     0.0000     0.0000     0.0000     0.0000 </r>
        <r>    -4.8898     0.0548     0.0010     0.0010     0.0010     0.0000     0.0000     0.0000     0.0000     0.0000 </r>
        <r>    -4.7896     0.0585     0.0012     0.0012     0.0012     0.0000     0.0000     0.0000     0.0000     0.0000 </r>
        <r>    -4.6894     0.0599     0.0013     0.0013     0.0013     0.0000     0.0000     0.0000     0.0000     0.0000 </r>
        <r>    -4.5892     0.0489     0.0011     0.0011     0.0011     0.0000     0.0000     0.0000     0.0000     0.0000 </r>
        <r>    -4.4889     0.0499     0.0012     0.0012     0.0012     0.0000     0.0000     0.0000     0.0000     0.0000 </r>
        <r>    -4.3887     0.0606     0.0016     0.0016     0.0016     0.0000     0.0000     0.0000     0.0000     0.0000 </r>
        <r>    -4.2885     0.0474     0.0013     0.0013     0.0013     0.0000     0.0000     0.0000     0.0000     0.0000 </r>
        <r>    -4.1883     0.0503     0.0014     0.0014     0.0014     0.0000     0.0000     0.0000     0.0000     0.0000 </r>
        <r>    -4.0881     0.0619     0.0018     0.0018     0.0018     0.0000     0.0000     0.0000     0.0000     0.0000 </r>
        <r>    -3.9878     0.0469     0.0013     0.0013     0.0013     0.0000     0.0000     0.0000     0.0000     0.0000 </r>
        <r>    -3.8876     0.0685     0.0020     0.0020     0.0020     0.0000     0.0000     0.0000     0.0000     0.0000 </r>
        <r>    -3.7874     0.0913     0.0023     0.0023     0.0023     0.0000     0.0000     0.0000     0.0000     0.0000 </r>
        <r>    -3.6872     0.0409     0.0013     0.0013     0.0013     0.0000     0.0000     0.0000     0.0000     0.0000 </r>
        <r>    -3.5870     0.0326     0.0013     0.0013     0.0013     0.0000     0.0000     0.0000     0.0000     0.0000 </r>
        <r>    -3.4867     0.0228     0.0009     0.0009     0.0009     0.0000     0.0000     0.0000     0.0000     0.0000 </r>
        <r>    -3.3865     0.0284     0.0013     0.0013     0.0013     0.0000     0.0000     0.0000     0.0000     0.0000 </r>
        <r>    -3.2863     0.0254     0.0010     0.0010     0.0010     0.0000     0.0000     0.0000     0.0000     0.0000 </r>
        <r>    -3.1861     0.0298     0.0014     0.0014     0.0014     0.0000     0.0000     0.0000     0.0000     0.0000 </r>
        <r>    -3.0859     0.0192     0.0008     0.0008     0.0008     0.0000     0.0000     0.0000     0.0000     0.0000 </r>
        <r>    -2.9856     0.0382     0.0019     0.0019     0.0019     0.0000     0.0000     0.0000     0.0000     0.0000 </r>
        <r>    -2.8854     0.0169     0.0008     0.0008     0.0008     0.0000     0.0000     0.0000     0.0000     0.0000 </r>
        <r>    -2.7852     0.0345     0.0018     0.0018     0.0018     0.0000     0.0000     0.0000     0.0000     0.0000 </r>
        <r>    -2.6850     0.0237     0.0011     0.0011     0.0011     0.0000     0.0000     0.0000     0.0000     0.0000 </r>
        <r>    -2.5848     0.0381     0.0021     0.0021     0.0021     0.0000     0.0000     0.0000     0.0000     0.0000 </r>
        <r>    -2.4845     0.0244     0.0012     0.0012     0.0012     0.0000     0.0000     0.0000     0.0000     0.0000 </r>
        <r>    -2.3843     0.1641     0.0088     0.0088     0.0088     0.0000     0.0000     0.0000     0.0000     0.0000 </r>
        <r>    -2.2841     0.2586     0.0137     0.0137     0.0137     0.0000     0.0000     0.0000     0.0000     0.0000 </r>
        <r>    -2.1839     0.1535     0.0088     0.0088     0.0088     0.0000     0.0000     0.0000     0.0000     0.0000 </r>
        <r>    -2.0836     0.1130     0.0068     0.0068     0.0068     0.0000     0.0000     0.0000     0.0000     0.0000 </r>
        <r>    -1.9834     0.3169     0.0233     0.0233     0.0233     0.0000     0.0000     0.0000     0.0000     0.0000 </r>
        <r>    -1.8832     0.8171     0.0610     0.0610     0.0610     0.0000     0.0000     0.0000     0.0000     0.0000 </r>
        <r>    -1.7830     0.7088     0.0499     0.0499     0.0499     0.0000     0.0000     0.0000     0.0000     0.0000 </r>
        <r>    -1.6828     0.1492     0.0108     0.0108     0.0108     0.0000     0.0000     0.0000     0.0000     0.0000 </r>
        <r>    -1.5825     0.1028     0.0079     0.0079     0.0079     0.0000     0.0000     0.0000     0.0000     0.0000 </r>
        <r>    -1.4823     0.1704     0.0145     0.0145     0.0145     0.0000     0.0000     0.0000     0.0000     0.0000 </r>
        <r>    -1.3821     0.3303     0.0315     0.0315     0.0315     0.0000     0.0000     0.0000     0.0000     0.0000 </r>
        <r>    -1.2819     0.1147     0.0113     0.0113     0.0113     0.0000     0.0000     0.0000     0.0000     0.0000 </r>
        <r>    -1.1817     0.0248     0.0029     0.0029     0.0029     0.0000     0.0000     0.0000     0.0000     0.0000 </r>
        <r>    -1.0814     0.0448     0.0095     0.0095     0.0095     0.0000     0.0000     0.0000     0.0000     0.0000 </r>
        <r>    -0.9812     0.0456     0.0082     0.0082     0.0082     0.0000     0.0000     0.0000     0.0000     0.0000 </r>
        <r>    -0.8810     0.0287     0.0054     0.0054     0.0054     0.0000     0.0000     0.0000     0.0000     0.0000 </r>
        <r>    -0.7808     0.0377     0.0058     0.0058     0.0058     0.0000     0.0000     0.0000     0.0000     0.0000 </r>
        <r>    -0.6806     0.0219     0.0043     0.0043     0.0043     0.0000     0.0000     0.0000     0.0000     0.0000 </r>
        <r>    -0.5803     0.0366     0.0061     0.0061     0.0061     0.0000     0.0000     0.0000     0.0000     0.0000 </r>
        <r>    -0.4801     0.0232     0.0037     0.0037     0.0037     0.0000     0.0000     0.0000     0.0000     0.0000 </r>
        <r>    -0.3799     0.0229     0.0047     0.0047     0.0047     0.0000     0.0000     0.0000     0.0000     0.0000 </r>
        <r>    -0.2797     0.0352     0.0053     0.0053     0.0053     0.0000     0.0000     0.0000     0.0000     0.0000 </r>
        <r>    -0.1795     0.0150     0.0036     0.0036     0.0036     0.0000     0.0000     0.0000     0.0000     0.0000 </r>
        <r>    -0.0792     0.0325     0.0052     0.0052     0.0052     0.0000     0.0000     0.0000     0.0000     0.0000 </r>
        <r>     0.0210     0.0204     0.0042     0.0042     0.0042     0.0000     0.0000     0.0000     0.0000     0.0000 </r>
        <r>     0.1212     0.0192     0.0036     0.0036     0.0036     0.0000     0.0000     0.0000     0.0000     0.0000 </r>
        <r>     0.2214     0.0319     0.0060     0.0060     0.0060     0.0000     0.0000     0.0000     0.0000     0.0000 </r>
        <r>     0.3216     0.0122     0.0025     0.0025     0.0025     0.0000     0.0000     0.0000     0.0000     0.0000 </r>
        <r>     0.4219     0.0318     0.0065     0.0065     0.0065     0.0000     0.0000     0.0000     0.0000     0.0000 </r>
        <r>     0.5221     0.0149     0.0027     0.0027     0.0027     0.0000     0.0000     0.0000     0.0000     0.0000 </r>
        <r>     0.6223     0.0213     0.0053     0.0053     0.0053     0.0000     0.0000     0.0000     0.0000     0.0000 </r>
        <r>     0.7225     0.0251     0.0043     0.0043     0.0043     0.0000     0.0000     0.0000     0.0000     0.0000 </r>
        <r>     0.8228     0.0145     0.0041     0.0041     0.0041     0.0000     0.0000     0.0000     0.0000     0.0000 </r>
        <r>     0.9230     0.0261     0.0052     0.0052     0.0052     0.0000     0.0000     0.0000     0.0000     0.0000 </r>
        <r>     1.0232     0.0133     0.0030     0.0030     0.0030     0.0000     0.0000     0.0000     0.0000     0.0000 </r>
        <r>     1.1234     0.0223     0.0058     0.0058     0.0058     0.0000     0.0000     0.0000     0.0000     0.0000 </r>
        <r>     1.2236     0.0175     0.0031     0.0031     0.0031     0.0000     0.0000     0.0000     0.0000     0.0000 </r>
        <r>     1.3239     0.0229     0.0067     0.0067     0.0067     0.0000     0.0000     0.0000     0.0000     0.0000 </r>
        <r>     1.4241     0.0139     0.0135     0.0135     0.0135     0.0000     0.0000     0.0000     0.0000     0.0000 </r>
        <r>     1.5243     0.0237     0.0496     0.0496     0.0496     0.0000     0.0000     0.0000     0.0000     0.0000 </r>
        <r>     1.6245     0.0144     0.0871     0.0871     0.0871     0.0000     0.0000     0.0000     0.0000     0.0000 </r>
        <r>     1.7247     0.0199     0.0518     0.0518     0.0518     0.0000     0.0000     0.0000     0.0000     0.0000 </r>
        <r>     1.8250     0.0229     0.0440     0.0440     0.0440     0.0000     0.0000     0.0000     0.0000     0.0000 </r>
        <r>     1.9252     0.0102     0.0368     0.0368     0.0368     0.0000     0.0000     0.0000     0.0000     0.0000 </r>
        <r>     2.0254     0.0256     0.1015     0.1015     0.1015     0.0000     0.0000     0.0000     0.0000     0.0000 </r>
        <r>     2.1256     0.0127     0.0840     0.0840     0.0840     0.0000     0.0000     0.0000     0.0000     0.0000 </r>
        <r>     2.2258     0.0190     0.0608     0.0608     0.0608     0.0000     0.0000     0.0000     0.0000     0.0000 </r>
        <r>     2.3261     0.0240     0.0588     0.0588     0.0588     0.0000     0.0000     0.0000     0.0000     0.0000 </r>
        <r>     2.4263     0.0098     0.0479     0.0479     0.0479     0.0000     0.0000     0.0000     0.0000     0.0000 </r>
        <r>     2.5265     0.0236     0.0508     0.0508     0.0508     0.0000     0.0000     0.0000     0.0000     0.0000 </r>
        <r>     2.6267     0.0166     0.0517     0.0517     0.0517     0.0000     0.0000     0.0000     0.0000     0.0000 </r>
        <r>     2.7269     0.0153     0.0483     0.0483     0.0483     0.0000     0.0000     0.0000     0.0000     0.0000 </r>
        <r>     2.8272     0.0217     0.0601     0.0601     0.0601     0.0000     0.0000     0.0000     0.0000     0.0000 </r>
        <r>     2.9274     0.0109     0.0714     0.0714     0.0714     0.0000     0.0000     0.0000     0.0000     0.0000 </r>
        <r>     3.0276     0.0168     0.1411     0.1411     0.1411     0.0000     0.0000     0.0000     0.0000     0.0000 </r>
        <r>     3.1278     0.0178     0.0753     0.0753     0.0753     0.0000     0.0000     0.0000     0.0000     0.0000 </r>
        <r>     3.2281     0.0134     0.0535     0.0535     0.0535     0.0000     0.0000     0.0000     0.0000     0.0000 </r>
        <r>     3.3283     0.0118     0.0525     0.0525     0.0525     0.0000     0.0000     0.0000     0.0000     0.0000 </r>
        <r>     3.4285     0.0162     0.0726     0.0726     0.0726     0.0000     0.0000     0.0000     0.0000     0.0000 </r>
        <r>     3.5287     0.0127     0.0417     0.0417     0.0417     0.0000     0.0000     0.0000     0.0000     0.0000 </r>
        <r>     3.6289     0.0114     0.0357     0.0357     0.0357     0.0000     0.0000     0.0000     0.0000     0.0000 </r>
        <r>     3.7292     0.0174     0.0356     0.0356     0.0356     0.0000     0.0000     0.0000     0.0000     0.0000 </r>
        <r>     3.8294     0.0055     0.0285     0.0285     0.0285     0.0000     0.0000     0.0000     0.0000     0.0000 </r>
        <r>     3.9296     0.0160     0.0350     0.0350     0.0350     0.0000     0.0000     0.0000     0.0000     0.0000 </r>
        <r>     4.0298     0.0140     0.0311     0.0311     0.0311     0.0000     0.0000     0.0000     0.0000     0.0000 </r>
        <r>     4.1300     0.0025     0.0251     0.0251     0.0251     0.0000     0.0000     0.0000     0.0000     0.0000 </r>
        <r>     4.2303     0.0223     0.0369     0.0369     0.0369     0.0000     0.0000     0.0000     0.0000     0.0000 </r>
        <r>     4.3305     0.0040     0.0234     0.0234     0.0234     0.0000     0.0000     0.0000     0.0000     0.0000 </r>
        <r>     4.4307     0.0090     0.0290     0.0290     0.0290     0.0000     0.0000     0.0000     0.0000     0.0000 </r>
        <r>     4.5309     0.0160     0.0339     0.0339     0.0339     0.0000     0.0000     0.0000     0.0000     0.0000 </r>
        <r>     4.6311     0.0021     0.0587     0.0587     0.0587     0.0000     0.0000     0.0000     0.0000     0.0000 </r>
        <r>     4.7314     0.0155     0.1370     0.1370     0.1370     0.0000     0.0000     0.0000     0.0000     0.0000 </r>
        <r>     4.8316     0.0054     0.0843     0.0843     0.0843     0.0000     0.0000     0.0000     0.0000     0.0000 </r>
        <r>     4.9318     0.0095     0.0754     0.0754     0.0754     0.0000     0.0000     0.0000     0.0000     0.0000 </r>
        <r>     5.0320     0.0078     0.0703     0.0703     0.0703     0.0000     0.0000     0.0000     0.0000     0.0000 </r>
        <r>     5.1322     0.0075     0.0652     0.0652     0.0652     0.0000     0.0000     0.0000     0.0000     0.0000 </r>
        <r>     5.2325     0.0057     0.0611     0.0611     0.0611     0.0000     0.0000     0.0000     0.0000     0.0000 </r>
        <r>     5.3327     0.0080     0.0692     0.0692     0.0692     0.0000     0.0000     0.0000     0.0000     0.0000 </r>
        <r>     5.4329     0.0042     0.0661     0.0661     0.0661     0.0000     0.0000     0.0000     0.0000     0.0000 </r>
        <r>     5.5331     0.0062     0.0746     0.0746     0.0746     0.0000     0.0000     0.0000     0.0000     0.0000 </r>
        <r>     5.6333     0.0037     0.0814     0.0814     0.0814     0.0000     0.0000     0.0000     0.0000     0.0000 </r>
        <r>     5.7336     0.0034     0.1064     0.1064     0.1064     0.0000     0.0000     0.0000     0.0000     0.0000 </r>
        <r>     5.8338     0.0017     0.1946     0.1946     0.1946     0.0000     0.0000     0.0000     0.0000     0.0000 </r>
        <r>     5.9340     0.0002     0.0707     0.0707     0.0707     0.0000     0.0000     0.0000     0.0000     0.0000 </r>
        <r>     6.0342     0.0000     0.0002     0.0002     0.0002     0.0000     0.0000     0.0000     0.0000     0.0000 </r>
        <r>     6.1345     0.0000     0.0000     0.0000     0.0000     0.0000     0.0000     0.0000     0.0000     0.0000 </r>
        <r>     6.2347     0.0000     0.0000     0.0000     0.0000     0.0000     0.0000     0.0000     0.0000     0.0000 </r>
        <r>     6.3349     0.0005     0.0001     0.0001     0.0001     0.0000     0.0000     0.0000     0.0000     0.0000 </r>
        <r>     6.4351     0.0282     0.0077     0.0077     0.0077     0.0000     0.0000     0.0000     0.0000     0.0000 </r>
        <r>     6.5353     0.0507     0.0135     0.0135     0.0135     0.0000     0.0000     0.0000     0.0000     0.0000 </r>
        <r>     6.6356     0.0655     0.0169     0.0169     0.0169     0.0000     0.0000     0.0000     0.0000     0.0000 </r>
        <r>     6.7358     0.0386     0.0113     0.0113     0.0113     0.0000     0.0000     0.0000     0.0000     0.0000 </r>
        <r>     6.8360     0.0302     0.0098     0.0098     0.0098     0.0000     0.0000     0.0000     0.0000     0.0000 </r>
        <r>     6.9362     0.0259     0.0091     0.0091     0.0091     0.0000     0.0000     0.0000     0.0000     0.0000 </r>
        <r>     7.0364     0.0339     0.0116     0.0116     0.0116     0.0000     0.0000     0.0000     0.0000     0.0000 </r>
        <r>     7.1367     0.0486     0.0160     0.0160     0.0160     0.0000     0.0000     0.0000     0.0000     0.0000 </r>
        <r>     7.2369     0.0365     0.0135     0.0135     0.0135     0.0000     0.0000     0.0000     0.0000     0.0000 </r>
        <r>     7.3371     0.0434     0.0134     0.0134     0.0134     0.0000     0.0000     0.0000     0.0000     0.0000 </r>
        <r>     7.4373     0.1489     0.0172     0.0172     0.0172     0.0000     0.0000     0.0000     0.0000     0.0000 </r>
        <r>     7.5375     0.1068     0.0161     0.0161     0.0161     0.0000     0.0000     0.0000     0.0000     0.0000 </r>
        <r>     7.6378     0.0786     0.0157     0.0157     0.0157     0.0000     0.0000     0.0000     0.0000     0.0000 </r>
        <r>     7.7380     0.0666     0.0156     0.0156     0.0156     0.0000     0.0000     0.0000     0.0000     0.0000 </r>
        <r>     7.8382     0.0573     0.0154     0.0154     0.0154     0.0000     0.0000     0.0000     0.0000     0.0000 </r>
        <r>     7.9384     0.0555     0.0170     0.0170     0.0170     0.0000     0.0000     0.0000     0.0000     0.0000 </r>
        <r>     8.0386     0.0501     0.0177     0.0177     0.0177     0.0000     0.0000     0.0000     0.0000     0.0000 </r>
        <r>     8.1389     0.0483     0.0190     0.0190     0.0190     0.0000     0.0000     0.0000     0.0000     0.0000 </r>
        <r>     8.2391     0.0438     0.0200     0.0200     0.0200     0.0000     0.0000     0.0000     0.0000     0.0000 </r>
        <r>     8.3393     0.0441     0.0296     0.0296     0.0296     0.0000     0.0000     0.0000     0.0000     0.0000 </r>
        <r>     8.4395     0.0466     0.1420     0.1420     0.1420     0.0000     0.0000     0.0000     0.0000     0.0000 </r>
        <r>     8.5397     0.0339     0.1085     0.1085     0.1085     0.0000     0.0000     0.0000     0.0000     0.0000 </r>
        <r>     8.6400     0.0272     0.0646     0.0646     0.0646     0.0000     0.0000     0.0000     0.0000     0.0000 </r>
        <r>     8.7402     0.0432     0.0628     0.0628     0.0628     0.0000     0.0000     0.0000     0.0000     0.0000 </r>
        <r>     8.8404     0.0641     0.0612     0.0612     0.0612     0.0000     0.0000     0.0000     0.0000     0.0000 </r>
        <r>     8.9406     0.0773     0.0601     0.0601     0.0601     0.0000     0.0000     0.0000     0.0000     0.0000 </r>
        <r>     9.0409     0.0152     0.0439     0.0439     0.0439     0.0000     0.0000     0.0000     0.0000     0.0000 </r>
        <r>     9.1411     0.0177     0.0423     0.0423     0.0423     0.0000     0.0000     0.0000     0.0000     0.0000 </r>
        <r>     9.2413     0.1775     0.0896     0.0896     0.0896     0.0000     0.0000     0.0000     0.0000     0.0000 </r>
        <r>     9.3415     0.1797     0.0959     0.0959     0.0959     0.0000     0.0000     0.0000     0.0000     0.0000 </r>
        <r>     9.4417     0.0960     0.0735     0.0735     0.0735     0.0000     0.0000     0.0000     0.0000     0.0000 </r>
        <r>     9.5420     0.0850     0.0190     0.0190     0.0190     0.0000     0.0000     0.0000     0.0000     0.0000 </r>
        <r>     9.6422     0.0517     0.0276     0.0276     0.0276     0.0000     0.0000     0.0000     0.0000     0.0000 </r>
        <r>     9.7424     0.0890     0.0212     0.0212     0.0212     0.0000     0.0000     0.0000     0.0000     0.0000 </r>
        <r>     9.8426     0.0259     0.0239     0.0239     0.0239     0.0000     0.0000     0.0000     0.0000     0.0000 </r>
        <r>     9.9428     0.0911     0.0339     0.0339     0.0339     0.0000     0.0000     0.0000     0.0000     0.0000 </r>
        <r>    10.0431     0.0728     0.0755     0.0755     0.0755     0.0000     0.0000     0.0000     0.0000     0.0000 </r>
        <r>    10.1433     0.0715     0.0734     0.0734     0.0734     0.0000     0.0000     0.0000     0.0000     0.0000 </r>
        <r>    10.2435     0.0819     0.0403     0.0403     0.0403     0.0000     0.0000     0.0000     0.0000     0.0000 </r>
        <r>    10.3437     0.0412     0.0166     0.0166     0.0166     0.0000     0.0000     0.0000     0.0000     0.0000 </r>
        <r>    10.4439     0.0311     0.0152     0.0152     0.0152     0.0000     0.0000     0.0000     0.0000     0.0000 </r>
        <r>    10.5442     0.0169     0.0173     0.0173     0.0173     0.0000     0.0000     0.0000     0.0000     0.0000 </r>
        <r>    10.6444     0.0195     0.0092     0.0092     0.0092     0.0000     0.0000     0.0000     0.0000     0.0000 </r>
        <r>    10.7446     0.0212     0.0174     0.0174     0.0174     0.0000     0.0000     0.0000     0.0000     0.0000 </r>
        <r>    10.8448     0.0396     0.0273     0.0273     0.0273     0.0000     0.0000     0.0000     0.0000     0.0000 </r>
        <r>    10.9450     0.0727     0.0430     0.0430     0.0430     0.0000     0.0000     0.0000     0.0000     0.0000 </r>
        <r>    11.0453     0.0430     0.0352     0.0352     0.0352     0.0000     0.0000     0.0000     0.0000     0.0000 </r>
        <r>    11.1455     0.0454     0.0275     0.0275     0.0275     0.0000     0.0000     0.0000     0.0000     0.0000 </r>
        <r>    11.2457     0.0356     0.0326     0.0326     0.0326     0.0000     0.0000     0.0000     0.0000     0.0000 </r>
        <r>    11.3459     0.0355     0.0284     0.0284     0.0284     0.0000     0.0000     0.0000     0.0000     0.0000 </r>
        <r>    11.4462     0.0495     0.0330     0.0330     0.0330     0.0000     0.0000     0.0000     0.0000     0.0000 </r>
        <r>    11.5464     0.0553     0.0412     0.0412     0.0412     0.0000     0.0000     0.0000     0.0000     0.0000 </r>
        <r>    11.6466     0.0459     0.0329     0.0329     0.0329     0.0000     0.0000     0.0000     0.0000     0.0000 </r>
        <r>    11.7468     0.0321     0.0338     0.0338     0.0338     0.0000     0.0000     0.0000     0.0000     0.0000 </r>
        <r>    11.8470     0.0245     0.0266     0.0266     0.0266     0.0000     0.0000     0.0000     0.0000     0.0000 </r>
        <r>    11.9473     0.0354     0.0287     0.0287     0.0287     0.0000     0.0000     0.0000     0.0000     0.0000 </r>
        <r>    12.0475     0.0188     0.0318     0.0318     0.0318     0.0000     0.0000     0.0000     0.0000     0.0000 </r>
        <r>    12.1477     0.0276     0.0252     0.0252     0.0252     0.0000     0.0000     0.0000     0.0000     0.0000 </r>
        <r>    12.2479     0.0239     0.0272     0.0272     0.0272     0.0000     0.0000     0.0000     0.0000     0.0000 </r>
        <r>    12.3481     0.0327     0.0280     0.0280     0.0280     0.0000     0.0000     0.0000     0.0000     0.0000 </r>
        <r>    12.4484     0.0385     0.0219     0.0219     0.0219     0.0000     0.0000     0.0000     0.0000     0.0000 </r>
        <r>    12.5486     0.0313     0.0351     0.0351     0.0351     0.0000     0.0000     0.0000     0.0000     0.0000 </r>
        <r>    12.6488     0.0227     0.0204     0.0204     0.0204     0.0000     0.0000     0.0000     0.0000     0.0000 </r>
        <r>    12.7490     0.0349     0.0301     0.0301     0.0301     0.0000     0.0000     0.0000     0.0000     0.0000 </r>
        <r>    12.8492     0.0203     0.0330     0.0330     0.0330     0.0000     0.0000     0.0000     0.0000     0.0000 </r>
        <r>    12.9495     0.0389     0.0324     0.0324     0.0324     0.0000     0.0000     0.0000     0.0000     0.0000 </r>
        <r>    13.0497     0.0228     0.0408     0.0408     0.0408     0.0000     0.0000     0.0000     0.0000     0.0000 </r>
        <r>    13.1499     0.0258     0.0329     0.0329     0.0329     0.0000     0.0000     0.0000     0.0000     0.0000 </r>
        <r>    13.2501     0.0278     0.0316     0.0316     0.0316     0.0000     0.0000     0.0000     0.0000     0.0000 </r>
        <r>    13.3503     0.0197     0.0462     0.0462     0.0462     0.0000     0.0000     0.0000     0.0000     0.0000 </r>
        <r>    13.4506     0.0244     0.0265     0.0265     0.0265     0.0000     0.0000     0.0000     0.0000     0.0000 </r>
        <r>    13.5508     0.0289     0.0286     0.0286     0.0286     0.0000     0.0000     0.0000     0.0000     0.0000 </r>
        <r>    13.6510     0.0216     0.0408     0.0408     0.0408     0.0000     0.0000     0.0000     0.0000     0.0000 </r>
        <r>    13.7512     0.0298     0.0331     0.0331     0.0331     0.0000     0.0000     0.0000     0.0000     0.0000 </r>
        <r>    13.8514     0.0998     0.0394     0.0394     0.0394     0.0000     0.0000     0.0000     0.0000     0.0000 </r>
        <r>    13.9517     0.0693     0.0306     0.0306     0.0306     0.0000     0.0000     0.0000     0.0000     0.0000 </r>
        <r>    14.0519     0.0550     0.0291     0.0291     0.0291     0.0000     0.0000     0.0000     0.0000     0.0000 </r>
        <r>    14.1521     0.0472     0.0368     0.0368     0.0368     0.0000     0.0000     0.0000     0.0000     0.0000 </r>
        <r>    14.2523     0.0320     0.0146     0.0146     0.0146     0.0000     0.0000     0.0000     0.0000     0.0000 </r>
        <r>    14.3526     0.0347     0.0305     0.0305     0.0305     0.0000     0.0000     0.0000     0.0000     0.0000 </r>
        <r>    14.4528     0.0295     0.0219     0.0219     0.0219     0.0000     0.0000     0.0000     0.0000     0.0000 </r>
        <r>    14.5530     0.0230     0.0193     0.0193     0.0193     0.0000     0.0000     0.0000     0.0000     0.0000 </r>
        <r>    14.6532     0.0320     0.0293     0.0293     0.0293     0.0000     0.0000     0.0000     0.0000     0.0000 </r>
        <r>    14.7534     0.0447     0.0277     0.0277     0.0277     0.0000     0.0000     0.0000     0.0000     0.0000 </r>
        <r>    14.8537     0.0483     0.0259     0.0259     0.0259     0.0000     0.0000     0.0000     0.0000     0.0000 </r>
        <r>    14.9539     0.0487     0.0355     0.0355     0.0355     0.0000     0.0000     0.0000     0.0000     0.0000 </r>
        <r>    15.0541     0.0504     0.0306     0.0306     0.0306     0.0000     0.0000     0.0000     0.0000     0.0000 </r>
        <r>    15.1543     0.0157     0.0252     0.0252     0.0252     0.0000     0.0000     0.0000     0.0000     0.0000 </r>
        <r>    15.2545     0.0256     0.0360     0.0360     0.0360     0.0000     0.0000     0.0000     0.0000     0.0000 </r>
        <r>    15.3548     0.0236     0.0259     0.0259     0.0259     0.0000     0.0000     0.0000     0.0000     0.0000 </r>
        <r>    15.4550     0.0222     0.0358     0.0358     0.0358     0.0000     0.0000     0.0000     0.0000     0.0000 </r>
        <r>    15.5552     0.0199     0.0303     0.0303     0.0303     0.0000     0.0000     0.0000     0.0000     0.0000 </r>
        <r>    15.6554     0.0199     0.0413     0.0413     0.0413     0.0000     0.0000     0.0000     0.0000     0.0000 </r>
        <r>    15.7556     0.0214     0.0413     0.0413     0.0413     0.0000     0.0000     0.0000     0.0000     0.0000 </r>
        <r>    15.8559     0.0108     0.0460     0.0460     0.0460     0.0000     0.0000     0.0000     0.0000     0.0000 </r>
        <r>    15.9561     0.0313     0.0941     0.0941     0.0941     0.0000     0.0000     0.0000     0.0000     0.0000 </r>
        <r>    16.0563     0.0103     0.0436     0.0436     0.0436     0.0000     0.0000     0.0000     0.0000     0.0000 </r>
        <r>    16.1565     0.0095     0.0171     0.0171     0.0171     0.0000     0.0000     0.0000     0.0000     0.0000 </r>
        <r>    16.2567     0.0262     0.0271     0.0271     0.0271     0.0000     0.0000     0.0000     0.0000     0.0000 </r>
        <r>    16.3570     0.0120     0.0349     0.0349     0.0349     0.0000     0.0000     0.0000     0.0000     0.0000 </r>
        <r>    16.4572     0.0181     0.2300     0.2300     0.2300     0.0000     0.0000     0.0000     0.0000     0.0000 </r>
        <r>    16.5574     0.0303     0.0854     0.0854     0.0854     0.0000     0.0000     0.0000     0.0000     0.0000 </r>
        <r>    16.6576     0.0166     0.0446     0.0446     0.0446     0.0000     0.0000     0.0000     0.0000     0.0000 </r>
        <r>    16.7578     0.0102     0.0214     0.0214     0.0214     0.0000     0.0000     0.0000     0.0000     0.0000 </r>
        <r>    16.8581     0.0278     0.0198     0.0198     0.0198     0.0000     0.0000     0.0000     0.0000     0.0000 </r>
        <r>    16.9583     0.0116     0.0099     0.0099     0.0099     0.0000     0.0000     0.0000     0.0000     0.0000 </r>
        <r>    17.0585     0.0184     0.0167     0.0167     0.0167     0.0000     0.0000     0.0000     0.0000     0.0000 </r>
        <r>    17.1587     0.0201     0.0289     0.0289     0.0289     0.0000     0.0000     0.0000     0.0000     0.0000 </r>
        <r>    17.2590     0.0136     0.0177     0.0177     0.0177     0.0000     0.0000     0.0000     0.0000     0.0000 </r>
        <r>    17.3592     0.0126     0.0140     0.0140     0.0140     0.0000     0.0000     0.0000     0.0000     0.0000 </r>
        <r>    17.4594     0.0116     0.0111     0.0111     0.0111     0.0000     0.0000     0.0000     0.0000     0.0000 </r>
        <r>    17.5596     0.0057     0.0071     0.0071     0.0071     0.0000     0.0000     0.0000     0.0000     0.0000 </r>
        <r>    17.6598     0.0093     0.0111     0.0111     0.0111     0.0000     0.0000     0.0000     0.0000     0.0000 </r>
        <r>    17.7601     0.0128     0.0116     0.0116     0.0116     0.0000     0.0000     0.0000     0.0000     0.0000 </r>
        <r>    17.8603     0.0069     0.0087     0.0087     0.0087     0.0000     0.0000     0.0000     0.0000     0.0000 </r>
        <r>    17.9605     0.0098     0.0119     0.0119     0.0119     0.0000     0.0000     0.0000     0.0000     0.0000 </r>
        <r>    18.0607     0.0040     0.0064     0.0064     0.0064     0.0000     0.0000     0.0000     0.0000     0.0000 </r>
        <r>    18.1609     0.0112     0.0133     0.0133     0.0133     0.0000     0.0000     0.0000     0.0000     0.0000 </r>
        <r>    18.2612     0.0088     0.0105     0.0105     0.0105     0.0000     0.0000     0.0000     0.0000     0.0000 </r>
        <r>    18.3614     0.0032     0.0063     0.0063     0.0063     0.0000     0.0000     0.0000     0.0000     0.0000 </r>
        <r>    18.4616     0.0133     0.0199     0.0199     0.0199     0.0000     0.0000     0.0000     0.0000     0.0000 </r>
        <r>    18.5618     0.0170     0.0241     0.0241     0.0241     0.0000     0.0000     0.0000     0.0000     0.0000 </r>
        <r>    18.6620     0.0484     0.0669     0.0669     0.0669     0.0000     0.0000     0.0000     0.0000     0.0000 </r>
        <r>    18.7623     0.0515     0.0757     0.0757     0.0757     0.0000     0.0000     0.0000     0.0000     0.0000 </r>
        <r>    18.8625     0.0688     0.0955     0.0955     0.0955     0.0000     0.0000     0.0000     0.0000     0.0000 </r>
        <r>    18.9627     0.0392     0.0628     0.0628     0.0628     0.0000     0.0000     0.0000     0.0000     0.0000 </r>
        <r>    19.0629     0.0098     0.0184     0.0184     0.0184     0.0000     0.0000     0.0000     0.0000     0.0000 </r>
        <r>    19.1631     0.0080     0.0248     0.0248     0.0248     0.0000     0.0000     0.0000     0.0000     0.0000 </r>
        <r>    19.2634     0.0068     0.0144     0.0144     0.0144     0.0000     0.0000     0.0000     0.0000     0.0000 </r>
        <r>    19.3636     0.0078     0.0194     0.0194     0.0194     0.0000     0.0000     0.0000     0.0000     0.0000 </r>
        <r>    19.4638     0.0086     0.0174     0.0174     0.0174     0.0000     0.0000     0.0000     0.0000     0.0000 </r>
        <r>    19.5640     0.0082     0.0117     0.0117     0.0117     0.0000     0.0000     0.0000     0.0000     0.0000 </r>
        <r>    19.6643     0.0068     0.0166     0.0166     0.0166     0.0000     0.0000     0.0000     0.0000     0.0000 </r>
        <r>    19.7645     0.0073     0.0143     0.0143     0.0143     0.0000     0.0000     0.0000     0.0000     0.0000 </r>
        <r>    19.8647     0.0060     0.0164     0.0164     0.0164     0.0000     0.0000     0.0000     0.0000     0.0000 </r>
        <r>    19.9649     0.0056     0.0116     0.0116     0.0116     0.0000     0.0000     0.0000     0.0000     0.0000 </r>
        <r>    20.0651     0.0045     0.0113     0.0113     0.0113     0.0000     0.0000     0.0000     0.0000     0.0000 </r>
        <r>    20.1654     0.0041     0.0112     0.0112     0.0112     0.0000     0.0000     0.0000     0.0000     0.0000 </r>
        <r>    20.2656     0.0038     0.0118     0.0118     0.0118     0.0000     0.0000     0.0000     0.0000     0.0000 </r>
        <r>    20.3658     0.0036     0.0120     0.0120     0.0120     0.0000     0.0000     0.0000     0.0000     0.0000 </r>
        <r>    20.4660     0.0029     0.0133     0.0133     0.0133     0.0000     0.0000     0.0000     0.0000     0.0000 </r>
        <r>    20.5662     0.0033     0.0152     0.0152     0.0152     0.0000     0.0000     0.0000     0.0000     0.0000 </r>
        <r>    20.6665     0.0021     0.0246     0.0246     0.0246     0.0000     0.0000     0.0000     0.0000     0.0000 </r>
        <r>    20.7667     0.0020     0.0135     0.0135     0.0135     0.0000     0.0000     0.0000     0.0000     0.0000 </r>
        <r>    20.8669     0.0012     0.0071     0.0071     0.0071     0.0000     0.0000     0.0000     0.0000     0.0000 </r>
        <r>    20.9671     0.0005     0.0061     0.0061     0.0061     0.0000     0.0000     0.0000     0.0000     0.0000 </r>
        <r>    21.0673     0.0016     0.0118     0.0118     0.0118     0.0000     0.0000     0.0000     0.0000     0.0000 </r>
        <r>    21.1676     0.0006     0.0062     0.0062     0.0062     0.0000     0.0000     0.0000     0.0000     0.0000 </r>
        <r>    21.2678     0.0004     0.0013     0.0013     0.0013     0.0000     0.0000     0.0000     0.0000     0.0000 </r>
        <r>    21.3680     0.0000     0.0000     0.0000     0.0000     0.0000     0.0000     0.0000     0.0000     0.0000 </r>
        <r>    21.4682     0.0000     0.0000     0.0000     0.0000     0.0000     0.0000     0.0000     0.0000     0.0000 </r>
        <r>    21.5684     0.0000     0.0000     0.0000     0.0000     0.0000     0.0000     0.0000     0.0000     0.0000 </r>
        <r>    21.6687     0.0000     0.0000     0.0000     0.0000     0.0000     0.0000     0.0000     0.0000     0.0000 </r>
        <r>    21.7689     0.0000     0.0000     0.0000     0.0000     0.0000     0.0000     0.0000     0.0000     0.0000 </r>
        <r>    21.8691     0.0000     0.0000     0.0000     0.0000     0.0000     0.0000     0.0000     0.0000     0.0000 </r>
        <r>    21.9693     0.0000     0.0000     0.0000     0.0000     0.0000     0.0000     0.0000     0.0000     0.0000 </r>
        <r>    22.0695     0.0000     0.0000     0.0000     0.0000     0.0000     0.0000     0.0000     0.0000     0.0000 </r>
        <r>    22.1698     0.0000     0.0000     0.0000     0.0000     0.0000     0.0000     0.0000     0.0000     0.0000 </r>
        <r>    22.2700     0.0000     0.0000     0.0000     0.0000     0.0000     0.0000     0.0000     0.0000     0.0000 </r>
        <r>    22.3702     0.0000     0.0000     0.0000     0.0000     0.0000     0.0000     0.0000     0.0000     0.0000 </r>
        <r>    22.4704     0.0000     0.0000     0.0000     0.0000     0.0000     0.0000     0.0000     0.0000     0.0000 </r>
        <r>    22.5707     0.0000     0.0000     0.0000     0.0000     0.0000     0.0000     0.0000     0.0000     0.0000 </r>
       </set>
      </set>
     </set>
    </array>
   </partial>
  </dos>
  <projected>
   <eigenvalues>
    <array>
     <dimension dim="1">band</dimension>
     <dimension dim="2">kpoint</dimension>
     <dimension dim="3">spin</dimension>
     <field>eigene</field>
     <field>occ</field>
     <set>
      <set comment="spin 1">
       <set comment="kpoint 1">
        <r>   -3.7966    1.0000 </r>
        <r>   -1.1364    1.0000 </r>
        <r>    4.6342    1.0000 </r>
        <r>    4.6342    1.0000 </r>
        <r>    7.3735    0.0000 </r>
        <r>    9.1720    0.0000 </r>
        <r>    9.1720    0.0000 </r>
        <r>   13.5616    0.0000 </r>
        <r>   16.3840    0.0000 </r>
        <r>   16.3843    0.0000 </r>
        <r>   17.1791    0.0000 </r>
        <r>   17.1918    0.0000 </r>
       </set>
       <set comment="kpoint 2">
        <r>   -3.8083    1.0000 </r>
        <r>   -1.1196    1.0000 </r>
        <r>    4.6357    1.0000 </r>
        <r>    4.6357    1.0000 </r>
        <r>    7.3752    0.0000 </r>
        <r>    9.1737    0.0000 </r>
        <r>    9.1737    0.0000 </r>
        <r>   13.5643    0.0000 </r>
        <r>   16.2864    0.0000 </r>
        <r>   16.2867    0.0000 </r>
        <r>   17.1496    0.0000 </r>
        <r>   17.2828    0.0000 </r>
       </set>
       <set comment="kpoint 3">
        <r>   -3.8426    1.0000 </r>
        <r>   -1.0702    1.0000 </r>
        <r>    4.6401    1.0000 </r>
        <r>    4.6401    1.0000 </r>
        <r>    7.3802    0.0000 </r>
        <r>    9.1788    0.0000 </r>
        <r>    9.1788    0.0000 </r>
        <r>   13.5721    0.0000 </r>
        <r>   16.0736    0.0000 </r>
        <r>   16.0737    0.0000 </r>
        <r>   17.0233    0.0000 </r>
        <r>   17.5135    0.0000 </r>
       </set>
       <set comment="kpoint 4">
        <r>   -3.8971    1.0000 </r>
        <r>   -0.9905    1.0000 </r>
        <r>    4.6474    1.0000 </r>
        <r>    4.6474    1.0000 </r>
        <r>    7.3886    0.0000 </r>
        <r>    9.1870    0.0000 </r>
        <r>    9.1870    0.0000 </r>
        <r>   13.5850    0.0000 </r>
        <r>   15.8259    0.0000 </r>
        <r>   15.8259    0.0000 </r>
        <r>   16.8461    0.0000 </r>
        <r>   17.7918    0.0000 </r>
       </set>
       <set comment="kpoint 5">
        <r>   -3.9684    1.0000 </r>
        <r>   -0.8840    1.0000 </r>
        <r>    4.6576    1.0000 </r>
        <r>    4.6576    1.0000 </r>
        <r>    7.4004    0.0000 </r>
        <r>    9.1984    0.0000 </r>
        <r>    9.1984    0.0000 </r>
        <r>   13.6024    0.0000 </r>
        <r>   15.5696    0.0000 </r>
        <r>   15.5696    0.0000 </r>
        <r>   16.6372    0.0000 </r>
        <r>   18.0906    0.0000 </r>
       </set>
       <set comment="kpoint 6">
        <r>   -4.0528    1.0000 </r>
        <r>   -0.7542    1.0000 </r>
        <r>    4.6708    1.0000 </r>
        <r>    4.6708    1.0000 </r>
        <r>    7.4155    0.0000 </r>
        <r>    9.2126    0.0000 </r>
        <r>    9.2126    0.0000 </r>
        <r>   13.6239    0.0000 </r>
        <r>   15.3142    0.0000 </r>
        <r>   15.3142    0.0000 </r>
        <r>   16.4105    0.0000 </r>
        <r>   18.4006    0.0000 </r>
       </set>
       <set comment="kpoint 7">
        <r>   -4.1471    1.0000 </r>
        <r>   -0.6046    1.0000 </r>
        <r>    4.6868    1.0000 </r>
        <r>    4.6868    1.0000 </r>
        <r>    7.4339    0.0000 </r>
        <r>    9.2293    0.0000 </r>
        <r>    9.2293    0.0000 </r>
        <r>   13.6485    0.0000 </r>
        <r>   15.0635    0.0000 </r>
        <r>   15.0635    0.0000 </r>
        <r>   16.1750    0.0000 </r>
        <r>   18.7167    0.0000 </r>
       </set>
       <set comment="kpoint 8">
        <r>   -4.2483    1.0000 </r>
        <r>   -0.4382    1.0000 </r>
        <r>    4.7058    1.0000 </r>
        <r>    4.7058    1.0000 </r>
        <r>    7.4556    0.0000 </r>
        <r>    9.2478    0.0000 </r>
        <r>    9.2478    0.0000 </r>
        <r>   13.6747    0.0000 </r>
        <r>   14.8200    0.0000 </r>
        <r>   14.8200    0.0000 </r>
        <r>   15.9367    0.0000 </r>
        <r>   19.0373    0.0000 </r>
       </set>
       <set comment="kpoint 9">
        <r>   -4.3539    1.0000 </r>
        <r>   -0.2574    1.0000 </r>
        <r>    4.7277    1.0000 </r>
        <r>    4.7277    1.0000 </r>
        <r>    7.4806    0.0000 </r>
        <r>    9.2678    0.0000 </r>
        <r>    9.2678    0.0000 </r>
        <r>   13.7003    0.0000 </r>
        <r>   14.5851    0.0000 </r>
        <r>   14.5851    0.0000 </r>
        <r>   15.7007    0.0000 </r>
        <r>   19.3570    0.0000 </r>
       </set>
       <set comment="kpoint 10">
        <r>   -4.4620    1.0000 </r>
        <r>   -0.0643    1.0000 </r>
        <r>    4.7524    1.0000 </r>
        <r>    4.7524    1.0000 </r>
        <r>    7.5087    0.0000 </r>
        <r>    9.2883    0.0000 </r>
        <r>    9.2883    0.0000 </r>
        <r>   13.7218    0.0000 </r>
        <r>   14.3600    0.0000 </r>
        <r>   14.3600    0.0000 </r>
        <r>   15.4720    0.0000 </r>
        <r>   19.6815    0.0000 </r>
       </set>
       <set comment="kpoint 11">
        <r>   -4.5710    1.0000 </r>
        <r>    0.1394    1.0000 </r>
        <r>    4.7800    1.0000 </r>
        <r>    4.7800    1.0000 </r>
        <r>    7.5399    0.0000 </r>
        <r>    9.3086    0.0000 </r>
        <r>    9.3086    0.0000 </r>
        <r>   13.7332    0.0000 </r>
        <r>   14.1462    0.0000 </r>
        <r>   14.1462    0.0000 </r>
        <r>   15.2574    0.0000 </r>
        <r>   19.8237    0.0000 </r>
       </set>
       <set comment="kpoint 12">
        <r>   -4.6797    1.0000 </r>
        <r>    0.3525    1.0000 </r>
        <r>    4.8104    1.0000 </r>
        <r>    4.8104    1.0000 </r>
        <r>    7.5743    0.0000 </r>
        <r>    9.3278    0.0000 </r>
        <r>    9.3278    0.0000 </r>
        <r>   13.7258    0.0000 </r>
        <r>   13.9448    0.0000 </r>
        <r>   13.9448    0.0000 </r>
        <r>   15.0664    0.0000 </r>
        <r>   19.6275    0.0000 </r>
       </set>
       <set comment="kpoint 13">
        <r>   -4.7872    1.0000 </r>
        <r>    0.5740    1.0000 </r>
        <r>    4.8436    1.0000 </r>
        <r>    4.8436    1.0000 </r>
        <r>    7.6117    0.0000 </r>
        <r>    9.3446    0.0000 </r>
        <r>    9.3446    0.0000 </r>
        <r>   13.6870    0.0000 </r>
        <r>   13.7570    0.0000 </r>
        <r>   13.7570    0.0000 </r>
        <r>   14.9113    0.0000 </r>
        <r>   19.3690    0.0000 </r>
       </set>
       <set comment="kpoint 14">
        <r>   -4.8927    1.0000 </r>
        <r>    0.8029    1.0000 </r>
        <r>    4.8795    1.0000 </r>
        <r>    4.8795    1.0000 </r>
        <r>    7.6519    0.0000 </r>
        <r>    9.3579    0.0000 </r>
        <r>    9.3579    0.0000 </r>
        <r>   13.5842    0.0000 </r>
        <r>   13.5842    0.0000 </r>
        <r>   13.6046    0.0000 </r>
        <r>   14.8044    0.0000 </r>
        <r>   19.0786    0.0000 </r>
       </set>
       <set comment="kpoint 15">
        <r>   -4.9956    1.0000 </r>
        <r>    1.0384    1.0000 </r>
        <r>    4.9180    1.0000 </r>
        <r>    4.9180    1.0000 </r>
        <r>    7.6950    0.0000 </r>
        <r>    9.3663    0.0000 </r>
        <r>    9.3663    0.0000 </r>
        <r>   13.4276    0.0000 </r>
        <r>   13.4276    0.0000 </r>
        <r>   13.4738    0.0000 </r>
        <r>   14.7498    0.0000 </r>
        <r>   18.7701    0.0000 </r>
       </set>
       <set comment="kpoint 16">
        <r>   -5.0954    1.0000 </r>
        <r>    1.2800    1.0000 </r>
        <r>    4.9592    1.0000 </r>
        <r>    4.9592    1.0000 </r>
        <r>    7.7406    0.0000 </r>
        <r>    9.3686    0.0000 </r>
        <r>    9.3686    0.0000 </r>
        <r>   13.2890    0.0000 </r>
        <r>   13.2890    0.0000 </r>
        <r>   13.3010    0.0000 </r>
        <r>   14.7401    0.0000 </r>
        <r>   18.4539    0.0000 </r>
       </set>
       <set comment="kpoint 17">
        <r>   -5.1917    1.0000 </r>
        <r>    1.5270    1.0000 </r>
        <r>    5.0028    1.0000 </r>
        <r>    5.0028    1.0000 </r>
        <r>    7.7886    0.0000 </r>
        <r>    9.3633    0.0000 </r>
        <r>    9.3633    0.0000 </r>
        <r>   13.0981    0.0000 </r>
        <r>   13.1694    0.0000 </r>
        <r>   13.1694    0.0000 </r>
        <r>   14.7623    0.0000 </r>
        <r>   18.1383    0.0000 </r>
       </set>
       <set comment="kpoint 18">
        <r>   -5.2842    1.0000 </r>
        <r>    1.7789    1.0000 </r>
        <r>    5.0488    1.0000 </r>
        <r>    5.0488    1.0000 </r>
        <r>    7.8389    0.0000 </r>
        <r>    9.3495    0.0000 </r>
        <r>    9.3495    0.0000 </r>
        <r>   12.8752    0.0000 </r>
        <r>   13.0699    0.0000 </r>
        <r>   13.0699    0.0000 </r>
        <r>   14.8044    0.0000 </r>
        <r>   17.8292    0.0000 </r>
       </set>
       <set comment="kpoint 19">
        <r>   -5.3726    1.0000 </r>
        <r>    2.0352    1.0000 </r>
        <r>    5.0970    1.0000 </r>
        <r>    5.0970    1.0000 </r>
        <r>    7.8911    0.0000 </r>
        <r>    9.3261    0.0000 </r>
        <r>    9.3261    0.0000 </r>
        <r>   12.6395    0.0000 </r>
        <r>   12.9913    0.0000 </r>
        <r>   12.9913    0.0000 </r>
        <r>   14.8564    0.0000 </r>
        <r>   17.5330    0.0000 </r>
       </set>
       <set comment="kpoint 20">
        <r>   -5.4567    1.0000 </r>
        <r>    2.2954    1.0000 </r>
        <r>    5.1472    1.0000 </r>
        <r>    5.1472    1.0000 </r>
        <r>    7.9450    0.0000 </r>
        <r>    9.2928    0.0000 </r>
        <r>    9.2928    0.0000 </r>
        <r>   12.3953    0.0000 </r>
        <r>   12.9341    0.0000 </r>
        <r>   12.9341    0.0000 </r>
        <r>   14.9099    0.0000 </r>
        <r>   17.2557    0.0000 </r>
       </set>
       <set comment="kpoint 21">
        <r>   -5.5363    1.0000 </r>
        <r>    2.5588    1.0000 </r>
        <r>    5.1993    1.0000 </r>
        <r>    5.1993    1.0000 </r>
        <r>    8.0002    0.0000 </r>
        <r>    9.2496    0.0000 </r>
        <r>    9.2496    0.0000 </r>
        <r>   12.1456    0.0000 </r>
        <r>   12.8981    0.0000 </r>
        <r>   12.8981    0.0000 </r>
        <r>   14.9562    0.0000 </r>
        <r>   17.0052    0.0000 </r>
       </set>
       <set comment="kpoint 22">
        <r>   -5.6113    1.0000 </r>
        <r>    2.8250    1.0000 </r>
        <r>    5.2528    1.0000 </r>
        <r>    5.2528    1.0000 </r>
        <r>    8.0563    0.0000 </r>
        <r>    9.1970    0.0000 </r>
        <r>    9.1970    0.0000 </r>
        <r>   11.8922    0.0000 </r>
        <r>   12.8827    0.0000 </r>
        <r>   12.8827    0.0000 </r>
        <r>   14.9850    0.0000 </r>
        <r>   16.7908    0.0000 </r>
       </set>
       <set comment="kpoint 23">
        <r>   -5.6815    1.0000 </r>
        <r>    3.0932    1.0000 </r>
        <r>    5.3076    1.0000 </r>
        <r>    5.3076    1.0000 </r>
        <r>    8.1126    0.0000 </r>
        <r>    9.1361    0.0000 </r>
        <r>    9.1361    0.0000 </r>
        <r>   11.6364    0.0000 </r>
        <r>   12.8863    0.0000 </r>
        <r>   12.8863    0.0000 </r>
        <r>   14.9848    0.0000 </r>
        <r>   16.6242    0.0000 </r>
       </set>
       <set comment="kpoint 24">
        <r>   -5.7469    1.0000 </r>
        <r>    3.3626    1.0000 </r>
        <r>    5.3631    1.0000 </r>
        <r>    5.3631    1.0000 </r>
        <r>    8.1686    0.0000 </r>
        <r>    9.0682    0.0000 </r>
        <r>    9.0682    0.0000 </r>
        <r>   11.3794    0.0000 </r>
        <r>   12.9076    0.0000 </r>
        <r>   12.9076    0.0000 </r>
        <r>   14.9457    0.0000 </r>
        <r>   16.5152    0.0000 </r>
       </set>
       <set comment="kpoint 25">
        <r>   -5.8073    1.0000 </r>
        <r>    3.6324    1.0000 </r>
        <r>    5.4190    1.0000 </r>
        <r>    5.4190    1.0000 </r>
        <r>    8.2235    0.0000 </r>
        <r>    8.9950    0.0000 </r>
        <r>    8.9950    0.0000 </r>
        <r>   11.1224    0.0000 </r>
        <r>   12.9444    0.0000 </r>
        <r>   12.9444    0.0000 </r>
        <r>   14.8652    0.0000 </r>
        <r>   16.4662    0.0000 </r>
       </set>
       <set comment="kpoint 26">
        <r>   -5.8627    1.0000 </r>
        <r>    3.9015    1.0000 </r>
        <r>    5.4746    1.0000 </r>
        <r>    5.4746    1.0000 </r>
        <r>    8.2764    0.0000 </r>
        <r>    8.9186    0.0000 </r>
        <r>    8.9186    0.0000 </r>
        <r>   10.8669    0.0000 </r>
        <r>   12.9944    0.0000 </r>
        <r>   12.9944    0.0000 </r>
        <r>   14.7507    0.0000 </r>
        <r>   16.4697    0.0000 </r>
       </set>
       <set comment="kpoint 27">
        <r>   -5.9129    1.0000 </r>
        <r>    4.1684    1.0000 </r>
        <r>    5.5294    1.0000 </r>
        <r>    5.5294    1.0000 </r>
        <r>    8.3260    0.0000 </r>
        <r>    8.8407    0.0000 </r>
        <r>    8.8407    0.0000 </r>
        <r>   10.6145    0.0000 </r>
        <r>   13.0549    0.0000 </r>
        <r>   13.0549    0.0000 </r>
        <r>   14.6154    0.0000 </r>
        <r>   16.5119    0.0000 </r>
       </set>
       <set comment="kpoint 28">
        <r>   -5.9581    1.0000 </r>
        <r>    4.4312    1.0000 </r>
        <r>    5.5826    1.0000 </r>
        <r>    5.5826    1.0000 </r>
        <r>    8.3710    0.0000 </r>
        <r>    8.7635    0.0000 </r>
        <r>    8.7635    0.0000 </r>
        <r>   10.3678    0.0000 </r>
        <r>   13.1233    0.0000 </r>
        <r>   13.1233    0.0000 </r>
        <r>   14.4722    0.0000 </r>
        <r>   16.5795    0.0000 </r>
       </set>
       <set comment="kpoint 29">
        <r>   -5.9979    1.0000 </r>
        <r>    4.6876    1.0000 </r>
        <r>    5.6333    1.0000 </r>
        <r>    5.6333    1.0000 </r>
        <r>    8.4094    0.0000 </r>
        <r>    8.6891    0.0000 </r>
        <r>    8.6891    0.0000 </r>
        <r>   10.1301    0.0000 </r>
        <r>   13.1967    0.0000 </r>
        <r>   13.1967    0.0000 </r>
        <r>   14.3311    0.0000 </r>
        <r>   16.6614    0.0000 </r>
       </set>
       <set comment="kpoint 30">
        <r>   -6.0326    1.0000 </r>
        <r>    4.9342    1.0000 </r>
        <r>    5.6805    1.0000 </r>
        <r>    5.6805    1.0000 </r>
        <r>    8.4390    0.0000 </r>
        <r>    8.6194    0.0000 </r>
        <r>    8.6194    0.0000 </r>
        <r>    9.9059    0.0000 </r>
        <r>   13.2717    0.0000 </r>
        <r>   13.2717    0.0000 </r>
        <r>   14.1990    0.0000 </r>
        <r>   16.7513    0.0000 </r>
       </set>
       <set comment="kpoint 31">
        <r>   -6.0620    1.0000 </r>
        <r>    5.1666    1.0000 </r>
        <r>    5.7232    1.0000 </r>
        <r>    5.7232    1.0000 </r>
        <r>    8.4570    0.0000 </r>
        <r>    8.5562    0.0000 </r>
        <r>    8.5562    0.0000 </r>
        <r>    9.7016    0.0000 </r>
        <r>   13.3448    0.0000 </r>
        <r>   13.3448    0.0000 </r>
        <r>   14.0809    0.0000 </r>
        <r>   16.8369    0.0000 </r>
       </set>
       <set comment="kpoint 32">
        <r>   -6.0861    1.0000 </r>
        <r>    5.3786    1.0000 </r>
        <r>    5.7603    1.0000 </r>
        <r>    5.7603    1.0000 </r>
        <r>    8.4608    0.0000 </r>
        <r>    8.5016    0.0000 </r>
        <r>    8.5016    0.0000 </r>
        <r>    9.5251    0.0000 </r>
        <r>   13.4123    0.0000 </r>
        <r>   13.4123    0.0000 </r>
        <r>   13.9803    0.0000 </r>
        <r>   16.9180    0.0000 </r>
       </set>
       <set comment="kpoint 33">
        <r>   -6.1048    1.0000 </r>
        <r>    5.5619    1.0000 </r>
        <r>    5.7905    1.0000 </r>
        <r>    5.7905    1.0000 </r>
        <r>    8.4498    0.0000 </r>
        <r>    8.4570    0.0000 </r>
        <r>    8.4570    0.0000 </r>
        <r>    9.3845    0.0000 </r>
        <r>   13.4703    0.0000 </r>
        <r>   13.4703    0.0000 </r>
        <r>   13.8996    0.0000 </r>
        <r>   16.9895    0.0000 </r>
       </set>
       <set comment="kpoint 34">
        <r>   -6.1182    1.0000 </r>
        <r>    5.7060    1.0000 </r>
        <r>    5.8130    1.0000 </r>
        <r>    5.8130    1.0000 </r>
        <r>    8.4241    0.0000 </r>
        <r>    8.4241    0.0000 </r>
        <r>    8.4279    0.0000 </r>
        <r>    9.2854    0.0000 </r>
        <r>   13.5150    0.0000 </r>
        <r>   13.5150    0.0000 </r>
        <r>   13.8408    0.0000 </r>
        <r>   17.0452    0.0000 </r>
       </set>
       <set comment="kpoint 35">
        <r>   -6.1262    1.0000 </r>
        <r>    5.7992    1.0000 </r>
        <r>    5.8269    1.0000 </r>
        <r>    5.8269    1.0000 </r>
        <r>    8.4038    0.0000 </r>
        <r>    8.4038    0.0000 </r>
        <r>    8.4061    0.0000 </r>
        <r>    9.2282    0.0000 </r>
        <r>   13.5434    0.0000 </r>
        <r>   13.5434    0.0000 </r>
        <r>   13.8050    0.0000 </r>
        <r>   17.0974    0.0000 </r>
       </set>
       <set comment="kpoint 36">
        <r>   -6.1289    1.0000 </r>
        <r>    5.8315    1.0000 </r>
        <r>    5.8315    1.0000 </r>
        <r>    5.8315    1.0000 </r>
        <r>    8.3969    0.0000 </r>
        <r>    8.3969    0.0000 </r>
        <r>    8.3969    0.0000 </r>
        <r>    9.2098    0.0000 </r>
        <r>   13.5531    0.0000 </r>
        <r>   13.5531    0.0000 </r>
        <r>   13.7930    0.0000 </r>
        <r>   17.0859    0.0000 </r>
       </set>
       <set comment="kpoint 37">
        <r>   -6.1289    1.0000 </r>
        <r>    5.8315    1.0000 </r>
        <r>    5.8315    1.0000 </r>
        <r>    5.8315    1.0000 </r>
        <r>    8.3969    0.0000 </r>
        <r>    8.3969    0.0000 </r>
        <r>    8.3969    0.0000 </r>
        <r>    9.2098    0.0000 </r>
        <r>   13.5531    0.0000 </r>
        <r>   13.5531    0.0000 </r>
        <r>   13.7930    0.0000 </r>
        <r>   17.0859    0.0000 </r>
       </set>
       <set comment="kpoint 38">
        <r>   -6.1254    1.0000 </r>
        <r>    5.8069    1.0000 </r>
        <r>    5.8160    1.0000 </r>
        <r>    5.8160    1.0000 </r>
        <r>    8.3880    0.0000 </r>
        <r>    8.4169    0.0000 </r>
        <r>    8.4169    0.0000 </r>
        <r>    9.2339    0.0000 </r>
        <r>   13.5233    0.0000 </r>
        <r>   13.5570    0.0000 </r>
        <r>   13.8090    0.0000 </r>
        <r>   17.0922    0.0000 </r>
       </set>
       <set comment="kpoint 39">
        <r>   -6.1146    1.0000 </r>
        <r>    5.7353    1.0000 </r>
        <r>    5.7707    1.0000 </r>
        <r>    5.7707    1.0000 </r>
        <r>    8.3616    0.0000 </r>
        <r>    8.4754    0.0000 </r>
        <r>    8.4754    0.0000 </r>
        <r>    9.3039    0.0000 </r>
        <r>   13.4376    0.0000 </r>
        <r>   13.5689    0.0000 </r>
        <r>   13.8567    0.0000 </r>
        <r>   17.1110    0.0000 </r>
       </set>
       <set comment="kpoint 40">
        <r>   -6.0968    1.0000 </r>
        <r>    5.6222    1.0000 </r>
        <r>    5.6996    1.0000 </r>
        <r>    5.6996    1.0000 </r>
        <r>    8.3186    0.0000 </r>
        <r>    8.5685    0.0000 </r>
        <r>    8.5685    0.0000 </r>
        <r>    9.4129    0.0000 </r>
        <r>   13.3050    0.0000 </r>
        <r>   13.5887    0.0000 </r>
        <r>   13.9349    0.0000 </r>
        <r>   17.1422    0.0000 </r>
       </set>
       <set comment="kpoint 41">
        <r>   -6.0718    1.0000 </r>
        <r>    5.4749    1.0000 </r>
        <r>    5.6077    1.0000 </r>
        <r>    5.6077    1.0000 </r>
        <r>    8.2608    0.0000 </r>
        <r>    8.6911    0.0000 </r>
        <r>    8.6911    0.0000 </r>
        <r>    9.5519    0.0000 </r>
        <r>   13.1380    0.0000 </r>
        <r>   13.6163    0.0000 </r>
        <r>   14.0421    0.0000 </r>
        <r>   17.1864    0.0000 </r>
       </set>
       <set comment="kpoint 42">
        <r>   -6.0396    1.0000 </r>
        <r>    5.3007    1.0000 </r>
        <r>    5.5002    1.0000 </r>
        <r>    5.5002    1.0000 </r>
        <r>    8.1900    0.0000 </r>
        <r>    8.8381    0.0000 </r>
        <r>    8.8381    0.0000 </r>
        <r>    9.7101    0.0000 </r>
        <r>   12.9504    0.0000 </r>
        <r>   13.6519    0.0000 </r>
        <r>   14.1762    0.0000 </r>
        <r>   17.2421    0.0000 </r>
       </set>
       <set comment="kpoint 43">
        <r>   -6.0003    1.0000 </r>
        <r>    5.1057    1.0000 </r>
        <r>    5.3815    1.0000 </r>
        <r>    5.3815    1.0000 </r>
        <r>    8.1083    0.0000 </r>
        <r>    9.0048    0.0000 </r>
        <r>    9.0048    0.0000 </r>
        <r>    9.8756    0.0000 </r>
        <r>   12.7568    0.0000 </r>
        <r>   13.6954    0.0000 </r>
        <r>   14.3350    0.0000 </r>
        <r>   17.3110    0.0000 </r>
       </set>
       <set comment="kpoint 44">
        <r>   -5.9540    1.0000 </r>
        <r>    4.8952    1.0000 </r>
        <r>    5.2554    1.0000 </r>
        <r>    5.2554    1.0000 </r>
        <r>    8.0179    0.0000 </r>
        <r>    9.1877    0.0000 </r>
        <r>    9.1877    0.0000 </r>
        <r>   10.0344    0.0000 </r>
        <r>   12.5737    0.0000 </r>
        <r>   13.7471    0.0000 </r>
        <r>   14.5162    0.0000 </r>
        <r>   17.3894    0.0000 </r>
       </set>
       <set comment="kpoint 45">
        <r>   -5.9006    1.0000 </r>
        <r>    4.6728    1.0000 </r>
        <r>    5.1249    1.0000 </r>
        <r>    5.1249    1.0000 </r>
        <r>    7.9210    0.0000 </r>
        <r>    9.3834    0.0000 </r>
        <r>    9.3834    0.0000 </r>
        <r>   10.1682    0.0000 </r>
        <r>   12.4210    0.0000 </r>
        <r>   13.8064    0.0000 </r>
        <r>   14.7176    0.0000 </r>
        <r>   17.4816    0.0000 </r>
       </set>
       <set comment="kpoint 46">
        <r>   -5.8401    1.0000 </r>
        <r>    4.4416    1.0000 </r>
        <r>    4.9922    1.0000 </r>
        <r>    4.9922    1.0000 </r>
        <r>    7.8193    0.0000 </r>
        <r>    9.5897    0.0000 </r>
        <r>    9.5897    0.0000 </r>
        <r>   10.2547    0.0000 </r>
        <r>   12.3228    0.0000 </r>
        <r>   13.8736    0.0000 </r>
        <r>   14.9371    0.0000 </r>
        <r>   17.5858    0.0000 </r>
       </set>
       <set comment="kpoint 47">
        <r>   -5.7726    1.0000 </r>
        <r>    4.2036    1.0000 </r>
        <r>    4.8590    1.0000 </r>
        <r>    4.8590    1.0000 </r>
        <r>    7.7147    0.0000 </r>
        <r>    9.8048    0.0000 </r>
        <r>    9.8048    0.0000 </r>
        <r>   10.2727    0.0000 </r>
        <r>   12.3009    0.0000 </r>
        <r>   13.9487    0.0000 </r>
        <r>   15.1725    0.0000 </r>
        <r>   17.7018    0.0000 </r>
       </set>
       <set comment="kpoint 48">
        <r>   -5.6981    1.0000 </r>
        <r>    3.9605    1.0000 </r>
        <r>    4.7267    1.0000 </r>
        <r>    4.7267    1.0000 </r>
        <r>    7.6087    0.0000 </r>
        <r>   10.0271    0.0000 </r>
        <r>   10.0271    0.0000 </r>
        <r>   10.2143    0.0000 </r>
        <r>   12.3648    0.0000 </r>
        <r>   14.0317    0.0000 </r>
        <r>   15.4221    0.0000 </r>
        <r>   17.8293    0.0000 </r>
       </set>
       <set comment="kpoint 49">
        <r>   -5.6167    1.0000 </r>
        <r>    3.7135    1.0000 </r>
        <r>    4.5963    1.0000 </r>
        <r>    4.5963    1.0000 </r>
        <r>    7.5026    0.0000 </r>
        <r>   10.0903    0.0000 </r>
        <r>   10.2559    0.0000 </r>
        <r>   10.2559    0.0000 </r>
        <r>   12.5042    0.0000 </r>
        <r>   14.1228    0.0000 </r>
        <r>   15.6842    0.0000 </r>
        <r>   17.9653    0.0000 </r>
       </set>
       <set comment="kpoint 50">
        <r>   -5.5283    1.0000 </r>
        <r>    3.4635    1.0000 </r>
        <r>    4.4687    1.0000 </r>
        <r>    4.4687    1.0000 </r>
        <r>    7.3976    0.0000 </r>
        <r>    9.9204    0.0000 </r>
        <r>   10.4896    0.0000 </r>
        <r>   10.4896    0.0000 </r>
        <r>   12.6995    0.0000 </r>
        <r>   14.2215    0.0000 </r>
        <r>   15.9571    0.0000 </r>
        <r>   18.1125    0.0000 </r>
       </set>
       <set comment="kpoint 51">
        <r>   -5.4331    1.0000 </r>
        <r>    3.2112    1.0000 </r>
        <r>    4.3444    1.0000 </r>
        <r>    4.3444    1.0000 </r>
        <r>    7.2947    0.0000 </r>
        <r>    9.7231    0.0000 </r>
        <r>   10.7281    0.0000 </r>
        <r>   10.7281    0.0000 </r>
        <r>   12.9331    0.0000 </r>
        <r>   14.3281    0.0000 </r>
        <r>   16.2390    0.0000 </r>
        <r>   18.2680    0.0000 </r>
       </set>
       <set comment="kpoint 52">
        <r>   -5.3311    1.0000 </r>
        <r>    2.9572    1.0000 </r>
        <r>    4.2241    1.0000 </r>
        <r>    4.2241    1.0000 </r>
        <r>    7.1948    0.0000 </r>
        <r>    9.5113    0.0000 </r>
        <r>   10.9705    0.0000 </r>
        <r>   10.9705    0.0000 </r>
        <r>   13.1924    0.0000 </r>
        <r>   14.4425    0.0000 </r>
        <r>   16.5285    0.0000 </r>
        <r>   18.4304    0.0000 </r>
       </set>
       <set comment="kpoint 53">
        <r>   -5.2223    1.0000 </r>
        <r>    2.7020    1.0000 </r>
        <r>    4.1081    1.0000 </r>
        <r>    4.1081    1.0000 </r>
        <r>    7.0987    0.0000 </r>
        <r>    9.2931    0.0000 </r>
        <r>   11.2164    0.0000 </r>
        <r>   11.2164    0.0000 </r>
        <r>   13.4690    0.0000 </r>
        <r>   14.5648    0.0000 </r>
        <r>   16.8238    0.0000 </r>
        <r>   18.6019    0.0000 </r>
       </set>
       <set comment="kpoint 54">
        <r>   -5.1068    1.0000 </r>
        <r>    2.4458    1.0000 </r>
        <r>    3.9968    1.0000 </r>
        <r>    3.9968    1.0000 </r>
        <r>    7.0068    0.0000 </r>
        <r>    9.0741    0.0000 </r>
        <r>   11.4654    0.0000 </r>
        <r>   11.4654    0.0000 </r>
        <r>   13.7574    0.0000 </r>
        <r>   14.6948    0.0000 </r>
        <r>   17.1230    0.0000 </r>
        <r>   18.7659    0.0000 </r>
       </set>
       <set comment="kpoint 55">
        <r>   -4.9846    1.0000 </r>
        <r>    2.1892    1.0000 </r>
        <r>    3.8904    1.0000 </r>
        <r>    3.8904    1.0000 </r>
        <r>    6.9200    0.0000 </r>
        <r>    8.8578    0.0000 </r>
        <r>   11.7172    0.0000 </r>
        <r>   11.7172    0.0000 </r>
        <r>   14.0539    0.0000 </r>
        <r>   14.8327    0.0000 </r>
        <r>   17.4241    0.0000 </r>
        <r>   18.9335    0.0000 </r>
       </set>
       <set comment="kpoint 56">
        <r>   -4.8559    1.0000 </r>
        <r>    1.9323    1.0000 </r>
        <r>    3.7893    1.0000 </r>
        <r>    3.7893    1.0000 </r>
        <r>    6.8388    0.0000 </r>
        <r>    8.6468    0.0000 </r>
        <r>   11.9716    0.0000 </r>
        <r>   11.9716    0.0000 </r>
        <r>   14.3559    0.0000 </r>
        <r>   14.9784    0.0000 </r>
        <r>   17.7246    0.0000 </r>
        <r>   19.0848    0.0000 </r>
       </set>
       <set comment="kpoint 57">
        <r>   -4.7206    1.0000 </r>
        <r>    1.6755    1.0000 </r>
        <r>    3.6936    1.0000 </r>
        <r>    3.6936    1.0000 </r>
        <r>    6.7633    0.0000 </r>
        <r>    8.4425    0.0000 </r>
        <r>   12.2282    0.0000 </r>
        <r>   12.2282    0.0000 </r>
        <r>   14.6614    0.0000 </r>
        <r>   15.1320    0.0000 </r>
        <r>   18.0215    0.0000 </r>
        <r>   19.2172    0.0000 </r>
       </set>
       <set comment="kpoint 58">
        <r>   -4.5790    1.0000 </r>
        <r>    1.4191    1.0000 </r>
        <r>    3.6034    1.0000 </r>
        <r>    3.6034    1.0000 </r>
        <r>    6.6942    0.0000 </r>
        <r>    8.2462    0.0000 </r>
        <r>   12.4870    0.0000 </r>
        <r>   12.4870    0.0000 </r>
        <r>   14.9687    0.0000 </r>
        <r>   15.2933    0.0000 </r>
        <r>   18.3111    0.0000 </r>
        <r>   19.3141    0.0000 </r>
       </set>
       <set comment="kpoint 59">
        <r>   -4.4309    1.0000 </r>
        <r>    1.1633    1.0000 </r>
        <r>    3.5190    1.0000 </r>
        <r>    3.5190    1.0000 </r>
        <r>    6.6317    0.0000 </r>
        <r>    8.0588    0.0000 </r>
        <r>   12.7478    0.0000 </r>
        <r>   12.7478    0.0000 </r>
        <r>   15.2768    0.0000 </r>
        <r>   15.4624    0.0000 </r>
        <r>   18.5894    0.0000 </r>
        <r>   19.3596    0.0000 </r>
       </set>
       <set comment="kpoint 60">
        <r>   -4.2767    1.0000 </r>
        <r>    0.9083    1.0000 </r>
        <r>    3.4404    1.0000 </r>
        <r>    3.4404    1.0000 </r>
        <r>    6.5762    0.0000 </r>
        <r>    7.8808    0.0000 </r>
        <r>   13.0104    0.0000 </r>
        <r>   13.0105    0.0000 </r>
        <r>   15.5843    0.0000 </r>
        <r>   15.6393    0.0000 </r>
        <r>   18.8576    0.0000 </r>
        <r>   19.3406    0.0000 </r>
       </set>
       <set comment="kpoint 61">
        <r>   -4.1163    1.0000 </r>
        <r>    0.6545    1.0000 </r>
        <r>    3.3678    1.0000 </r>
        <r>    3.3678    1.0000 </r>
        <r>    6.5279    0.0000 </r>
        <r>    7.7126    0.0000 </r>
        <r>   13.2749    0.0000 </r>
        <r>   13.2749    0.0000 </r>
        <r>   15.8239    0.0000 </r>
        <r>   15.8902    0.0000 </r>
        <r>   19.1125    0.0000 </r>
        <r>   19.2525    0.0000 </r>
       </set>
       <set comment="kpoint 62">
        <r>   -3.9499    1.0000 </r>
        <r>    0.4022    1.0000 </r>
        <r>    3.3013    1.0000 </r>
        <r>    3.3013    1.0000 </r>
        <r>    6.4872    0.0000 </r>
        <r>    7.5545    0.0000 </r>
        <r>   13.5410    0.0000 </r>
        <r>   13.5410    0.0000 </r>
        <r>   16.0162    0.0000 </r>
        <r>   16.1939    0.0000 </r>
        <r>   19.1036    0.0000 </r>
        <r>   19.1246    0.0000 </r>
       </set>
       <set comment="kpoint 63">
        <r>   -3.7775    1.0000 </r>
        <r>    0.1515    1.0000 </r>
        <r>    3.2408    1.0000 </r>
        <r>    3.2408    1.0000 </r>
        <r>    6.4542    0.0000 </r>
        <r>    7.4066    0.0000 </r>
        <r>   13.8086    0.0000 </r>
        <r>   13.8086    0.0000 </r>
        <r>   16.2162    0.0000 </r>
        <r>   16.4942    0.0000 </r>
        <r>   18.9070    0.0000 </r>
        <r>   18.9332    0.0000 </r>
       </set>
       <set comment="kpoint 64">
        <r>   -3.5993    1.0000 </r>
        <r>   -0.0972    1.0000 </r>
        <r>    3.1866    1.0000 </r>
        <r>    3.1866    1.0000 </r>
        <r>    6.4292    0.0000 </r>
        <r>    7.2692    0.0000 </r>
        <r>   14.0775    0.0000 </r>
        <r>   14.0775    0.0000 </r>
        <r>   16.4239    0.0000 </r>
        <r>   16.7907    0.0000 </r>
        <r>   18.6777    0.0000 </r>
        <r>   18.7138    0.0000 </r>
       </set>
       <set comment="kpoint 65">
        <r>   -3.4155    1.0000 </r>
        <r>   -0.3436    1.0000 </r>
        <r>    3.1387    1.0000 </r>
        <r>    3.1387    1.0000 </r>
        <r>    6.4124    0.0000 </r>
        <r>    7.1422    0.0000 </r>
        <r>   14.3473    0.0000 </r>
        <r>   14.3474    0.0000 </r>
        <r>   16.6387    0.0000 </r>
        <r>   17.0823    0.0000 </r>
        <r>   18.4265    0.0000 </r>
        <r>   18.4316    0.0000 </r>
       </set>
       <set comment="kpoint 66">
        <r>   -3.2262    1.0000 </r>
        <r>   -0.5875    1.0000 </r>
        <r>    3.0970    1.0000 </r>
        <r>    3.0970    1.0000 </r>
        <r>    6.4040    0.0000 </r>
        <r>    7.0257    0.0000 </r>
        <r>   14.6179    0.0000 </r>
        <r>   14.6179    0.0000 </r>
        <r>   16.8616    0.0000 </r>
        <r>   17.3682    0.0000 </r>
        <r>   18.1623    0.0000 </r>
        <r>   18.1623    0.0000 </r>
       </set>
       <set comment="kpoint 67">
        <r>   -3.0314    1.0000 </r>
        <r>   -0.8286    1.0000 </r>
        <r>    3.0617    1.0000 </r>
        <r>    3.0617    1.0000 </r>
        <r>    6.4043    0.0000 </r>
        <r>    6.9196    0.0000 </r>
        <r>   14.8877    0.0000 </r>
        <r>   14.8877    0.0000 </r>
        <r>   17.0924    0.0000 </r>
        <r>   17.6478    0.0000 </r>
        <r>   17.8923    0.0000 </r>
        <r>   17.8956    0.0000 </r>
       </set>
       <set comment="kpoint 68">
        <r>   -2.8315    1.0000 </r>
        <r>   -1.0666    1.0000 </r>
        <r>    3.0327    1.0000 </r>
        <r>    3.0327    1.0000 </r>
        <r>    6.4134    0.0000 </r>
        <r>    6.8237    0.0000 </r>
        <r>   15.1550    0.0000 </r>
        <r>   15.1550    0.0000 </r>
        <r>   17.3304    0.0000 </r>
        <r>   17.6188    0.0000 </r>
        <r>   17.6189    0.0000 </r>
        <r>   17.9195    0.0000 </r>
       </set>
       <set comment="kpoint 69">
        <r>   -2.6265    1.0000 </r>
        <r>   -1.3013    1.0000 </r>
        <r>    3.0102    1.0000 </r>
        <r>    3.0102    1.0000 </r>
        <r>    6.4313    0.0000 </r>
        <r>    6.7380    0.0000 </r>
        <r>   15.4159    0.0000 </r>
        <r>   15.4159    0.0000 </r>
        <r>   17.3523    0.0000 </r>
        <r>   17.3523    0.0000 </r>
        <r>   17.5760    0.0000 </r>
        <r>   18.1822    0.0000 </r>
       </set>
       <set comment="kpoint 70">
        <r>   -2.4166    1.0000 </r>
        <r>   -1.5324    1.0000 </r>
        <r>    2.9940    1.0000 </r>
        <r>    2.9940    1.0000 </r>
        <r>    6.4585    0.0000 </r>
        <r>    6.6625    0.0000 </r>
        <r>   15.6608    0.0000 </r>
        <r>   15.6608    0.0000 </r>
        <r>   17.1024    0.0000 </r>
        <r>   17.1024    0.0000 </r>
        <r>   17.8292    0.0000 </r>
        <r>   18.4347    0.0000 </r>
       </set>
       <set comment="kpoint 71">
        <r>   -2.2021    1.0000 </r>
        <r>   -1.7598    1.0000 </r>
        <r>    2.9844    1.0000 </r>
        <r>    2.9844    1.0000 </r>
        <r>    6.4951    0.0000 </r>
        <r>    6.5969    0.0000 </r>
        <r>   15.8625    0.0000 </r>
        <r>   15.8625    0.0000 </r>
        <r>   16.8973    0.0000 </r>
        <r>   16.8974    0.0000 </r>
        <r>   18.0906    0.0000 </r>
        <r>   18.6380    0.0000 </r>
       </set>
       <set comment="kpoint 72">
        <r>   -1.9830    1.0000 </r>
        <r>   -1.9830    1.0000 </r>
        <r>    2.9811    1.0000 </r>
        <r>    2.9811    1.0000 </r>
        <r>    6.5412    0.0000 </r>
        <r>    6.5412    0.0000 </r>
        <r>   15.9508    0.0000 </r>
        <r>   15.9508    0.0000 </r>
        <r>   16.8078    0.0000 </r>
        <r>   16.8078    0.0000 </r>
        <r>   18.3583    0.0000 </r>
        <r>   18.3583    0.0000 </r>
       </set>
       <set comment="kpoint 73">
        <r>   -1.9830    1.0000 </r>
        <r>   -1.9830    1.0000 </r>
        <r>    2.9811    1.0000 </r>
        <r>    2.9811    1.0000 </r>
        <r>    6.5412    0.0000 </r>
        <r>    6.5412    0.0000 </r>
        <r>   15.9508    0.0000 </r>
        <r>   15.9508    0.0000 </r>
        <r>   16.8078    0.0000 </r>
        <r>   16.8078    0.0000 </r>
        <r>   18.3587    0.0000 </r>
        <r>   18.3984    0.0000 </r>
       </set>
       <set comment="kpoint 74">
        <r>   -1.9827    1.0000 </r>
        <r>   -1.9827    1.0000 </r>
        <r>    2.9784    1.0000 </r>
        <r>    2.9784    1.0000 </r>
        <r>    6.5462    0.0000 </r>
        <r>    6.5462    0.0000 </r>
        <r>   15.9428    0.0000 </r>
        <r>   15.9429    0.0000 </r>
        <r>   16.7951    0.0000 </r>
        <r>   16.7951    0.0000 </r>
        <r>   18.3692    0.0000 </r>
        <r>   18.3708    0.0000 </r>
       </set>
       <set comment="kpoint 75">
        <r>   -1.9818    1.0000 </r>
        <r>   -1.9818    1.0000 </r>
        <r>    2.9702    1.0000 </r>
        <r>    2.9702    1.0000 </r>
        <r>    6.5611    0.0000 </r>
        <r>    6.5611    0.0000 </r>
        <r>   15.9183    0.0000 </r>
        <r>   15.9183    0.0000 </r>
        <r>   16.7599    0.0000 </r>
        <r>   16.7600    0.0000 </r>
        <r>   18.3985    0.0000 </r>
        <r>   18.4019    0.0000 </r>
       </set>
       <set comment="kpoint 76">
        <r>   -1.9804    1.0000 </r>
        <r>   -1.9804    1.0000 </r>
        <r>    2.9567    1.0000 </r>
        <r>    2.9567    1.0000 </r>
        <r>    6.5860    0.0000 </r>
        <r>    6.5860    0.0000 </r>
        <r>   15.8753    0.0000 </r>
        <r>   15.8753    0.0000 </r>
        <r>   16.7101    0.0000 </r>
        <r>   16.7101    0.0000 </r>
        <r>   18.4377    0.0000 </r>
        <r>   18.4393    0.0000 </r>
       </set>
       <set comment="kpoint 77">
        <r>   -1.9783    1.0000 </r>
        <r>   -1.9783    1.0000 </r>
        <r>    2.9383    1.0000 </r>
        <r>    2.9383    1.0000 </r>
        <r>    6.6202    0.0000 </r>
        <r>    6.6202    0.0000 </r>
        <r>   15.8119    0.0000 </r>
        <r>   15.8119    0.0000 </r>
        <r>   16.6550    0.0000 </r>
        <r>   16.6550    0.0000 </r>
        <r>   18.4772    0.0000 </r>
        <r>   18.4795    0.0000 </r>
       </set>
       <set comment="kpoint 78">
        <r>   -1.9756    1.0000 </r>
        <r>   -1.9756    1.0000 </r>
        <r>    2.9151    1.0000 </r>
        <r>    2.9151    1.0000 </r>
        <r>    6.6636    0.0000 </r>
        <r>    6.6636    0.0000 </r>
        <r>   15.7267    0.0000 </r>
        <r>   15.7268    0.0000 </r>
        <r>   16.6024    0.0000 </r>
        <r>   16.6024    0.0000 </r>
        <r>   18.5116    0.0000 </r>
        <r>   18.5145    0.0000 </r>
       </set>
       <set comment="kpoint 79">
        <r>   -1.9724    1.0000 </r>
        <r>   -1.9724    1.0000 </r>
        <r>    2.8877    1.0000 </r>
        <r>    2.8877    1.0000 </r>
        <r>    6.7158    0.0000 </r>
        <r>    6.7158    0.0000 </r>
        <r>   15.6202    0.0000 </r>
        <r>   15.6202    0.0000 </r>
        <r>   16.5570    0.0000 </r>
        <r>   16.5570    0.0000 </r>
        <r>   18.5400    0.0000 </r>
        <r>   18.5438    0.0000 </r>
       </set>
       <set comment="kpoint 80">
        <r>   -1.9687    1.0000 </r>
        <r>   -1.9687    1.0000 </r>
        <r>    2.8564    1.0000 </r>
        <r>    2.8564    1.0000 </r>
        <r>    6.7764    0.0000 </r>
        <r>    6.7764    0.0000 </r>
        <r>   15.4946    0.0000 </r>
        <r>   15.4946    0.0000 </r>
        <r>   16.5204    0.0000 </r>
        <r>   16.5204    0.0000 </r>
        <r>   18.5632    0.0000 </r>
        <r>   18.5635    0.0000 </r>
       </set>
       <set comment="kpoint 81">
        <r>   -1.9644    1.0000 </r>
        <r>   -1.9644    1.0000 </r>
        <r>    2.8218    1.0000 </r>
        <r>    2.8218    1.0000 </r>
        <r>    6.8448    0.0000 </r>
        <r>    6.8448    0.0000 </r>
        <r>   15.3532    0.0000 </r>
        <r>   15.3532    0.0000 </r>
        <r>   16.4920    0.0000 </r>
        <r>   16.4920    0.0000 </r>
        <r>   18.5826    0.0000 </r>
        <r>   18.5828    0.0000 </r>
       </set>
       <set comment="kpoint 82">
        <r>   -1.9597    1.0000 </r>
        <r>   -1.9597    1.0000 </r>
        <r>    2.7844    1.0000 </r>
        <r>    2.7844    1.0000 </r>
        <r>    6.9207    0.0000 </r>
        <r>    6.9207    0.0000 </r>
        <r>   15.1994    0.0000 </r>
        <r>   15.1994    0.0000 </r>
        <r>   16.4705    0.0000 </r>
        <r>   16.4705    0.0000 </r>
        <r>   18.5996    0.0000 </r>
        <r>   18.6000    0.0000 </r>
       </set>
       <set comment="kpoint 83">
        <r>   -1.9545    1.0000 </r>
        <r>   -1.9545    1.0000 </r>
        <r>    2.7447    1.0000 </r>
        <r>    2.7447    1.0000 </r>
        <r>    7.0035    0.0000 </r>
        <r>    7.0035    0.0000 </r>
        <r>   15.0363    0.0000 </r>
        <r>   15.0363    0.0000 </r>
        <r>   16.4543    0.0000 </r>
        <r>   16.4543    0.0000 </r>
        <r>   18.6150    0.0000 </r>
        <r>   18.6152    0.0000 </r>
       </set>
       <set comment="kpoint 84">
        <r>   -1.9488    1.0000 </r>
        <r>   -1.9488    1.0000 </r>
        <r>    2.7031    1.0000 </r>
        <r>    2.7031    1.0000 </r>
        <r>    7.0927    0.0000 </r>
        <r>    7.0927    0.0000 </r>
        <r>   14.8662    0.0000 </r>
        <r>   14.8662    0.0000 </r>
        <r>   16.4421    0.0000 </r>
        <r>   16.4421    0.0000 </r>
        <r>   18.6295    0.0000 </r>
        <r>   18.6301    0.0000 </r>
       </set>
       <set comment="kpoint 85">
        <r>   -1.9429    1.0000 </r>
        <r>   -1.9429    1.0000 </r>
        <r>    2.6601    1.0000 </r>
        <r>    2.6601    1.0000 </r>
        <r>    7.1879    0.0000 </r>
        <r>    7.1879    0.0000 </r>
        <r>   14.6908    0.0000 </r>
        <r>   14.6909    0.0000 </r>
        <r>   16.4328    0.0000 </r>
        <r>   16.4328    0.0000 </r>
        <r>   18.6433    0.0000 </r>
        <r>   18.6445    0.0000 </r>
       </set>
       <set comment="kpoint 86">
        <r>   -1.9365    1.0000 </r>
        <r>   -1.9365    1.0000 </r>
        <r>    2.6161    1.0000 </r>
        <r>    2.6161    1.0000 </r>
        <r>    7.2888    0.0000 </r>
        <r>    7.2888    0.0000 </r>
        <r>   14.5118    0.0000 </r>
        <r>   14.5118    0.0000 </r>
        <r>   16.4262    0.0000 </r>
        <r>   16.4262    0.0000 </r>
        <r>   18.6570    0.0000 </r>
        <r>   18.6570    0.0000 </r>
       </set>
       <set comment="kpoint 87">
        <r>   -1.9299    1.0000 </r>
        <r>   -1.9299    1.0000 </r>
        <r>    2.5715    1.0000 </r>
        <r>    2.5715    1.0000 </r>
        <r>    7.3949    0.0000 </r>
        <r>    7.3949    0.0000 </r>
        <r>   14.3299    0.0000 </r>
        <r>   14.3299    0.0000 </r>
        <r>   16.4211    0.0000 </r>
        <r>   16.4211    0.0000 </r>
        <r>   18.6706    0.0000 </r>
        <r>   18.6707    0.0000 </r>
       </set>
       <set comment="kpoint 88">
        <r>   -1.9230    1.0000 </r>
        <r>   -1.9230    1.0000 </r>
        <r>    2.5268    1.0000 </r>
        <r>    2.5268    1.0000 </r>
        <r>    7.5059    0.0000 </r>
        <r>    7.5059    0.0000 </r>
        <r>   14.1460    0.0000 </r>
        <r>   14.1460    0.0000 </r>
        <r>   16.4173    0.0000 </r>
        <r>   16.4173    0.0000 </r>
        <r>   18.6841    0.0000 </r>
        <r>   18.6841    0.0000 </r>
       </set>
       <set comment="kpoint 89">
        <r>   -1.9159    1.0000 </r>
        <r>   -1.9159    1.0000 </r>
        <r>    2.4822    1.0000 </r>
        <r>    2.4822    1.0000 </r>
        <r>    7.6214    0.0000 </r>
        <r>    7.6214    0.0000 </r>
        <r>   13.9608    0.0000 </r>
        <r>   13.9608    0.0000 </r>
        <r>   16.4146    0.0000 </r>
        <r>   16.4146    0.0000 </r>
        <r>   18.6977    0.0000 </r>
        <r>   18.6978    0.0000 </r>
       </set>
       <set comment="kpoint 90">
        <r>   -1.9086    1.0000 </r>
        <r>   -1.9086    1.0000 </r>
        <r>    2.4381    1.0000 </r>
        <r>    2.4381    1.0000 </r>
        <r>    7.7411    0.0000 </r>
        <r>    7.7411    0.0000 </r>
        <r>   13.7748    0.0000 </r>
        <r>   13.7748    0.0000 </r>
        <r>   16.4126    0.0000 </r>
        <r>   16.4126    0.0000 </r>
        <r>   18.7114    0.0000 </r>
        <r>   18.7114    0.0000 </r>
       </set>
       <set comment="kpoint 91">
        <r>   -1.9013    1.0000 </r>
        <r>   -1.9013    1.0000 </r>
        <r>    2.3949    1.0000 </r>
        <r>    2.3949    1.0000 </r>
        <r>    7.8648    0.0000 </r>
        <r>    7.8648    0.0000 </r>
        <r>   13.5883    0.0000 </r>
        <r>   13.5883    0.0000 </r>
        <r>   16.4114    0.0000 </r>
        <r>   16.4114    0.0000 </r>
        <r>   18.7250    0.0000 </r>
        <r>   18.7250    0.0000 </r>
       </set>
       <set comment="kpoint 92">
        <r>   -1.8939    1.0000 </r>
        <r>   -1.8939    1.0000 </r>
        <r>    2.3527    1.0000 </r>
        <r>    2.3527    1.0000 </r>
        <r>    7.9922    0.0000 </r>
        <r>    7.9922    0.0000 </r>
        <r>   13.4018    0.0000 </r>
        <r>   13.4018    0.0000 </r>
        <r>   16.4106    0.0000 </r>
        <r>   16.4106    0.0000 </r>
        <r>   18.7387    0.0000 </r>
        <r>   18.7388    0.0000 </r>
       </set>
       <set comment="kpoint 93">
        <r>   -1.8866    1.0000 </r>
        <r>   -1.8866    1.0000 </r>
        <r>    2.3118    1.0000 </r>
        <r>    2.3118    1.0000 </r>
        <r>    8.1231    0.0000 </r>
        <r>    8.1231    0.0000 </r>
        <r>   13.2154    0.0000 </r>
        <r>   13.2154    0.0000 </r>
        <r>   16.4103    0.0000 </r>
        <r>   16.4103    0.0000 </r>
        <r>   18.7522    0.0000 </r>
        <r>   18.7523    0.0000 </r>
       </set>
       <set comment="kpoint 94">
        <r>   -1.8793    1.0000 </r>
        <r>   -1.8793    1.0000 </r>
        <r>    2.2726    1.0000 </r>
        <r>    2.2726    1.0000 </r>
        <r>    8.2571    0.0000 </r>
        <r>    8.2571    0.0000 </r>
        <r>   13.0295    0.0000 </r>
        <r>   13.0295    0.0000 </r>
        <r>   16.4102    0.0000 </r>
        <r>   16.4102    0.0000 </r>
        <r>   18.7655    0.0000 </r>
        <r>   18.7658    0.0000 </r>
       </set>
       <set comment="kpoint 95">
        <r>   -1.8722    1.0000 </r>
        <r>   -1.8722    1.0000 </r>
        <r>    2.2351    1.0000 </r>
        <r>    2.2351    1.0000 </r>
        <r>    8.3941    0.0000 </r>
        <r>    8.3941    0.0000 </r>
        <r>   12.8443    0.0000 </r>
        <r>   12.8443    0.0000 </r>
        <r>   16.4104    0.0000 </r>
        <r>   16.4104    0.0000 </r>
        <r>   18.7788    0.0000 </r>
        <r>   18.7789    0.0000 </r>
       </set>
       <set comment="kpoint 96">
        <r>   -1.8653    1.0000 </r>
        <r>   -1.8653    1.0000 </r>
        <r>    2.1996    1.0000 </r>
        <r>    2.1996    1.0000 </r>
        <r>    8.5339    0.0000 </r>
        <r>    8.5339    0.0000 </r>
        <r>   12.6600    0.0000 </r>
        <r>   12.6600    0.0000 </r>
        <r>   16.4108    0.0000 </r>
        <r>   16.4108    0.0000 </r>
        <r>   18.7916    0.0000 </r>
        <r>   18.7917    0.0000 </r>
       </set>
       <set comment="kpoint 97">
        <r>   -1.8587    1.0000 </r>
        <r>   -1.8587    1.0000 </r>
        <r>    2.1662    1.0000 </r>
        <r>    2.1662    1.0000 </r>
        <r>    8.6760    0.0000 </r>
        <r>    8.6760    0.0000 </r>
        <r>   12.4768    0.0000 </r>
        <r>   12.4768    0.0000 </r>
        <r>   16.4111    0.0000 </r>
        <r>   16.4111    0.0000 </r>
        <r>   18.8039    0.0000 </r>
        <r>   18.8039    0.0000 </r>
       </set>
       <set comment="kpoint 98">
        <r>   -1.8524    1.0000 </r>
        <r>   -1.8524    1.0000 </r>
        <r>    2.1352    1.0000 </r>
        <r>    2.1352    1.0000 </r>
        <r>    8.8205    0.0000 </r>
        <r>    8.8205    0.0000 </r>
        <r>   12.2950    0.0000 </r>
        <r>   12.2950    0.0000 </r>
        <r>   16.4117    0.0000 </r>
        <r>   16.4117    0.0000 </r>
        <r>   18.8156    0.0000 </r>
        <r>   18.8156    0.0000 </r>
       </set>
       <set comment="kpoint 99">
        <r>   -1.8465    1.0000 </r>
        <r>   -1.8465    1.0000 </r>
        <r>    2.1067    1.0000 </r>
        <r>    2.1067    1.0000 </r>
        <r>    8.9668    0.0000 </r>
        <r>    8.9668    0.0000 </r>
        <r>   12.1149    0.0000 </r>
        <r>   12.1149    0.0000 </r>
        <r>   16.4123    0.0000 </r>
        <r>   16.4123    0.0000 </r>
        <r>   18.8265    0.0000 </r>
        <r>   18.8265    0.0000 </r>
       </set>
       <set comment="kpoint 100">
        <r>   -1.8411    1.0000 </r>
        <r>   -1.8411    1.0000 </r>
        <r>    2.0808    1.0000 </r>
        <r>    2.0808    1.0000 </r>
        <r>    9.1147    0.0000 </r>
        <r>    9.1147    0.0000 </r>
        <r>   11.9369    0.0000 </r>
        <r>   11.9369    0.0000 </r>
        <r>   16.4129    0.0000 </r>
        <r>   16.4129    0.0000 </r>
        <r>   18.8367    0.0000 </r>
        <r>   18.8367    0.0000 </r>
       </set>
       <set comment="kpoint 101">
        <r>   -1.8361    1.0000 </r>
        <r>   -1.8361    1.0000 </r>
        <r>    2.0577    1.0000 </r>
        <r>    2.0577    1.0000 </r>
        <r>    9.2636    0.0000 </r>
        <r>    9.2636    0.0000 </r>
        <r>   11.7615    0.0000 </r>
        <r>   11.7615    0.0000 </r>
        <r>   16.4135    0.0000 </r>
        <r>   16.4135    0.0000 </r>
        <r>   18.8460    0.0000 </r>
        <r>   18.8460    0.0000 </r>
       </set>
       <set comment="kpoint 102">
        <r>   -1.8317    1.0000 </r>
        <r>   -1.8317    1.0000 </r>
        <r>    2.0374    1.0000 </r>
        <r>    2.0374    1.0000 </r>
        <r>    9.4128    0.0000 </r>
        <r>    9.4128    0.0000 </r>
        <r>   11.5893    0.0000 </r>
        <r>   11.5893    0.0000 </r>
        <r>   16.4140    0.0000 </r>
        <r>   16.4140    0.0000 </r>
        <r>   18.8543    0.0000 </r>
        <r>   18.8544    0.0000 </r>
       </set>
       <set comment="kpoint 103">
        <r>   -1.8279    1.0000 </r>
        <r>   -1.8279    1.0000 </r>
        <r>    2.0201    1.0000 </r>
        <r>    2.0201    1.0000 </r>
        <r>    9.5611    0.0000 </r>
        <r>    9.5611    0.0000 </r>
        <r>   11.4216    0.0000 </r>
        <r>   11.4216    0.0000 </r>
        <r>   16.4145    0.0000 </r>
        <r>   16.4145    0.0000 </r>
        <r>   18.8615    0.0000 </r>
        <r>   18.8615    0.0000 </r>
       </set>
       <set comment="kpoint 104">
        <r>   -1.8247    1.0000 </r>
        <r>   -1.8247    1.0000 </r>
        <r>    2.0058    1.0000 </r>
        <r>    2.0058    1.0000 </r>
        <r>    9.7066    0.0000 </r>
        <r>    9.7066    0.0000 </r>
        <r>   11.2603    0.0000 </r>
        <r>   11.2603    0.0000 </r>
        <r>   16.4150    0.0000 </r>
        <r>   16.4150    0.0000 </r>
        <r>   18.8673    0.0000 </r>
        <r>   18.8673    0.0000 </r>
       </set>
       <set comment="kpoint 105">
        <r>   -1.8222    1.0000 </r>
        <r>   -1.8222    1.0000 </r>
        <r>    1.9946    1.0000 </r>
        <r>    1.9946    1.0000 </r>
        <r>    9.8453    0.0000 </r>
        <r>    9.8453    0.0000 </r>
        <r>   11.1093    0.0000 </r>
        <r>   11.1093    0.0000 </r>
        <r>   16.4153    0.0000 </r>
        <r>   16.4153    0.0000 </r>
        <r>   18.8720    0.0000 </r>
        <r>   18.8721    0.0000 </r>
       </set>
       <set comment="kpoint 106">
        <r>   -1.8204    1.0000 </r>
        <r>   -1.8204    1.0000 </r>
        <r>    1.9866    1.0000 </r>
        <r>    1.9866    1.0000 </r>
        <r>    9.9694    0.0000 </r>
        <r>    9.9694    0.0000 </r>
        <r>   10.9763    0.0000 </r>
        <r>   10.9763    0.0000 </r>
        <r>   16.4156    0.0000 </r>
        <r>   16.4156    0.0000 </r>
        <r>   18.8755    0.0000 </r>
        <r>   18.8761    0.0000 </r>
       </set>
       <set comment="kpoint 107">
        <r>   -1.8194    1.0000 </r>
        <r>   -1.8194    1.0000 </r>
        <r>    1.9818    1.0000 </r>
        <r>    1.9818    1.0000 </r>
        <r>   10.0631    0.0000 </r>
        <r>   10.0631    0.0000 </r>
        <r>   10.8773    0.0000 </r>
        <r>   10.8773    0.0000 </r>
        <r>   16.4157    0.0000 </r>
        <r>   16.4157    0.0000 </r>
        <r>   18.8776    0.0000 </r>
        <r>   18.8776    0.0000 </r>
       </set>
       <set comment="kpoint 108">
        <r>   -1.8190    1.0000 </r>
        <r>   -1.8190    1.0000 </r>
        <r>    1.9802    1.0000 </r>
        <r>    1.9802    1.0000 </r>
        <r>   10.0999    0.0000 </r>
        <r>   10.0999    0.0000 </r>
        <r>   10.8388    0.0000 </r>
        <r>   10.8388    0.0000 </r>
        <r>   16.4158    0.0000 </r>
        <r>   16.4158    0.0000 </r>
        <r>   18.8783    0.0000 </r>
        <r>   18.8783    0.0000 </r>
       </set>
       <set comment="kpoint 109">
        <r>   -1.8190    1.0000 </r>
        <r>   -1.8190    1.0000 </r>
        <r>    1.9802    1.0000 </r>
        <r>    1.9802    1.0000 </r>
        <r>   10.0999    0.0000 </r>
        <r>   10.0999    0.0000 </r>
        <r>   10.8388    0.0000 </r>
        <r>   10.8388    0.0000 </r>
        <r>   16.4158    0.0000 </r>
        <r>   16.4158    0.0000 </r>
        <r>   18.8783    0.0000 </r>
        <r>   18.8783    0.0000 </r>
       </set>
       <set comment="kpoint 110">
        <r>   -1.8514    1.0000 </r>
        <r>   -1.7869    1.0000 </r>
        <r>    1.9558    1.0000 </r>
        <r>    2.0062    1.0000 </r>
        <r>   10.0569    0.0000 </r>
        <r>   10.1214    0.0000 </r>
        <r>   10.8307    0.0000 </r>
        <r>   10.8702    0.0000 </r>
        <r>   16.3545    0.0000 </r>
        <r>   16.4736    0.0000 </r>
        <r>   18.8170    0.0000 </r>
        <r>   18.9422    0.0000 </r>
       </set>
       <set comment="kpoint 111">
        <r>   -1.8828    1.0000 </r>
        <r>   -1.7564    1.0000 </r>
        <r>    1.9319    1.0000 </r>
        <r>    2.0348    1.0000 </r>
        <r>    9.9820    0.0000 </r>
        <r>   10.1369    0.0000 </r>
        <r>   10.8568    0.0000 </r>
        <r>   10.9090    0.0000 </r>
        <r>   16.2912    0.0000 </r>
        <r>   16.5262    0.0000 </r>
        <r>   18.7594    0.0000 </r>
        <r>   19.0082    0.0000 </r>
       </set>
       <set comment="kpoint 112">
        <r>   -1.9134    1.0000 </r>
        <r>   -1.7274    1.0000 </r>
        <r>    1.9087    1.0000 </r>
        <r>    2.0660    1.0000 </r>
        <r>    9.8849    0.0000 </r>
        <r>   10.1469    0.0000 </r>
        <r>   10.9072    0.0000 </r>
        <r>   10.9547    0.0000 </r>
        <r>   16.2259    0.0000 </r>
        <r>   16.5726    0.0000 </r>
        <r>   18.7067    0.0000 </r>
        <r>   19.0759    0.0000 </r>
       </set>
       <set comment="kpoint 113">
        <r>   -1.9430    1.0000 </r>
        <r>   -1.6999    1.0000 </r>
        <r>    1.8861    1.0000 </r>
        <r>    2.0996    1.0000 </r>
        <r>    9.7746    0.0000 </r>
        <r>   10.1522    0.0000 </r>
        <r>   10.9732    0.0000 </r>
        <r>   11.0065    0.0000 </r>
        <r>   16.1588    0.0000 </r>
        <r>   16.6114    0.0000 </r>
        <r>   18.6604    0.0000 </r>
        <r>   19.1453    0.0000 </r>
       </set>
       <set comment="kpoint 114">
        <r>   -1.9717    1.0000 </r>
        <r>   -1.6740    1.0000 </r>
        <r>    1.8642    1.0000 </r>
        <r>    2.1357    1.0000 </r>
        <r>    9.6565    0.0000 </r>
        <r>   10.1536    0.0000 </r>
        <r>   11.0493    0.0000 </r>
        <r>   11.0635    0.0000 </r>
        <r>   16.0901    0.0000 </r>
        <r>   16.6416    0.0000 </r>
        <r>   18.6217    0.0000 </r>
        <r>   19.2161    0.0000 </r>
       </set>
       <set comment="kpoint 115">
        <r>   -1.9995    1.0000 </r>
        <r>   -1.6496    1.0000 </r>
        <r>    1.8429    1.0000 </r>
        <r>    2.1742    1.0000 </r>
        <r>    9.5342    0.0000 </r>
        <r>   10.1518    0.0000 </r>
        <r>   11.1251    0.0000 </r>
        <r>   11.1320    0.0000 </r>
        <r>   16.0199    0.0000 </r>
        <r>   16.6618    0.0000 </r>
        <r>   18.5918    0.0000 </r>
        <r>   19.2878    0.0000 </r>
       </set>
       <set comment="kpoint 116">
        <r>   -2.0263    1.0000 </r>
        <r>   -1.6267    1.0000 </r>
        <r>    1.8222    1.0000 </r>
        <r>    2.2148    1.0000 </r>
        <r>    9.4099    0.0000 </r>
        <r>   10.1475    0.0000 </r>
        <r>   11.1904    0.0000 </r>
        <r>   11.2194    0.0000 </r>
        <r>   15.9483    0.0000 </r>
        <r>   16.6709    0.0000 </r>
        <r>   18.5722    0.0000 </r>
        <r>   19.3608    0.0000 </r>
       </set>
       <set comment="kpoint 117">
        <r>   -2.0522    1.0000 </r>
        <r>   -1.6052    1.0000 </r>
        <r>    1.8022    1.0000 </r>
        <r>    2.2577    1.0000 </r>
        <r>    9.2847    0.0000 </r>
        <r>   10.1414    0.0000 </r>
        <r>   11.2589    0.0000 </r>
        <r>   11.3102    0.0000 </r>
        <r>   15.8755    0.0000 </r>
        <r>   16.6683    0.0000 </r>
        <r>   18.5636    0.0000 </r>
        <r>   19.4348    0.0000 </r>
       </set>
       <set comment="kpoint 118">
        <r>   -2.0772    1.0000 </r>
        <r>   -1.5851    1.0000 </r>
        <r>    1.7828    1.0000 </r>
        <r>    2.3026    1.0000 </r>
        <r>    9.1594    0.0000 </r>
        <r>   10.1339    0.0000 </r>
        <r>   11.3302    0.0000 </r>
        <r>   11.4036    0.0000 </r>
        <r>   15.8014    0.0000 </r>
        <r>   16.6534    0.0000 </r>
        <r>   18.5666    0.0000 </r>
        <r>   19.5100    0.0000 </r>
       </set>
       <set comment="kpoint 119">
        <r>   -2.1013    1.0000 </r>
        <r>   -1.5664    1.0000 </r>
        <r>    1.7642    1.0000 </r>
        <r>    2.3494    1.0000 </r>
        <r>    9.0348    0.0000 </r>
        <r>   10.1253    0.0000 </r>
        <r>   11.4036    0.0000 </r>
        <r>   11.4992    0.0000 </r>
        <r>   15.7263    0.0000 </r>
        <r>   16.6263    0.0000 </r>
        <r>   18.5812    0.0000 </r>
        <r>   19.5857    0.0000 </r>
       </set>
       <set comment="kpoint 120">
        <r>   -2.1244    1.0000 </r>
        <r>   -1.5490    1.0000 </r>
        <r>    1.7462    1.0000 </r>
        <r>    2.3979    1.0000 </r>
        <r>    8.9112    0.0000 </r>
        <r>   10.1161    0.0000 </r>
        <r>   11.4791    0.0000 </r>
        <r>   11.5966    0.0000 </r>
        <r>   15.6501    0.0000 </r>
        <r>   16.5876    0.0000 </r>
        <r>   18.6073    0.0000 </r>
        <r>   19.6621    0.0000 </r>
       </set>
       <set comment="kpoint 121">
        <r>   -2.1466    1.0000 </r>
        <r>   -1.5328    1.0000 </r>
        <r>    1.7289    1.0000 </r>
        <r>    2.4480    1.0000 </r>
        <r>    8.7890    0.0000 </r>
        <r>   10.1063    0.0000 </r>
        <r>   11.5561    0.0000 </r>
        <r>   11.6954    0.0000 </r>
        <r>   15.5728    0.0000 </r>
        <r>   16.5379    0.0000 </r>
        <r>   18.6436    0.0000 </r>
        <r>   19.7392    0.0000 </r>
       </set>
       <set comment="kpoint 122">
        <r>   -2.1678    1.0000 </r>
        <r>   -1.5179    1.0000 </r>
        <r>    1.7123    1.0000 </r>
        <r>    2.4996    1.0000 </r>
        <r>    8.6685    0.0000 </r>
        <r>   10.0963    0.0000 </r>
        <r>   11.6347    0.0000 </r>
        <r>   11.7956    0.0000 </r>
        <r>   15.4947    0.0000 </r>
        <r>   16.4785    0.0000 </r>
        <r>   18.6894    0.0000 </r>
        <r>   19.8169    0.0000 </r>
       </set>
       <set comment="kpoint 123">
        <r>   -2.1881    1.0000 </r>
        <r>   -1.5041    1.0000 </r>
        <r>    1.6963    1.0000 </r>
        <r>    2.5523    1.0000 </r>
        <r>    8.5499    0.0000 </r>
        <r>   10.0861    0.0000 </r>
        <r>   11.7145    0.0000 </r>
        <r>   11.8970    0.0000 </r>
        <r>   15.4157    0.0000 </r>
        <r>   16.4104    0.0000 </r>
        <r>   18.7436    0.0000 </r>
        <r>   19.8947    0.0000 </r>
       </set>
       <set comment="kpoint 124">
        <r>   -2.2075    1.0000 </r>
        <r>   -1.4915    1.0000 </r>
        <r>    1.6811    1.0000 </r>
        <r>    2.6061    1.0000 </r>
        <r>    8.4335    0.0000 </r>
        <r>   10.0760    0.0000 </r>
        <r>   11.7953    0.0000 </r>
        <r>   11.9995    0.0000 </r>
        <r>   15.3359    0.0000 </r>
        <r>   16.3349    0.0000 </r>
        <r>   18.8052    0.0000 </r>
        <r>   19.9734    0.0000 </r>
       </set>
       <set comment="kpoint 125">
        <r>   -2.2259    1.0000 </r>
        <r>   -1.4798    1.0000 </r>
        <r>    1.6666    1.0000 </r>
        <r>    2.6608    1.0000 </r>
        <r>    8.3195    0.0000 </r>
        <r>   10.0660    0.0000 </r>
        <r>   11.8772    0.0000 </r>
        <r>   12.1030    0.0000 </r>
        <r>   15.2554    0.0000 </r>
        <r>   16.2529    0.0000 </r>
        <r>   18.8731    0.0000 </r>
        <r>   20.0515    0.0000 </r>
       </set>
       <set comment="kpoint 126">
        <r>   -2.2434    1.0000 </r>
        <r>   -1.4692    1.0000 </r>
        <r>    1.6529    1.0000 </r>
        <r>    2.7159    1.0000 </r>
        <r>    8.2083    0.0000 </r>
        <r>   10.0562    0.0000 </r>
        <r>   11.9598    0.0000 </r>
        <r>   12.2074    0.0000 </r>
        <r>   15.1741    0.0000 </r>
        <r>   16.1655    0.0000 </r>
        <r>   18.9465    0.0000 </r>
        <r>   20.1313    0.0000 </r>
       </set>
       <set comment="kpoint 127">
        <r>   -2.2600    1.0000 </r>
        <r>   -1.4595    1.0000 </r>
        <r>    1.6398    1.0000 </r>
        <r>    2.7714    1.0000 </r>
        <r>    8.0999    0.0000 </r>
        <r>   10.0467    0.0000 </r>
        <r>   12.0432    0.0000 </r>
        <r>   12.3127    0.0000 </r>
        <r>   15.0923    0.0000 </r>
        <r>   16.0735    0.0000 </r>
        <r>   19.0246    0.0000 </r>
        <r>   20.2091    0.0000 </r>
       </set>
       <set comment="kpoint 128">
        <r>   -2.2756    1.0000 </r>
        <r>   -1.4506    1.0000 </r>
        <r>    1.6274    1.0000 </r>
        <r>    2.8269    1.0000 </r>
        <r>    7.9948    0.0000 </r>
        <r>   10.0375    0.0000 </r>
        <r>   12.1272    0.0000 </r>
        <r>   12.4188    0.0000 </r>
        <r>   15.0098    0.0000 </r>
        <r>   15.9775    0.0000 </r>
        <r>   19.1068    0.0000 </r>
        <r>   20.2887    0.0000 </r>
       </set>
       <set comment="kpoint 129">
        <r>   -2.2902    1.0000 </r>
        <r>   -1.4426    1.0000 </r>
        <r>    1.6158    1.0000 </r>
        <r>    2.8821    1.0000 </r>
        <r>    7.8931    0.0000 </r>
        <r>   10.0287    0.0000 </r>
        <r>   12.2116    0.0000 </r>
        <r>   12.5256    0.0000 </r>
        <r>   14.9269    0.0000 </r>
        <r>   15.8781    0.0000 </r>
        <r>   19.1925    0.0000 </r>
        <r>   20.3716    0.0000 </r>
       </set>
       <set comment="kpoint 130">
        <r>   -2.3040    1.0000 </r>
        <r>   -1.4354    1.0000 </r>
        <r>    1.6050    1.0000 </r>
        <r>    2.9367    1.0000 </r>
        <r>    7.7952    0.0000 </r>
        <r>   10.0203    0.0000 </r>
        <r>   12.2965    0.0000 </r>
        <r>   12.6332    0.0000 </r>
        <r>   14.8435    0.0000 </r>
        <r>   15.7762    0.0000 </r>
        <r>   19.2811    0.0000 </r>
        <r>   20.4467    0.0000 </r>
       </set>
       <set comment="kpoint 131">
        <r>   -2.3168    1.0000 </r>
        <r>   -1.4288    1.0000 </r>
        <r>    1.5948    1.0000 </r>
        <r>    2.9903    1.0000 </r>
        <r>    7.7014    0.0000 </r>
        <r>   10.0124    0.0000 </r>
        <r>   12.3816    0.0000 </r>
        <r>   12.7415    0.0000 </r>
        <r>   14.7599    0.0000 </r>
        <r>   15.6719    0.0000 </r>
        <r>   19.3722    0.0000 </r>
        <r>   20.5243    0.0000 </r>
       </set>
       <set comment="kpoint 132">
        <r>   -2.3286    1.0000 </r>
        <r>   -1.4230    1.0000 </r>
        <r>    1.5854    1.0000 </r>
        <r>    3.0426    1.0000 </r>
        <r>    7.6121    0.0000 </r>
        <r>   10.0050    0.0000 </r>
        <r>   12.4670    0.0000 </r>
        <r>   12.8504    0.0000 </r>
        <r>   14.6761    0.0000 </r>
        <r>   15.5658    0.0000 </r>
        <r>   19.4659    0.0000 </r>
        <r>   20.6068    0.0000 </r>
       </set>
       <set comment="kpoint 133">
        <r>   -2.3395    1.0000 </r>
        <r>   -1.4178    1.0000 </r>
        <r>    1.5767    1.0000 </r>
        <r>    3.0931    1.0000 </r>
        <r>    7.5275    0.0000 </r>
        <r>    9.9981    0.0000 </r>
        <r>   12.5523    0.0000 </r>
        <r>   12.9598    0.0000 </r>
        <r>   14.5921    0.0000 </r>
        <r>   15.4581    0.0000 </r>
        <r>   19.5610    0.0000 </r>
        <r>   20.7319    0.0000 </r>
       </set>
       <set comment="kpoint 134">
        <r>   -2.3494    1.0000 </r>
        <r>   -1.4131    1.0000 </r>
        <r>    1.5688    1.0000 </r>
        <r>    3.1415    1.0000 </r>
        <r>    7.4482    0.0000 </r>
        <r>    9.9917    0.0000 </r>
        <r>   12.6375    0.0000 </r>
        <r>   13.0697    0.0000 </r>
        <r>   14.5082    0.0000 </r>
        <r>   15.3491    0.0000 </r>
        <r>   19.6579    0.0000 </r>
        <r>   20.7549    0.0000 </r>
       </set>
       <set comment="kpoint 135">
        <r>   -2.3584    1.0000 </r>
        <r>   -1.4091    1.0000 </r>
        <r>    1.5616    1.0000 </r>
        <r>    3.1873    1.0000 </r>
        <r>    7.3746    0.0000 </r>
        <r>    9.9859    0.0000 </r>
        <r>   12.7223    0.0000 </r>
        <r>   13.1800    0.0000 </r>
        <r>   14.4246    0.0000 </r>
        <r>   15.2390    0.0000 </r>
        <r>   19.7569    0.0000 </r>
        <r>   21.1245    0.0000 </r>
       </set>
       <set comment="kpoint 136">
        <r>   -2.3665    1.0000 </r>
        <r>   -1.4055    1.0000 </r>
        <r>    1.5552    1.0000 </r>
        <r>    3.2300    1.0000 </r>
        <r>    7.3070    0.0000 </r>
        <r>    9.9807    0.0000 </r>
        <r>   12.8064    0.0000 </r>
        <r>   13.2906    0.0000 </r>
        <r>   14.3415    0.0000 </r>
        <r>   15.1283    0.0000 </r>
        <r>   19.8573    0.0000 </r>
        <r>   20.9045    0.0000 </r>
       </set>
       <set comment="kpoint 137">
        <r>   -2.3736    1.0000 </r>
        <r>   -1.4024    1.0000 </r>
        <r>    1.5495    1.0000 </r>
        <r>    3.2692    1.0000 </r>
        <r>    7.2459    0.0000 </r>
        <r>    9.9761    0.0000 </r>
        <r>   12.8895    0.0000 </r>
        <r>   13.4014    0.0000 </r>
        <r>   14.2594    0.0000 </r>
        <r>   15.0171    0.0000 </r>
        <r>   19.9643    0.0000 </r>
        <r>   21.0300    0.0000 </r>
       </set>
       <set comment="kpoint 138">
        <r>   -2.3798    1.0000 </r>
        <r>   -1.3998    1.0000 </r>
        <r>    1.5446    1.0000 </r>
        <r>    3.3043    1.0000 </r>
        <r>    7.1918    0.0000 </r>
        <r>    9.9720    0.0000 </r>
        <r>   12.9709    0.0000 </r>
        <r>   13.5123    0.0000 </r>
        <r>   14.1788    0.0000 </r>
        <r>   14.9057    0.0000 </r>
        <r>   20.0570    0.0000 </r>
        <r>   21.0842    0.0000 </r>
       </set>
       <set comment="kpoint 139">
        <r>   -2.3850    1.0000 </r>
        <r>   -1.3977    1.0000 </r>
        <r>    1.5405    1.0000 </r>
        <r>    3.3350    1.0000 </r>
        <r>    7.1451    0.0000 </r>
        <r>    9.9686    0.0000 </r>
        <r>   13.0498    0.0000 </r>
        <r>   13.6229    0.0000 </r>
        <r>   14.1006    0.0000 </r>
        <r>   14.7945    0.0000 </r>
        <r>   20.1603    0.0000 </r>
        <r>   21.0579    0.0000 </r>
       </set>
       <set comment="kpoint 140">
        <r>   -2.3892    1.0000 </r>
        <r>   -1.3959    1.0000 </r>
        <r>    1.5371    1.0000 </r>
        <r>    3.3607    1.0000 </r>
        <r>    7.1064    0.0000 </r>
        <r>    9.9658    0.0000 </r>
        <r>   13.1246    0.0000 </r>
        <r>   13.7326    0.0000 </r>
        <r>   14.0264    0.0000 </r>
        <r>   14.6842    0.0000 </r>
        <r>   20.2610    0.0000 </r>
        <r>   20.9867    0.0000 </r>
       </set>
       <set comment="kpoint 141">
        <r>   -2.3925    1.0000 </r>
        <r>   -1.3946    1.0000 </r>
        <r>    1.5344    1.0000 </r>
        <r>    3.3812    1.0000 </r>
        <r>    7.0758    0.0000 </r>
        <r>    9.9636    0.0000 </r>
        <r>   13.1929    0.0000 </r>
        <r>   13.8405    0.0000 </r>
        <r>   13.9586    0.0000 </r>
        <r>   14.5758    0.0000 </r>
        <r>   20.3575    0.0000 </r>
        <r>   21.0025    0.0000 </r>
       </set>
       <set comment="kpoint 142">
        <r>   -2.3949    1.0000 </r>
        <r>   -1.3937    1.0000 </r>
        <r>    1.5325    1.0000 </r>
        <r>    3.3961    1.0000 </r>
        <r>    7.0537    0.0000 </r>
        <r>    9.9620    0.0000 </r>
        <r>   13.2504    0.0000 </r>
        <r>   13.9015    0.0000 </r>
        <r>   13.9435    0.0000 </r>
        <r>   14.4723    0.0000 </r>
        <r>   20.4512    0.0000 </r>
        <r>   20.8574    0.0000 </r>
       </set>
       <set comment="kpoint 143">
        <r>   -2.3963    1.0000 </r>
        <r>   -1.3931    1.0000 </r>
        <r>    1.5314    1.0000 </r>
        <r>    3.4051    1.0000 </r>
        <r>    7.0403    0.0000 </r>
        <r>    9.9610    0.0000 </r>
        <r>   13.2903    0.0000 </r>
        <r>   13.8617    0.0000 </r>
        <r>   14.0327    0.0000 </r>
        <r>   14.3829    0.0000 </r>
        <r>   20.5587    0.0000 </r>
        <r>   20.7824    0.0000 </r>
       </set>
       <set comment="kpoint 144">
        <r>   -2.3968    1.0000 </r>
        <r>   -1.3929    1.0000 </r>
        <r>    1.5310    1.0000 </r>
        <r>    3.4081    1.0000 </r>
        <r>    7.0358    0.0000 </r>
        <r>    9.9607    0.0000 </r>
        <r>   13.3050    0.0000 </r>
        <r>   13.8472    0.0000 </r>
        <r>   14.0751    0.0000 </r>
        <r>   14.3403    0.0000 </r>
        <r>   20.5907    0.0000 </r>
        <r>   20.7406    0.0000 </r>
       </set>
       <set comment="kpoint 145">
        <r>   -2.3968    1.0000 </r>
        <r>   -1.3929    1.0000 </r>
        <r>    1.5310    1.0000 </r>
        <r>    3.4081    1.0000 </r>
        <r>    7.0358    0.0000 </r>
        <r>    9.9607    0.0000 </r>
        <r>   13.3050    0.0000 </r>
        <r>   13.8472    0.0000 </r>
        <r>   14.0751    0.0000 </r>
        <r>   14.3403    0.0000 </r>
        <r>   20.6330    0.0000 </r>
        <r>   20.7773    0.0000 </r>
       </set>
       <set comment="kpoint 146">
        <r>   -2.4993    1.0000 </r>
        <r>   -1.2878    1.0000 </r>
        <r>    1.4680    1.0000 </r>
        <r>    3.4817    1.0000 </r>
        <r>    7.1212    0.0000 </r>
        <r>   10.3949    0.0000 </r>
        <r>   13.0418    0.0000 </r>
        <r>   13.5798    0.0000 </r>
        <r>   13.8637    0.0000 </r>
        <r>   14.1124    0.0000 </r>
        <r>   20.6731    0.0000 </r>
        <r>   20.9630    0.0000 </r>
       </set>
       <set comment="kpoint 147">
        <r>   -2.6147    1.0000 </r>
        <r>   -1.1742    1.0000 </r>
        <r>    1.4292    1.0000 </r>
        <r>    3.5603    1.0000 </r>
        <r>    7.2124    0.0000 </r>
        <r>   10.8330    0.0000 </r>
        <r>   12.7838    0.0000 </r>
        <r>   13.3249    0.0000 </r>
        <r>   13.6552    0.0000 </r>
        <r>   13.8919    0.0000 </r>
        <r>   20.6003    0.0000 </r>
        <r>   21.2040    0.0000 </r>
       </set>
       <set comment="kpoint 148">
        <r>   -2.7418    1.0000 </r>
        <r>   -1.0521    1.0000 </r>
        <r>    1.4143    1.0000 </r>
        <r>    3.6436    1.0000 </r>
        <r>    7.3091    0.0000 </r>
        <r>   11.2669    0.0000 </r>
        <r>   12.5315    0.0000 </r>
        <r>   13.0896    0.0000 </r>
        <r>   13.4508    0.0000 </r>
        <r>   13.6797    0.0000 </r>
        <r>   20.4097    0.0000 </r>
        <r>   21.0134    0.0000 </r>
       </set>
       <set comment="kpoint 149">
        <r>   -2.8791    1.0000 </r>
        <r>   -0.9215    1.0000 </r>
        <r>    1.4221    1.0000 </r>
        <r>    3.7313    1.0000 </r>
        <r>    7.4109    0.0000 </r>
        <r>   11.6740    0.0000 </r>
        <r>   12.2852    0.0000 </r>
        <r>   12.8957    0.0000 </r>
        <r>   13.2513    0.0000 </r>
        <r>   13.4762    0.0000 </r>
        <r>   20.1816    0.0000 </r>
        <r>   20.7616    0.0000 </r>
       </set>
       <set comment="kpoint 150">
        <r>   -3.0249    1.0000 </r>
        <r>   -0.7826    1.0000 </r>
        <r>    1.4513    1.0000 </r>
        <r>    3.8232    1.0000 </r>
        <r>    7.5171    0.0000 </r>
        <r>   11.9729    0.0000 </r>
        <r>   12.0453    0.0000 </r>
        <r>   12.8228    0.0000 </r>
        <r>   13.0576    0.0000 </r>
        <r>   13.2821    0.0000 </r>
        <r>   19.9440    0.0000 </r>
        <r>   20.5198    0.0000 </r>
       </set>
       <set comment="kpoint 151">
        <r>   -3.1773    1.0000 </r>
        <r>   -0.6354    1.0000 </r>
        <r>    1.5004    1.0000 </r>
        <r>    3.9186    1.0000 </r>
        <r>    7.6273    0.0000 </r>
        <r>   11.8120    0.0000 </r>
        <r>   12.0156    0.0000 </r>
        <r>   12.8707    0.0000 </r>
        <r>   13.0177    0.0000 </r>
        <r>   13.0982    0.0000 </r>
        <r>   19.7066    0.0000 </r>
        <r>   20.2872    0.0000 </r>
       </set>
       <set comment="kpoint 152">
        <r>   -3.3344    1.0000 </r>
        <r>   -0.4798    1.0000 </r>
        <r>    1.5677    1.0000 </r>
        <r>    4.0174    1.0000 </r>
        <r>    7.7408    0.0000 </r>
        <r>   11.5855    0.0000 </r>
        <r>   11.8787    0.0000 </r>
        <r>   12.6915    0.0000 </r>
        <r>   12.9247    0.0000 </r>
        <r>   13.4017    0.0000 </r>
        <r>   19.4728    0.0000 </r>
        <r>   20.0669    0.0000 </r>
       </set>
       <set comment="kpoint 153">
        <r>   -3.4945    1.0000 </r>
        <r>   -0.3160    1.0000 </r>
        <r>    1.6518    1.0000 </r>
        <r>    4.1188    1.0000 </r>
        <r>    7.8566    0.0000 </r>
        <r>   11.3660    0.0000 </r>
        <r>   11.6909    0.0000 </r>
        <r>   12.5208    0.0000 </r>
        <r>   12.7628    0.0000 </r>
        <r>   13.8436    0.0000 </r>
        <r>   19.2451    0.0000 </r>
        <r>   19.8605    0.0000 </r>
       </set>
       <set comment="kpoint 154">
        <r>   -3.6561    1.0000 </r>
        <r>   -0.1441    1.0000 </r>
        <r>    1.7511    1.0000 </r>
        <r>    4.2225    1.0000 </r>
        <r>    7.9738    0.0000 </r>
        <r>   11.1538    0.0000 </r>
        <r>   11.4912    0.0000 </r>
        <r>   12.3596    0.0000 </r>
        <r>   12.6130    0.0000 </r>
        <r>   14.3004    0.0000 </r>
        <r>   19.0241    0.0000 </r>
        <r>   19.6721    0.0000 </r>
       </set>
       <set comment="kpoint 155">
        <r>   -3.8178    1.0000 </r>
        <r>    0.0360    1.0000 </r>
        <r>    1.8642    1.0000 </r>
        <r>    4.3278    1.0000 </r>
        <r>    8.0912    0.0000 </r>
        <r>   10.9489    0.0000 </r>
        <r>   11.2907    0.0000 </r>
        <r>   12.2090    0.0000 </r>
        <r>   12.4758    0.0000 </r>
        <r>   14.7553    0.0000 </r>
        <r>   18.8089    0.0000 </r>
        <r>   19.5049    0.0000 </r>
       </set>
       <set comment="kpoint 156">
        <r>   -3.9784    1.0000 </r>
        <r>    0.2241    1.0000 </r>
        <r>    1.9900    1.0000 </r>
        <r>    4.4341    1.0000 </r>
        <r>    8.2073    0.0000 </r>
        <r>   10.7515    0.0000 </r>
        <r>   11.0936    0.0000 </r>
        <r>   12.0702    0.0000 </r>
        <r>   12.3521    0.0000 </r>
        <r>   15.1955    0.0000 </r>
        <r>   18.5992    0.0000 </r>
        <r>   19.3686    0.0000 </r>
       </set>
       <set comment="kpoint 157">
        <r>   -4.1368    1.0000 </r>
        <r>    0.4201    1.0000 </r>
        <r>    2.1273    1.0000 </r>
        <r>    4.5406    1.0000 </r>
        <r>    8.3206    0.0000 </r>
        <r>   10.5615    0.0000 </r>
        <r>   10.9016    0.0000 </r>
        <r>   11.9443    0.0000 </r>
        <r>   12.2422    0.0000 </r>
        <r>   15.6064    0.0000 </r>
        <r>   18.3849    0.0000 </r>
        <r>   18.9306    0.0000 </r>
       </set>
       <set comment="kpoint 158">
        <r>   -4.2922    1.0000 </r>
        <r>    0.6240    1.0000 </r>
        <r>    2.2751    1.0000 </r>
        <r>    4.6467    1.0000 </r>
        <r>    8.4290    0.0000 </r>
        <r>   10.3793    0.0000 </r>
        <r>   10.7156    0.0000 </r>
        <r>   11.8327    0.0000 </r>
        <r>   12.1474    0.0000 </r>
        <r>   15.9683    0.0000 </r>
        <r>   18.1260    0.0000 </r>
        <r>   18.4345    0.0000 </r>
       </set>
       <set comment="kpoint 159">
        <r>   -4.4439    1.0000 </r>
        <r>    0.8356    1.0000 </r>
        <r>    2.4325    1.0000 </r>
        <r>    4.7515    1.0000 </r>
        <r>    8.5305    0.0000 </r>
        <r>   10.2047    0.0000 </r>
        <r>   10.5361    0.0000 </r>
        <r>   11.7366    0.0000 </r>
        <r>   12.0681    0.0000 </r>
        <r>   16.2576    0.0000 </r>
        <r>   17.7318    0.0000 </r>
        <r>   18.1474    0.0000 </r>
       </set>
       <set comment="kpoint 160">
        <r>   -4.5911    1.0000 </r>
        <r>    1.0548    1.0000 </r>
        <r>    2.5986    1.0000 </r>
        <r>    4.8544    1.0000 </r>
        <r>    8.6229    0.0000 </r>
        <r>   10.0380    0.0000 </r>
        <r>   10.3634    0.0000 </r>
        <r>   11.6573    0.0000 </r>
        <r>   12.0050    0.0000 </r>
        <r>   16.4532    0.0000 </r>
        <r>   17.2639    0.0000 </r>
        <r>   17.9540    0.0000 </r>
       </set>
       <set comment="kpoint 161">
        <r>   -4.7333    1.0000 </r>
        <r>    1.2815    1.0000 </r>
        <r>    2.7726    1.0000 </r>
        <r>    4.9545    1.0000 </r>
        <r>    8.7040    0.0000 </r>
        <r>    9.8791    0.0000 </r>
        <r>   10.1977    0.0000 </r>
        <r>   11.5953    0.0000 </r>
        <r>   11.9588    0.0000 </r>
        <r>   16.5489    0.0000 </r>
        <r>   16.7870    0.0000 </r>
        <r>   17.7898    0.0000 </r>
       </set>
       <set comment="kpoint 162">
        <r>   -4.8701    1.0000 </r>
        <r>    1.5155    1.0000 </r>
        <r>    2.9536    1.0000 </r>
        <r>    5.0510    1.0000 </r>
        <r>    8.7720    0.0000 </r>
        <r>    9.7281    0.0000 </r>
        <r>   10.0389    0.0000 </r>
        <r>   11.5507    0.0000 </r>
        <r>   11.9300    0.0000 </r>
        <r>   16.3166    0.0000 </r>
        <r>   16.5561    0.0000 </r>
        <r>   17.6422    0.0000 </r>
       </set>
       <set comment="kpoint 163">
        <r>   -5.0010    1.0000 </r>
        <r>    1.7566    1.0000 </r>
        <r>    3.1408    1.0000 </r>
        <r>    5.1432    1.0000 </r>
        <r>    8.8256    0.0000 </r>
        <r>    9.5851    0.0000 </r>
        <r>    9.8870    0.0000 </r>
        <r>   11.5220    0.0000 </r>
        <r>   11.9193    0.0000 </r>
        <r>   15.8584    0.0000 </r>
        <r>   16.4953    0.0000 </r>
        <r>   17.5085    0.0000 </r>
       </set>
       <set comment="kpoint 164">
        <r>   -5.1257    1.0000 </r>
        <r>    2.0046    1.0000 </r>
        <r>    3.3333    1.0000 </r>
        <r>    5.2305    1.0000 </r>
        <r>    8.8641    0.0000 </r>
        <r>    9.4500    0.0000 </r>
        <r>    9.7422    0.0000 </r>
        <r>   11.5062    0.0000 </r>
        <r>   11.9270    0.0000 </r>
        <r>   15.4170    0.0000 </r>
        <r>   16.3855    0.0000 </r>
        <r>   17.3876    0.0000 </r>
       </set>
       <set comment="kpoint 165">
        <r>   -5.2440    1.0000 </r>
        <r>    2.2591    1.0000 </r>
        <r>    3.5301    1.0000 </r>
        <r>    5.3121    1.0000 </r>
        <r>    8.8879    0.0000 </r>
        <r>    9.3230    0.0000 </r>
        <r>    9.6042    0.0000 </r>
        <r>   11.4976    0.0000 </r>
        <r>   11.9534    0.0000 </r>
        <r>   14.9976    0.0000 </r>
        <r>   16.2401    0.0000 </r>
        <r>   17.2798    0.0000 </r>
       </set>
       <set comment="kpoint 166">
        <r>   -5.3555    1.0000 </r>
        <r>    2.5199    1.0000 </r>
        <r>    3.7304    1.0000 </r>
        <r>    5.3878    1.0000 </r>
        <r>    8.8980    0.0000 </r>
        <r>    9.2041    0.0000 </r>
        <r>    9.4729    0.0000 </r>
        <r>   11.4877    0.0000 </r>
        <r>   11.9983    0.0000 </r>
        <r>   14.6072    0.0000 </r>
        <r>   16.0682    0.0000 </r>
        <r>   17.1851    0.0000 </r>
       </set>
       <set comment="kpoint 167">
        <r>   -5.4601    1.0000 </r>
        <r>    2.7865    1.0000 </r>
        <r>    3.9328    1.0000 </r>
        <r>    5.4571    1.0000 </r>
        <r>    8.8963    0.0000 </r>
        <r>    9.0931    0.0000 </r>
        <r>    9.3484    0.0000 </r>
        <r>   11.4648    0.0000 </r>
        <r>   12.0620    0.0000 </r>
        <r>   14.2556    0.0000 </r>
        <r>   15.8763    0.0000 </r>
        <r>   17.1040    0.0000 </r>
       </set>
       <set comment="kpoint 168">
        <r>   -5.5575    1.0000 </r>
        <r>    3.0583    1.0000 </r>
        <r>    4.1363    1.0000 </r>
        <r>    5.5198    1.0000 </r>
        <r>    8.8848    0.0000 </r>
        <r>    8.9903    0.0000 </r>
        <r>    9.2302    0.0000 </r>
        <r>   11.4135    0.0000 </r>
        <r>   12.1432    0.0000 </r>
        <r>   13.9542    0.0000 </r>
        <r>   15.6692    0.0000 </r>
        <r>   17.0370    0.0000 </r>
       </set>
       <set comment="kpoint 169">
        <r>   -5.6476    1.0000 </r>
        <r>    3.3348    1.0000 </r>
        <r>    4.3392    1.0000 </r>
        <r>    5.5760    1.0000 </r>
        <r>    8.8654    0.0000 </r>
        <r>    8.8957    0.0000 </r>
        <r>    9.1185    0.0000 </r>
        <r>   11.3187    0.0000 </r>
        <r>   12.2416    0.0000 </r>
        <r>   13.7165    0.0000 </r>
        <r>   15.4520    0.0000 </r>
        <r>   16.9849    0.0000 </r>
       </set>
       <set comment="kpoint 170">
        <r>   -5.7303    1.0000 </r>
        <r>    3.6149    1.0000 </r>
        <r>    4.5401    1.0000 </r>
        <r>    5.6257    1.0000 </r>
        <r>    8.8093    0.0000 </r>
        <r>    8.8401    0.0000 </r>
        <r>    9.0132    0.0000 </r>
        <r>   11.1700    0.0000 </r>
        <r>   12.3561    0.0000 </r>
        <r>   13.5494    0.0000 </r>
        <r>   15.2294    0.0000 </r>
        <r>   16.9470    0.0000 </r>
       </set>
       <set comment="kpoint 171">
        <r>   -5.8055    1.0000 </r>
        <r>    3.8976    1.0000 </r>
        <r>    4.7370    1.0000 </r>
        <r>    5.6690    1.0000 </r>
        <r>    8.7311    0.0000 </r>
        <r>    8.8103    0.0000 </r>
        <r>    8.9140    0.0000 </r>
        <r>   10.9680    0.0000 </r>
        <r>   12.4841    0.0000 </r>
        <r>   13.4503    0.0000 </r>
        <r>   15.0067    0.0000 </r>
        <r>   16.9243    0.0000 </r>
       </set>
       <set comment="kpoint 172">
        <r>   -5.8729    1.0000 </r>
        <r>    4.1812    1.0000 </r>
        <r>    4.9275    1.0000 </r>
        <r>    5.7063    1.0000 </r>
        <r>    8.6610    0.0000 </r>
        <r>    8.7770    0.0000 </r>
        <r>    8.8210    0.0000 </r>
        <r>   10.7242    0.0000 </r>
        <r>   12.6240    0.0000 </r>
        <r>   13.4064    0.0000 </r>
        <r>   14.7891    0.0000 </r>
        <r>   16.9161    0.0000 </r>
       </set>
       <set comment="kpoint 173">
        <r>   -5.9327    1.0000 </r>
        <r>    4.4633    1.0000 </r>
        <r>    5.1091    1.0000 </r>
        <r>    5.7379    1.0000 </r>
        <r>    8.5992    0.0000 </r>
        <r>    8.7346    0.0000 </r>
        <r>    8.7405    0.0000 </r>
        <r>   10.4553    0.0000 </r>
        <r>   12.7727    0.0000 </r>
        <r>   13.4010    0.0000 </r>
        <r>   14.5818    0.0000 </r>
        <r>   16.9389    0.0000 </r>
       </set>
       <set comment="kpoint 174">
        <r>   -5.9845    1.0000 </r>
        <r>    4.7407    1.0000 </r>
        <r>    5.2787    1.0000 </r>
        <r>    5.7643    1.0000 </r>
        <r>    8.5455    0.0000 </r>
        <r>    8.6550    0.0000 </r>
        <r>    8.7002    0.0000 </r>
        <r>   10.1787    0.0000 </r>
        <r>   12.9261    0.0000 </r>
        <r>   13.4186    0.0000 </r>
        <r>   14.3899    0.0000 </r>
        <r>   16.9392    0.0000 </r>
       </set>
       <set comment="kpoint 175">
        <r>   -6.0286    1.0000 </r>
        <r>    5.0087    1.0000 </r>
        <r>    5.4328    1.0000 </r>
        <r>    5.7858    1.0000 </r>
        <r>    8.5001    0.0000 </r>
        <r>    8.5834    0.0000 </r>
        <r>    8.6548    0.0000 </r>
        <r>    9.9108    0.0000 </r>
        <r>   13.0793    0.0000 </r>
        <r>   13.4479    0.0000 </r>
        <r>   14.2181    0.0000 </r>
        <r>   16.9669    0.0000 </r>
       </set>
       <set comment="kpoint 176">
        <r>   -6.0647    1.0000 </r>
        <r>    5.2601    1.0000 </r>
        <r>    5.5676    1.0000 </r>
        <r>    5.8028    1.0000 </r>
        <r>    8.4630    0.0000 </r>
        <r>    8.5208    0.0000 </r>
        <r>    8.6016    0.0000 </r>
        <r>    9.6683    0.0000 </r>
        <r>   13.2254    0.0000 </r>
        <r>   13.4801    0.0000 </r>
        <r>   14.0709    0.0000 </r>
        <r>   17.0000    0.0000 </r>
       </set>
       <set comment="kpoint 177">
        <r>   -6.0928    1.0000 </r>
        <r>    5.4845    1.0000 </r>
        <r>    5.6789    1.0000 </r>
        <r>    5.8156    1.0000 </r>
        <r>    8.4341    0.0000 </r>
        <r>    8.4689    0.0000 </r>
        <r>    8.5395    0.0000 </r>
        <r>    9.4678    0.0000 </r>
        <r>   13.3559    0.0000 </r>
        <r>   13.5097    0.0000 </r>
        <r>   13.9519    0.0000 </r>
        <r>   17.0358    0.0000 </r>
       </set>
       <set comment="kpoint 178">
        <r>   -6.1128    1.0000 </r>
        <r>    5.6669    1.0000 </r>
        <r>    5.7622    1.0000 </r>
        <r>    5.8245    1.0000 </r>
        <r>    8.4135    0.0000 </r>
        <r>    8.4298    0.0000 </r>
        <r>    8.4732    0.0000 </r>
        <r>    9.3226    0.0000 </r>
        <r>   13.4606    0.0000 </r>
        <r>   13.5331    0.0000 </r>
        <r>   13.8645    0.0000 </r>
        <r>   17.0725    0.0000 </r>
       </set>
       <set comment="kpoint 179">
        <r>   -6.1249    1.0000 </r>
        <r>    5.7885    1.0000 </r>
        <r>    5.8140    1.0000 </r>
        <r>    5.8298    1.0000 </r>
        <r>    8.4011    0.0000 </r>
        <r>    8.4053    0.0000 </r>
        <r>    8.4186    0.0000 </r>
        <r>    9.2374    0.0000 </r>
        <r>   13.5291    0.0000 </r>
        <r>   13.5480    0.0000 </r>
        <r>   13.8110    0.0000 </r>
        <r>   17.0790    0.0000 </r>
       </set>
       <set comment="kpoint 180">
        <r>   -6.1289    1.0000 </r>
        <r>    5.8315    1.0000 </r>
        <r>    5.8315    1.0000 </r>
        <r>    5.8315    1.0000 </r>
        <r>    8.3969    0.0000 </r>
        <r>    8.3969    0.0000 </r>
        <r>    8.3969    0.0000 </r>
        <r>    9.2098    0.0000 </r>
        <r>   13.5531    0.0000 </r>
        <r>   13.5531    0.0000 </r>
        <r>   13.7930    0.0000 </r>
        <r>   17.0859    0.0000 </r>
       </set>
      </set>
     </set>
    </array>
   </eigenvalues>
   <array>
    <dimension dim="1">ion</dimension>
    <dimension dim="2">band</dimension>
    <dimension dim="3">kpoint</dimension>
    <dimension dim="4">spin</dimension>
    <field>    s</field>
    <field>   py</field>
    <field>   pz</field>
    <field>   px</field>
    <field>  dxy</field>
    <field>  dyz</field>
    <field>  dz2</field>
    <field>  dxz</field>
    <field>x2-y2</field>
    <set>
     <set comment="spin1">
      <set comment="kpoint 1">
       <set comment="band 1">
        <r>  0.2251  0.0046  0.0046  0.0046  0.0000  0.0000  0.0000  0.0000  0.0000 </r>
        <r>  0.2251  0.0046  0.0046  0.0046  0.0000  0.0000  0.0000  0.0000  0.0000 </r>
       </set>
       <set comment="band 2">
        <r>  0.0979  0.0315  0.0315  0.0315  0.0000  0.0000  0.0000  0.0000  0.0000 </r>
        <r>  0.0979  0.0315  0.0315  0.0315  0.0000  0.0000  0.0000  0.0000  0.0000 </r>
       </set>
       <set comment="band 3">
        <r>  0.0000  0.0992  0.0182  0.1009  0.0000  0.0000  0.0000  0.0000  0.0000 </r>
        <r>  0.0000  0.0992  0.0182  0.1009  0.0000  0.0000  0.0000  0.0000  0.0000 </r>
       </set>
       <set comment="band 4">
        <r>  0.0000  0.0464  0.1273  0.0447  0.0000  0.0000  0.0000  0.0000  0.0000 </r>
        <r>  0.0000  0.0464  0.1273  0.0447  0.0000  0.0000  0.0000  0.0000  0.0000 </r>
       </set>
       <set comment="band 5">
        <r>  0.1860  0.0064  0.0064  0.0064  0.0000  0.0000  0.0000  0.0000  0.0000 </r>
        <r>  0.1860  0.0064  0.0064  0.0064  0.0000  0.0000  0.0000  0.0000  0.0000 </r>
       </set>
       <set comment="band 6">
        <r>  0.0000  0.0008  0.0418  0.0516  0.0000  0.0000  0.0000  0.0000  0.0000 </r>
        <r>  0.0000  0.0008  0.0418  0.0516  0.0000  0.0000  0.0000  0.0000  0.0000 </r>
       </set>
       <set comment="band 7">
        <r>  0.0000  0.0620  0.0210  0.0112  0.0000  0.0000  0.0000  0.0000  0.0000 </r>
        <r>  0.0000  0.0620  0.0210  0.0112  0.0000  0.0000  0.0000  0.0000  0.0000 </r>
       </set>
       <set comment="band 8">
        <r>  0.0059  0.0176  0.0176  0.0175  0.0000  0.0000  0.0000  0.0000  0.0000 </r>
        <r>  0.0059  0.0176  0.0176  0.0176  0.0000  0.0000  0.0000  0.0000  0.0000 </r>
       </set>
       <set comment="band 9">
        <r>  0.0000  0.0002  0.0000  0.0001  0.0000  0.0000  0.0000  0.0000  0.0000 </r>
        <r>  0.0000  0.0002  0.0000  0.0001  0.0000  0.0000  0.0000  0.0000  0.0000 </r>
       </set>
       <set comment="band 10">
        <r>  0.0000  0.0000  0.0002  0.0002  0.0000  0.0000  0.0000  0.0000  0.0000 </r>
        <r>  0.0000  0.0000  0.0001  0.0001  0.0000  0.0000  0.0000  0.0000  0.0000 </r>
       </set>
       <set comment="band 11">
        <r>  0.0000  0.0294  0.0762  0.0106  0.0000  0.0000  0.0000  0.0000  0.0000 </r>
        <r>  0.0000  0.0295  0.0760  0.0107  0.0000  0.0000  0.0000  0.0000  0.0000 </r>
       </set>
       <set comment="band 12">
        <r>  0.0367  0.0611  0.0479  0.0400  0.0000  0.0000  0.0000  0.0000  0.0000 </r>
        <r>  0.0362  0.0615  0.0484  0.0404  0.0000  0.0000  0.0000  0.0000  0.0000 </r>
       </set>
      </set>
      <set comment="kpoint 2">
       <set comment="band 1">
        <r>  0.2247  0.0046  0.0046  0.0046  0.0000  0.0000  0.0000  0.0000  0.0000 </r>
        <r>  0.2247  0.0046  0.0046  0.0046  0.0000  0.0000  0.0000  0.0000  0.0000 </r>
       </set>
       <set comment="band 2">
        <r>  0.0983  0.0315  0.0315  0.0315  0.0000  0.0000  0.0000  0.0000  0.0000 </r>
        <r>  0.0983  0.0315  0.0315  0.0315  0.0000  0.0000  0.0000  0.0000  0.0000 </r>
       </set>
       <set comment="band 3">
        <r>  0.0000  0.0160  0.0621  0.1402  0.0000  0.0000  0.0000  0.0000  0.0000 </r>
        <r>  0.0000  0.0160  0.0621  0.1402  0.0000  0.0000  0.0000  0.0000  0.0000 </r>
       </set>
       <set comment="band 4">
        <r>  0.0000  0.1295  0.0835  0.0054  0.0000  0.0000  0.0000  0.0000  0.0000 </r>
        <r>  0.0000  0.1295  0.0835  0.0054  0.0000  0.0000  0.0000  0.0000  0.0000 </r>
       </set>
       <set comment="band 5">
        <r>  0.1859  0.0064  0.0064  0.0064  0.0000  0.0000  0.0000  0.0000  0.0000 </r>
        <r>  0.1859  0.0064  0.0064  0.0064  0.0000  0.0000  0.0000  0.0000  0.0000 </r>
       </set>
       <set comment="band 6">
        <r>  0.0000  0.0005  0.0500  0.0439  0.0000  0.0000  0.0000  0.0000  0.0000 </r>
        <r>  0.0000  0.0005  0.0500  0.0439  0.0000  0.0000  0.0000  0.0000  0.0000 </r>
       </set>
       <set comment="band 7">
        <r>  0.0000  0.0624  0.0129  0.0190  0.0000  0.0000  0.0000  0.0000  0.0000 </r>
        <r>  0.0000  0.0624  0.0129  0.0190  0.0000  0.0000  0.0000  0.0000  0.0000 </r>
       </set>
       <set comment="band 8">
        <r>  0.0058  0.0176  0.0176  0.0176  0.0000  0.0000  0.0000  0.0000  0.0000 </r>
        <r>  0.0058  0.0176  0.0176  0.0176  0.0000  0.0000  0.0000  0.0000  0.0000 </r>
       </set>
       <set comment="band 9">
        <r>  0.0000  0.0060  0.0001  0.0058  0.0000  0.0000  0.0000  0.0000  0.0000 </r>
        <r>  0.0000  0.0059  0.0001  0.0058  0.0000  0.0000  0.0000  0.0000  0.0000 </r>
       </set>
       <set comment="band 10">
        <r>  0.0000  0.0018  0.0080  0.0021  0.0000  0.0000  0.0000  0.0000  0.0000 </r>
        <r>  0.0000  0.0019  0.0078  0.0020  0.0000  0.0000  0.0000  0.0000  0.0000 </r>
       </set>
       <set comment="band 11">
        <r>  0.0416  0.0500  0.0506  0.0494  0.0000  0.0000  0.0000  0.0000  0.0000 </r>
        <r>  0.0419  0.0528  0.0542  0.0449  0.0000  0.0000  0.0000  0.0000  0.0000 </r>
       </set>
       <set comment="band 12">
        <r>  0.0000  0.0594  0.0440  0.0012  0.0000  0.0000  0.0000  0.0000  0.0000 </r>
        <r>  0.0000  0.0596  0.0438  0.0012  0.0000  0.0000  0.0000  0.0000  0.0000 </r>
       </set>
      </set>
      <set comment="kpoint 3">
       <set comment="band 1">
        <r>  0.2236  0.0047  0.0047  0.0047  0.0000  0.0000  0.0000  0.0000  0.0000 </r>
        <r>  0.2236  0.0047  0.0047  0.0047  0.0000  0.0000  0.0000  0.0000  0.0000 </r>
       </set>
       <set comment="band 2">
        <r>  0.0993  0.0314  0.0314  0.0314  0.0000  0.0000  0.0000  0.0000  0.0000 </r>
        <r>  0.0993  0.0314  0.0314  0.0314  0.0000  0.0000  0.0000  0.0000  0.0000 </r>
       </set>
       <set comment="band 3">
        <r>  0.0000  0.0360  0.1327  0.0496  0.0000  0.0000  0.0000  0.0000  0.0000 </r>
        <r>  0.0000  0.0360  0.1327  0.0496  0.0000  0.0000  0.0000  0.0000  0.0000 </r>
       </set>
       <set comment="band 4">
        <r>  0.0000  0.1095  0.0128  0.0959  0.0000  0.0000  0.0000  0.0000  0.0000 </r>
        <r>  0.0000  0.1095  0.0128  0.0959  0.0000  0.0000  0.0000  0.0000  0.0000 </r>
       </set>
       <set comment="band 5">
        <r>  0.1856  0.0065  0.0065  0.0065  0.0000  0.0000  0.0000  0.0000  0.0000 </r>
        <r>  0.1856  0.0065  0.0065  0.0065  0.0000  0.0000  0.0000  0.0000  0.0000 </r>
       </set>
       <set comment="band 6">
        <r>  0.0000  0.0141  0.0242  0.0565  0.0000  0.0000  0.0000  0.0000  0.0000 </r>
        <r>  0.0000  0.0141  0.0242  0.0565  0.0000  0.0000  0.0000  0.0000  0.0000 </r>
       </set>
       <set comment="band 7">
        <r>  0.0000  0.0491  0.0390  0.0067  0.0000  0.0000  0.0000  0.0000  0.0000 </r>
        <r>  0.0000  0.0491  0.0390  0.0067  0.0000  0.0000  0.0000  0.0000  0.0000 </r>
       </set>
       <set comment="band 8">
        <r>  0.0057  0.0179  0.0178  0.0179  0.0000  0.0000  0.0000  0.0000  0.0000 </r>
        <r>  0.0057  0.0178  0.0179  0.0178  0.0000  0.0000  0.0000  0.0000  0.0000 </r>
       </set>
       <set comment="band 9">
        <r>  0.0000  0.0081  0.0020  0.0156  0.0000  0.0000  0.0000  0.0000  0.0000 </r>
        <r>  0.0000  0.0081  0.0020  0.0156  0.0000  0.0000  0.0000  0.0000  0.0000 </r>
       </set>
       <set comment="band 10">
        <r>  0.0000  0.0090  0.0151  0.0015  0.0000  0.0000  0.0000  0.0000  0.0000 </r>
        <r>  0.0000  0.0090  0.0150  0.0015  0.0000  0.0000  0.0000  0.0000  0.0000 </r>
       </set>
       <set comment="band 11">
        <r>  0.0496  0.0497  0.0505  0.0498  0.0000  0.0000  0.0000  0.0000  0.0000 </r>
        <r>  0.0495  0.0495  0.0507  0.0502  0.0000  0.0000  0.0000  0.0000  0.0000 </r>
       </set>
       <set comment="band 12">
        <r>  0.0000  0.0194  0.0256  0.0453  0.0000  0.0000  0.0000  0.0000  0.0000 </r>
        <r>  0.0000  0.0197  0.0255  0.0451  0.0000  0.0000  0.0000  0.0000  0.0000 </r>
       </set>
      </set>
      <set comment="kpoint 4">
       <set comment="band 1">
        <r>  0.2220  0.0048  0.0048  0.0048  0.0000  0.0000  0.0000  0.0000  0.0000 </r>
        <r>  0.2220  0.0048  0.0048  0.0048  0.0000  0.0000  0.0000  0.0000  0.0000 </r>
       </set>
       <set comment="band 2">
        <r>  0.1006  0.0314  0.0314  0.0314  0.0000  0.0000  0.0000  0.0000  0.0000 </r>
        <r>  0.1006  0.0314  0.0314  0.0314  0.0000  0.0000  0.0000  0.0000  0.0000 </r>
       </set>
       <set comment="band 3">
        <r>  0.0000  0.1434  0.0351  0.0396  0.0000  0.0000  0.0000  0.0000  0.0000 </r>
        <r>  0.0000  0.1434  0.0351  0.0396  0.0000  0.0000  0.0000  0.0000  0.0000 </r>
       </set>
       <set comment="band 4">
        <r>  0.0000  0.0020  0.1104  0.1058  0.0000  0.0000  0.0000  0.0000  0.0000 </r>
        <r>  0.0000  0.0020  0.1104  0.1058  0.0000  0.0000  0.0000  0.0000  0.0000 </r>
       </set>
       <set comment="band 5">
        <r>  0.1851  0.0066  0.0066  0.0066  0.0000  0.0000  0.0000  0.0000  0.0000 </r>
        <r>  0.1851  0.0066  0.0066  0.0066  0.0000  0.0000  0.0000  0.0000  0.0000 </r>
       </set>
       <set comment="band 6">
        <r>  0.0000  0.0182  0.0634  0.0138  0.0000  0.0000  0.0000  0.0000  0.0000 </r>
        <r>  0.0000  0.0182  0.0634  0.0138  0.0000  0.0000  0.0000  0.0000  0.0000 </r>
       </set>
       <set comment="band 7">
        <r>  0.0000  0.0454  0.0002  0.0498  0.0000  0.0000  0.0000  0.0000  0.0000 </r>
        <r>  0.0000  0.0454  0.0002  0.0498  0.0000  0.0000  0.0000  0.0000  0.0000 </r>
       </set>
       <set comment="band 8">
        <r>  0.0054  0.0184  0.0183  0.0183  0.0000  0.0000  0.0000  0.0000  0.0000 </r>
        <r>  0.0054  0.0183  0.0184  0.0184  0.0000  0.0000  0.0000  0.0000  0.0000 </r>
       </set>
       <set comment="band 9">
        <r>  0.0000  0.0196  0.0115  0.0026  0.0000  0.0000  0.0000  0.0000  0.0000 </r>
        <r>  0.0000  0.0196  0.0115  0.0026  0.0000  0.0000  0.0000  0.0000  0.0000 </r>
       </set>
       <set comment="band 10">
        <r>  0.0000  0.0029  0.0109  0.0199  0.0000  0.0000  0.0000  0.0000  0.0000 </r>
        <r>  0.0000  0.0029  0.0110  0.0198  0.0000  0.0000  0.0000  0.0000  0.0000 </r>
       </set>
       <set comment="band 11">
        <r>  0.0585  0.0494  0.0491  0.0491  0.0000  0.0000  0.0000  0.0000  0.0000 </r>
        <r>  0.0584  0.0492  0.0491  0.0491  0.0000  0.0000  0.0000  0.0000  0.0000 </r>
       </set>
       <set comment="band 12">
        <r>  0.0000  0.0040  0.0453  0.0322  0.0000  0.0000  0.0000  0.0000  0.0000 </r>
        <r>  0.0000  0.0040  0.0453  0.0322  0.0000  0.0000  0.0000  0.0000  0.0000 </r>
       </set>
      </set>
      <set comment="kpoint 5">
       <set comment="band 1">
        <r>  0.2201  0.0049  0.0049  0.0049  0.0000  0.0000  0.0000  0.0000  0.0000 </r>
        <r>  0.2201  0.0049  0.0049  0.0049  0.0000  0.0000  0.0000  0.0000  0.0000 </r>
       </set>
       <set comment="band 2">
        <r>  0.1021  0.0315  0.0315  0.0315  0.0000  0.0000  0.0000  0.0000  0.0000 </r>
        <r>  0.1021  0.0315  0.0315  0.0315  0.0000  0.0000  0.0000  0.0000  0.0000 </r>
       </set>
       <set comment="band 3">
        <r>  0.0000  0.1389  0.0367  0.0424  0.0000  0.0000  0.0000  0.0000  0.0000 </r>
        <r>  0.0000  0.1389  0.0367  0.0424  0.0000  0.0000  0.0000  0.0000  0.0000 </r>
       </set>
       <set comment="band 4">
        <r>  0.0000  0.0064  0.1086  0.1030  0.0000  0.0000  0.0000  0.0000  0.0000 </r>
        <r>  0.0000  0.0064  0.1086  0.1030  0.0000  0.0000  0.0000  0.0000  0.0000 </r>
       </set>
       <set comment="band 5">
        <r>  0.1844  0.0069  0.0069  0.0069  0.0000  0.0000  0.0000  0.0000  0.0000 </r>
        <r>  0.1844  0.0069  0.0069  0.0069  0.0000  0.0000  0.0000  0.0000  0.0000 </r>
       </set>
       <set comment="band 6">
        <r>  0.0000  0.0387  0.0067  0.0510  0.0000  0.0000  0.0000  0.0000  0.0000 </r>
        <r>  0.0000  0.0387  0.0067  0.0510  0.0000  0.0000  0.0000  0.0000  0.0000 </r>
       </set>
       <set comment="band 7">
        <r>  0.0000  0.0256  0.0576  0.0133  0.0000  0.0000  0.0000  0.0000  0.0000 </r>
        <r>  0.0000  0.0256  0.0576  0.0133  0.0000  0.0000  0.0000  0.0000  0.0000 </r>
       </set>
       <set comment="band 8">
        <r>  0.0051  0.0190  0.0190  0.0190  0.0000  0.0000  0.0000  0.0000  0.0000 </r>
        <r>  0.0051  0.0190  0.0190  0.0190  0.0000  0.0000  0.0000  0.0000  0.0000 </r>
       </set>
       <set comment="band 9">
        <r>  0.0000  0.0198  0.0182  0.0001  0.0000  0.0000  0.0000  0.0000  0.0000 </r>
        <r>  0.0000  0.0198  0.0182  0.0001  0.0000  0.0000  0.0000  0.0000  0.0000 </r>
       </set>
       <set comment="band 10">
        <r>  0.0000  0.0056  0.0072  0.0253  0.0000  0.0000  0.0000  0.0000  0.0000 </r>
        <r>  0.0000  0.0056  0.0072  0.0253  0.0000  0.0000  0.0000  0.0000  0.0000 </r>
       </set>
       <set comment="band 11">
        <r>  0.0672  0.0478  0.0475  0.0478  0.0000  0.0000  0.0000  0.0000  0.0000 </r>
        <r>  0.0673  0.0477  0.0481  0.0481  0.0000  0.0000  0.0000  0.0000  0.0000 </r>
       </set>
       <set comment="band 12">
        <r>  0.0000  0.0050  0.0313  0.0399  0.0000  0.0000  0.0000  0.0000  0.0000 </r>
        <r>  0.0000  0.0050  0.0316  0.0395  0.0000  0.0000  0.0000  0.0000  0.0000 </r>
       </set>
      </set>
      <set comment="kpoint 6">
       <set comment="band 1">
        <r>  0.2183  0.0050  0.0050  0.0050  0.0000  0.0000  0.0000  0.0000  0.0000 </r>
        <r>  0.2183  0.0050  0.0050  0.0050  0.0000  0.0000  0.0000  0.0000  0.0000 </r>
       </set>
       <set comment="band 2">
        <r>  0.1035  0.0316  0.0316  0.0316  0.0000  0.0000  0.0000  0.0000  0.0000 </r>
        <r>  0.1035  0.0316  0.0316  0.0316  0.0000  0.0000  0.0000  0.0000  0.0000 </r>
       </set>
       <set comment="band 3">
        <r>  0.0000  0.0783  0.0827  0.0569  0.0000  0.0000  0.0000  0.0000  0.0000 </r>
        <r>  0.0000  0.0783  0.0827  0.0569  0.0000  0.0000  0.0000  0.0000  0.0000 </r>
       </set>
       <set comment="band 4">
        <r>  0.0000  0.0669  0.0625  0.0883  0.0000  0.0000  0.0000  0.0000  0.0000 </r>
        <r>  0.0000  0.0669  0.0625  0.0883  0.0000  0.0000  0.0000  0.0000  0.0000 </r>
       </set>
       <set comment="band 5">
        <r>  0.1835  0.0071  0.0071  0.0071  0.0000  0.0000  0.0000  0.0000  0.0000 </r>
        <r>  0.1835  0.0071  0.0071  0.0071  0.0000  0.0000  0.0000  0.0000  0.0000 </r>
       </set>
       <set comment="band 6">
        <r>  0.0000  0.0264  0.0098  0.0615  0.0000  0.0000  0.0000  0.0000  0.0000 </r>
        <r>  0.0000  0.0264  0.0098  0.0615  0.0000  0.0000  0.0000  0.0000  0.0000 </r>
       </set>
       <set comment="band 7">
        <r>  0.0000  0.0387  0.0553  0.0037  0.0000  0.0000  0.0000  0.0000  0.0000 </r>
        <r>  0.0000  0.0387  0.0553  0.0037  0.0000  0.0000  0.0000  0.0000  0.0000 </r>
       </set>
       <set comment="band 8">
        <r>  0.0047  0.0199  0.0199  0.0199  0.0000  0.0000  0.0000  0.0000  0.0000 </r>
        <r>  0.0047  0.0199  0.0199  0.0199  0.0000  0.0000  0.0000  0.0000  0.0000 </r>
       </set>
       <set comment="band 9">
        <r>  0.0000  0.0263  0.0039  0.0103  0.0000  0.0000  0.0000  0.0000  0.0000 </r>
        <r>  0.0000  0.0263  0.0039  0.0103  0.0000  0.0000  0.0000  0.0000  0.0000 </r>
       </set>
       <set comment="band 10">
        <r>  0.0000  0.0007  0.0231  0.0167  0.0000  0.0000  0.0000  0.0000  0.0000 </r>
        <r>  0.0000  0.0007  0.0231  0.0167  0.0000  0.0000  0.0000  0.0000  0.0000 </r>
       </set>
       <set comment="band 11">
        <r>  0.0757  0.0462  0.0462  0.0462  0.0000  0.0000  0.0000  0.0000  0.0000 </r>
        <r>  0.0757  0.0461  0.0461  0.0462  0.0000  0.0000  0.0000  0.0000  0.0000 </r>
       </set>
       <set comment="band 12">
        <r>  0.0000  0.0059  0.0437  0.0225  0.0000  0.0000  0.0000  0.0000  0.0000 </r>
        <r>  0.0000  0.0063  0.0426  0.0234  0.0000  0.0000  0.0000  0.0000  0.0000 </r>
       </set>
      </set>
      <set comment="kpoint 7">
       <set comment="band 1">
        <r>  0.2165  0.0050  0.0050  0.0050  0.0000  0.0000  0.0000  0.0000  0.0000 </r>
        <r>  0.2165  0.0050  0.0050  0.0050  0.0000  0.0000  0.0000  0.0000  0.0000 </r>
       </set>
       <set comment="band 2">
        <r>  0.1047  0.0318  0.0318  0.0318  0.0000  0.0000  0.0000  0.0000  0.0000 </r>
        <r>  0.1047  0.0318  0.0318  0.0318  0.0000  0.0000  0.0000  0.0000  0.0000 </r>
       </set>
       <set comment="band 3">
        <r>  0.0000  0.0769  0.0076  0.1331  0.0000  0.0000  0.0000  0.0000  0.0000 </r>
        <r>  0.0000  0.0769  0.0076  0.1331  0.0000  0.0000  0.0000  0.0000  0.0000 </r>
       </set>
       <set comment="band 4">
        <r>  0.0000  0.0682  0.1374  0.0120  0.0000  0.0000  0.0000  0.0000  0.0000 </r>
        <r>  0.0000  0.0682  0.1374  0.0120  0.0000  0.0000  0.0000  0.0000  0.0000 </r>
       </set>
       <set comment="band 5">
        <r>  0.1825  0.0075  0.0075  0.0075  0.0000  0.0000  0.0000  0.0000  0.0000 </r>
        <r>  0.1825  0.0075  0.0075  0.0075  0.0000  0.0000  0.0000  0.0000  0.0000 </r>
       </set>
       <set comment="band 6">
        <r>  0.0000  0.0113  0.0656  0.0224  0.0000  0.0000  0.0000  0.0000  0.0000 </r>
        <r>  0.0000  0.0113  0.0656  0.0224  0.0000  0.0000  0.0000  0.0000  0.0000 </r>
       </set>
       <set comment="band 7">
        <r>  0.0000  0.0549  0.0006  0.0438  0.0000  0.0000  0.0000  0.0000  0.0000 </r>
        <r>  0.0000  0.0549  0.0006  0.0438  0.0000  0.0000  0.0000  0.0000  0.0000 </r>
       </set>
       <set comment="band 8">
        <r>  0.0043  0.0212  0.0212  0.0212  0.0000  0.0000  0.0000  0.0000  0.0000 </r>
        <r>  0.0043  0.0212  0.0212  0.0212  0.0000  0.0000  0.0000  0.0000  0.0000 </r>
       </set>
       <set comment="band 9">
        <r>  0.0000  0.0055  0.0088  0.0273  0.0000  0.0000  0.0000  0.0000  0.0000 </r>
        <r>  0.0000  0.0055  0.0088  0.0273  0.0000  0.0000  0.0000  0.0000  0.0000 </r>
       </set>
       <set comment="band 10">
        <r>  0.0000  0.0222  0.0190  0.0004  0.0000  0.0000  0.0000  0.0000  0.0000 </r>
        <r>  0.0000  0.0222  0.0190  0.0004  0.0000  0.0000  0.0000  0.0000  0.0000 </r>
       </set>
       <set comment="band 11">
        <r>  0.0835  0.0441  0.0441  0.0441  0.0000  0.0000  0.0000  0.0000  0.0000 </r>
        <r>  0.0836  0.0441  0.0441  0.0440  0.0000  0.0000  0.0000  0.0000  0.0000 </r>
       </set>
       <set comment="band 12">
        <r>  0.0000  0.0196  0.0446  0.0053  0.0000  0.0000  0.0000  0.0000  0.0000 </r>
        <r>  0.0000  0.0200  0.0441  0.0055  0.0000  0.0000  0.0000  0.0000  0.0000 </r>
       </set>
      </set>
      <set comment="kpoint 8">
       <set comment="band 1">
        <r>  0.2150  0.0049  0.0049  0.0049  0.0000  0.0000  0.0000  0.0000  0.0000 </r>
        <r>  0.2150  0.0049  0.0049  0.0049  0.0000  0.0000  0.0000  0.0000  0.0000 </r>
       </set>
       <set comment="band 2">
        <r>  0.1055  0.0321  0.0321  0.0321  0.0000  0.0000  0.0000  0.0000  0.0000 </r>
        <r>  0.1055  0.0321  0.0321  0.0321  0.0000  0.0000  0.0000  0.0000  0.0000 </r>
       </set>
       <set comment="band 3">
        <r>  0.0000  0.0170  0.0600  0.1404  0.0000  0.0000  0.0000  0.0000  0.0000 </r>
        <r>  0.0000  0.0170  0.0600  0.1404  0.0000  0.0000  0.0000  0.0000  0.0000 </r>
       </set>
       <set comment="band 4">
        <r>  0.0000  0.1279  0.0849  0.0045  0.0000  0.0000  0.0000  0.0000  0.0000 </r>
        <r>  0.0000  0.1279  0.0849  0.0045  0.0000  0.0000  0.0000  0.0000  0.0000 </r>
       </set>
       <set comment="band 5">
        <r>  0.1812  0.0079  0.0079  0.0079  0.0000  0.0000  0.0000  0.0000  0.0000 </r>
        <r>  0.1812  0.0079  0.0079  0.0079  0.0000  0.0000  0.0000  0.0000  0.0000 </r>
       </set>
       <set comment="band 6">
        <r>  0.0000  0.0614  0.0034  0.0364  0.0000  0.0000  0.0000  0.0000  0.0000 </r>
        <r>  0.0000  0.0614  0.0034  0.0364  0.0000  0.0000  0.0000  0.0000  0.0000 </r>
       </set>
       <set comment="band 7">
        <r>  0.0000  0.0060  0.0641  0.0311  0.0000  0.0000  0.0000  0.0000  0.0000 </r>
        <r>  0.0000  0.0060  0.0641  0.0311  0.0000  0.0000  0.0000  0.0000  0.0000 </r>
       </set>
       <set comment="band 8">
        <r>  0.0039  0.0229  0.0228  0.0229  0.0000  0.0000  0.0000  0.0000  0.0000 </r>
        <r>  0.0039  0.0229  0.0229  0.0229  0.0000  0.0000  0.0000  0.0000  0.0000 </r>
       </set>
       <set comment="band 9">
        <r>  0.0000  0.0262  0.0125  0.0031  0.0000  0.0000  0.0000  0.0000  0.0000 </r>
        <r>  0.0000  0.0262  0.0125  0.0031  0.0000  0.0000  0.0000  0.0000  0.0000 </r>
       </set>
       <set comment="band 10">
        <r>  0.0000  0.0017  0.0154  0.0248  0.0000  0.0000  0.0000  0.0000  0.0000 </r>
        <r>  0.0000  0.0017  0.0154  0.0248  0.0000  0.0000  0.0000  0.0000  0.0000 </r>
       </set>
       <set comment="band 11">
        <r>  0.0910  0.0415  0.0415  0.0415  0.0000  0.0000  0.0000  0.0000  0.0000 </r>
        <r>  0.0910  0.0415  0.0415  0.0415  0.0000  0.0000  0.0000  0.0000  0.0000 </r>
       </set>
       <set comment="band 12">
        <r>  0.0000  0.0395  0.0185  0.0095  0.0000  0.0000  0.0000  0.0000  0.0000 </r>
        <r>  0.0000  0.0372  0.0178  0.0123  0.0000  0.0000  0.0000  0.0000  0.0000 </r>
       </set>
      </set>
      <set comment="kpoint 9">
       <set comment="band 1">
        <r>  0.2137  0.0049  0.0049  0.0049  0.0000  0.0000  0.0000  0.0000  0.0000 </r>
        <r>  0.2137  0.0049  0.0049  0.0049  0.0000  0.0000  0.0000  0.0000  0.0000 </r>
       </set>
       <set comment="band 2">
        <r>  0.1060  0.0325  0.0325  0.0325  0.0000  0.0000  0.0000  0.0000  0.0000 </r>
        <r>  0.1060  0.0325  0.0325  0.0325  0.0000  0.0000  0.0000  0.0000  0.0000 </r>
       </set>
       <set comment="band 3">
        <r>  0.0000  0.1354  0.0101  0.0715  0.0000  0.0000  0.0000  0.0000  0.0000 </r>
        <r>  0.0000  0.1354  0.0101  0.0715  0.0000  0.0000  0.0000  0.0000  0.0000 </r>
       </set>
       <set comment="band 4">
        <r>  0.0000  0.0093  0.1346  0.0732  0.0000  0.0000  0.0000  0.0000  0.0000 </r>
        <r>  0.0000  0.0093  0.1346  0.0732  0.0000  0.0000  0.0000  0.0000  0.0000 </r>
       </set>
       <set comment="band 5">
        <r>  0.1797  0.0083  0.0083  0.0083  0.0000  0.0000  0.0000  0.0000  0.0000 </r>
        <r>  0.1797  0.0083  0.0083  0.0083  0.0000  0.0000  0.0000  0.0000  0.0000 </r>
       </set>
       <set comment="band 6">
        <r>  0.0000  0.0335  0.0132  0.0568  0.0000  0.0000  0.0000  0.0000  0.0000 </r>
        <r>  0.0000  0.0335  0.0132  0.0568  0.0000  0.0000  0.0000  0.0000  0.0000 </r>
       </set>
       <set comment="band 7">
        <r>  0.0000  0.0355  0.0558  0.0122  0.0000  0.0000  0.0000  0.0000  0.0000 </r>
        <r>  0.0000  0.0355  0.0558  0.0122  0.0000  0.0000  0.0000  0.0000  0.0000 </r>
       </set>
       <set comment="band 8">
        <r>  0.0037  0.0251  0.0251  0.0251  0.0000  0.0000  0.0000  0.0000  0.0000 </r>
        <r>  0.0037  0.0251  0.0251  0.0251  0.0000  0.0000  0.0000  0.0000  0.0000 </r>
       </set>
       <set comment="band 9">
        <r>  0.0000  0.0097  0.0117  0.0200  0.0000  0.0000  0.0000  0.0000  0.0000 </r>
        <r>  0.0000  0.0097  0.0117  0.0200  0.0000  0.0000  0.0000  0.0000  0.0000 </r>
       </set>
       <set comment="band 10">
        <r>  0.0000  0.0179  0.0159  0.0077  0.0000  0.0000  0.0000  0.0000  0.0000 </r>
        <r>  0.0000  0.0179  0.0159  0.0077  0.0000  0.0000  0.0000  0.0000  0.0000 </r>
       </set>
       <set comment="band 11">
        <r>  0.0979  0.0384  0.0383  0.0384  0.0000  0.0000  0.0000  0.0000  0.0000 </r>
        <r>  0.0979  0.0384  0.0384  0.0384  0.0000  0.0000  0.0000  0.0000  0.0000 </r>
       </set>
       <set comment="band 12">
        <r>  0.0000  0.0418  0.0181  0.0055  0.0000  0.0000  0.0000  0.0000  0.0000 </r>
        <r>  0.0000  0.0443  0.0156  0.0055  0.0000  0.0000  0.0000  0.0000  0.0000 </r>
       </set>
      </set>
      <set comment="kpoint 10">
       <set comment="band 1">
        <r>  0.2127  0.0047  0.0047  0.0047  0.0000  0.0000  0.0000  0.0000  0.0000 </r>
        <r>  0.2127  0.0047  0.0047  0.0047  0.0000  0.0000  0.0000  0.0000  0.0000 </r>
       </set>
       <set comment="band 2">
        <r>  0.1061  0.0329  0.0329  0.0329  0.0000  0.0000  0.0000  0.0000  0.0000 </r>
        <r>  0.1061  0.0329  0.0329  0.0329  0.0000  0.0000  0.0000  0.0000  0.0000 </r>
       </set>
       <set comment="band 3">
        <r>  0.0000  0.0422  0.0304  0.1441  0.0000  0.0000  0.0000  0.0000  0.0000 </r>
        <r>  0.0000  0.0422  0.0304  0.1441  0.0000  0.0000  0.0000  0.0000  0.0000 </r>
       </set>
       <set comment="band 4">
        <r>  0.0000  0.1023  0.1141  0.0004  0.0000  0.0000  0.0000  0.0000  0.0000 </r>
        <r>  0.0000  0.1023  0.1141  0.0004  0.0000  0.0000  0.0000  0.0000  0.0000 </r>
       </set>
       <set comment="band 5">
        <r>  0.1780  0.0089  0.0089  0.0089  0.0000  0.0000  0.0000  0.0000  0.0000 </r>
        <r>  0.1780  0.0089  0.0089  0.0089  0.0000  0.0000  0.0000  0.0000  0.0000 </r>
       </set>
       <set comment="band 6">
        <r>  0.0000  0.0251  0.0175  0.0634  0.0000  0.0000  0.0000  0.0000  0.0000 </r>
        <r>  0.0000  0.0251  0.0175  0.0634  0.0000  0.0000  0.0000  0.0000  0.0000 </r>
       </set>
       <set comment="band 7">
        <r>  0.0000  0.0456  0.0531  0.0073  0.0000  0.0000  0.0000  0.0000  0.0000 </r>
        <r>  0.0000  0.0456  0.0531  0.0073  0.0000  0.0000  0.0000  0.0000  0.0000 </r>
       </set>
       <set comment="band 8">
        <r>  0.0041  0.0282  0.0281  0.0281  0.0000  0.0000  0.0000  0.0000  0.0000 </r>
        <r>  0.0041  0.0281  0.0282  0.0282  0.0000  0.0000  0.0000  0.0000  0.0000 </r>
       </set>
       <set comment="band 9">
        <r>  0.0000  0.0009  0.0197  0.0198  0.0000  0.0000  0.0000  0.0000  0.0000 </r>
        <r>  0.0000  0.0009  0.0197  0.0198  0.0000  0.0000  0.0000  0.0000  0.0000 </r>
       </set>
       <set comment="band 10">
        <r>  0.0000  0.0261  0.0072  0.0071  0.0000  0.0000  0.0000  0.0000  0.0000 </r>
        <r>  0.0000  0.0261  0.0072  0.0071  0.0000  0.0000  0.0000  0.0000  0.0000 </r>
       </set>
       <set comment="band 11">
        <r>  0.1040  0.0345  0.0345  0.0345  0.0000  0.0000  0.0000  0.0000  0.0000 </r>
        <r>  0.1040  0.0345  0.0345  0.0345  0.0000  0.0000  0.0000  0.0000  0.0000 </r>
       </set>
       <set comment="band 12">
        <r>  0.0003  0.0006  0.0295  0.0357  0.0000  0.0000  0.0000  0.0000  0.0000 </r>
        <r>  0.0003  0.0040  0.0442  0.0191  0.0000  0.0000  0.0000  0.0000  0.0000 </r>
       </set>
      </set>
      <set comment="kpoint 11">
       <set comment="band 1">
        <r>  0.2118  0.0046  0.0046  0.0046  0.0000  0.0000  0.0000  0.0000  0.0000 </r>
        <r>  0.2118  0.0046  0.0046  0.0046  0.0000  0.0000  0.0000  0.0000  0.0000 </r>
       </set>
       <set comment="band 2">
        <r>  0.1059  0.0335  0.0335  0.0335  0.0000  0.0000  0.0000  0.0000  0.0000 </r>
        <r>  0.1059  0.0335  0.0335  0.0335  0.0000  0.0000  0.0000  0.0000  0.0000 </r>
       </set>
       <set comment="band 3">
        <r>  0.0000  0.0983  0.1155  0.0026  0.0000  0.0000  0.0000  0.0000  0.0000 </r>
        <r>  0.0000  0.0983  0.1155  0.0026  0.0000  0.0000  0.0000  0.0000  0.0000 </r>
       </set>
       <set comment="band 4">
        <r>  0.0000  0.0460  0.0288  0.1417  0.0000  0.0000  0.0000  0.0000  0.0000 </r>
        <r>  0.0000  0.0460  0.0288  0.1417  0.0000  0.0000  0.0000  0.0000  0.0000 </r>
       </set>
       <set comment="band 5">
        <r>  0.1761  0.0094  0.0094  0.0094  0.0000  0.0000  0.0000  0.0000  0.0000 </r>
        <r>  0.1761  0.0094  0.0094  0.0094  0.0000  0.0000  0.0000  0.0000  0.0000 </r>
       </set>
       <set comment="band 6">
        <r>  0.0000  0.0154  0.0268  0.0667  0.0000  0.0000  0.0000  0.0000  0.0000 </r>
        <r>  0.0000  0.0154  0.0268  0.0667  0.0000  0.0000  0.0000  0.0000  0.0000 </r>
       </set>
       <set comment="band 7">
        <r>  0.0000  0.0572  0.0458  0.0059  0.0000  0.0000  0.0000  0.0000  0.0000 </r>
        <r>  0.0000  0.0572  0.0458  0.0059  0.0000  0.0000  0.0000  0.0000  0.0000 </r>
       </set>
       <set comment="band 8">
        <r>  0.0059  0.0322  0.0322  0.0322  0.0000  0.0000  0.0000  0.0000  0.0000 </r>
        <r>  0.0059  0.0322  0.0322  0.0322  0.0000  0.0000  0.0000  0.0000  0.0000 </r>
       </set>
       <set comment="band 9">
        <r>  0.0000  0.0091  0.0042  0.0256  0.0000  0.0000  0.0000  0.0000  0.0000 </r>
        <r>  0.0000  0.0091  0.0042  0.0256  0.0000  0.0000  0.0000  0.0000  0.0000 </r>
       </set>
       <set comment="band 10">
        <r>  0.0000  0.0169  0.0217  0.0003  0.0000  0.0000  0.0000  0.0000  0.0000 </r>
        <r>  0.0000  0.0169  0.0217  0.0003  0.0000  0.0000  0.0000  0.0000  0.0000 </r>
       </set>
       <set comment="band 11">
        <r>  0.1085  0.0295  0.0295  0.0295  0.0000  0.0000  0.0000  0.0000  0.0000 </r>
        <r>  0.1085  0.0295  0.0295  0.0295  0.0000  0.0000  0.0000  0.0000  0.0000 </r>
       </set>
       <set comment="band 12">
        <r>  0.0129  0.0516  0.0597  0.0786  0.0000  0.0000  0.0000  0.0000  0.0000 </r>
        <r>  0.0131  0.0669  0.0793  0.0437  0.0000  0.0000  0.0000  0.0000  0.0000 </r>
       </set>
      </set>
      <set comment="kpoint 12">
       <set comment="band 1">
        <r>  0.2112  0.0044  0.0044  0.0044  0.0000  0.0000  0.0000  0.0000  0.0000 </r>
        <r>  0.2112  0.0044  0.0044  0.0044  0.0000  0.0000  0.0000  0.0000  0.0000 </r>
       </set>
       <set comment="band 2">
        <r>  0.1053  0.0342  0.0342  0.0342  0.0000  0.0000  0.0000  0.0000  0.0000 </r>
        <r>  0.1053  0.0342  0.0342  0.0342  0.0000  0.0000  0.0000  0.0000  0.0000 </r>
       </set>
       <set comment="band 3">
        <r>  0.0000  0.1098  0.0030  0.1032  0.0000  0.0000  0.0000  0.0000  0.0000 </r>
        <r>  0.0000  0.1098  0.0030  0.1032  0.0000  0.0000  0.0000  0.0000  0.0000 </r>
       </set>
       <set comment="band 4">
        <r>  0.0000  0.0342  0.1410  0.0408  0.0000  0.0000  0.0000  0.0000  0.0000 </r>
        <r>  0.0000  0.0342  0.1410  0.0408  0.0000  0.0000  0.0000  0.0000  0.0000 </r>
       </set>
       <set comment="band 5">
        <r>  0.1740  0.0101  0.0101  0.0101  0.0000  0.0000  0.0000  0.0000  0.0000 </r>
        <r>  0.1740  0.0101  0.0101  0.0101  0.0000  0.0000  0.0000  0.0000  0.0000 </r>
       </set>
       <set comment="band 6">
        <r>  0.0000  0.0683  0.0330  0.0109  0.0000  0.0000  0.0000  0.0000  0.0000 </r>
        <r>  0.0000  0.0683  0.0330  0.0109  0.0000  0.0000  0.0000  0.0000  0.0000 </r>
       </set>
       <set comment="band 7">
        <r>  0.0000  0.0065  0.0418  0.0639  0.0000  0.0000  0.0000  0.0000  0.0000 </r>
        <r>  0.0000  0.0065  0.0418  0.0639  0.0000  0.0000  0.0000  0.0000  0.0000 </r>
       </set>
       <set comment="band 8">
        <r>  0.0106  0.0374  0.0375  0.0374  0.0000  0.0000  0.0000  0.0000  0.0000 </r>
        <r>  0.0106  0.0374  0.0374  0.0375  0.0000  0.0000  0.0000  0.0000  0.0000 </r>
       </set>
       <set comment="band 9">
        <r>  0.0000  0.0061  0.0090  0.0217  0.0000  0.0000  0.0000  0.0000  0.0000 </r>
        <r>  0.0000  0.0061  0.0090  0.0217  0.0000  0.0000  0.0000  0.0000  0.0000 </r>
       </set>
       <set comment="band 10">
        <r>  0.0000  0.0185  0.0156  0.0029  0.0000  0.0000  0.0000  0.0000  0.0000 </r>
        <r>  0.0000  0.0185  0.0156  0.0029  0.0000  0.0000  0.0000  0.0000  0.0000 </r>
       </set>
       <set comment="band 11">
        <r>  0.1100  0.0235  0.0235  0.0235  0.0000  0.0000  0.0000  0.0000  0.0000 </r>
        <r>  0.1100  0.0235  0.0235  0.0235  0.0000  0.0000  0.0000  0.0000  0.0000 </r>
       </set>
       <set comment="band 12">
        <r>  0.0157  0.0501  0.0650  0.0548  0.0000  0.0000  0.0000  0.0000  0.0000 </r>
        <r>  0.0165  0.0588  0.0532  0.0579  0.0000  0.0000  0.0000  0.0000  0.0000 </r>
       </set>
      </set>
      <set comment="kpoint 13">
       <set comment="band 1">
        <r>  0.2108  0.0041  0.0041  0.0041  0.0000  0.0000  0.0000  0.0000  0.0000 </r>
        <r>  0.2108  0.0041  0.0041  0.0041  0.0000  0.0000  0.0000  0.0000  0.0000 </r>
       </set>
       <set comment="band 2">
        <r>  0.1045  0.0349  0.0349  0.0349  0.0000  0.0000  0.0000  0.0000  0.0000 </r>
        <r>  0.1045  0.0349  0.0349  0.0349  0.0000  0.0000  0.0000  0.0000  0.0000 </r>
       </set>
       <set comment="band 3">
        <r>  0.0000  0.0476  0.1375  0.0307  0.0000  0.0000  0.0000  0.0000  0.0000 </r>
        <r>  0.0000  0.0476  0.1375  0.0307  0.0000  0.0000  0.0000  0.0000  0.0000 </r>
       </set>
       <set comment="band 4">
        <r>  0.0000  0.0963  0.0063  0.1131  0.0000  0.0000  0.0000  0.0000  0.0000 </r>
        <r>  0.0000  0.0963  0.0063  0.1131  0.0000  0.0000  0.0000  0.0000  0.0000 </r>
       </set>
       <set comment="band 5">
        <r>  0.1717  0.0108  0.0108  0.0108  0.0000  0.0000  0.0000  0.0000  0.0000 </r>
        <r>  0.1717  0.0108  0.0108  0.0108  0.0000  0.0000  0.0000  0.0000  0.0000 </r>
       </set>
       <set comment="band 6">
        <r>  0.0000  0.0760  0.0214  0.0184  0.0000  0.0000  0.0000  0.0000  0.0000 </r>
        <r>  0.0000  0.0760  0.0213  0.0184  0.0000  0.0000  0.0000  0.0000  0.0000 </r>
       </set>
       <set comment="band 7">
        <r>  0.0000  0.0012  0.0558  0.0588  0.0000  0.0000  0.0000  0.0000  0.0000 </r>
        <r>  0.0000  0.0012  0.0558  0.0588  0.0000  0.0000  0.0000  0.0000  0.0000 </r>
       </set>
       <set comment="band 8">
        <r>  0.0204  0.0434  0.0434  0.0434  0.0000  0.0000  0.0000  0.0000  0.0000 </r>
        <r>  0.0204  0.0434  0.0434  0.0434  0.0000  0.0000  0.0000  0.0000  0.0000 </r>
       </set>
       <set comment="band 9">
        <r>  0.0000  0.0181  0.0132  0.0031  0.0000  0.0000  0.0000  0.0000  0.0000 </r>
        <r>  0.0000  0.0181  0.0132  0.0031  0.0000  0.0000  0.0000  0.0000  0.0000 </r>
       </set>
       <set comment="band 10">
        <r>  0.0000  0.0049  0.0097  0.0199  0.0000  0.0000  0.0000  0.0000  0.0000 </r>
        <r>  0.0000  0.0049  0.0097  0.0199  0.0000  0.0000  0.0000  0.0000  0.0000 </r>
       </set>
       <set comment="band 11">
        <r>  0.1065  0.0168  0.0168  0.0168  0.0000  0.0000  0.0000  0.0000  0.0000 </r>
        <r>  0.1065  0.0168  0.0168  0.0168  0.0000  0.0000  0.0000  0.0000  0.0000 </r>
       </set>
       <set comment="band 12">
        <r>  0.0196  0.0532  0.0500  0.0487  0.0000  0.0000  0.0000  0.0000  0.0000 </r>
        <r>  0.0193  0.0485  0.0510  0.0519  0.0000  0.0000  0.0000  0.0000  0.0000 </r>
       </set>
      </set>
      <set comment="kpoint 14">
       <set comment="band 1">
        <r>  0.2105  0.0039  0.0039  0.0039  0.0000  0.0000  0.0000  0.0000  0.0000 </r>
        <r>  0.2105  0.0039  0.0039  0.0039  0.0000  0.0000  0.0000  0.0000  0.0000 </r>
       </set>
       <set comment="band 2">
        <r>  0.1033  0.0357  0.0357  0.0357  0.0000  0.0000  0.0000  0.0000  0.0000 </r>
        <r>  0.1033  0.0357  0.0357  0.0357  0.0000  0.0000  0.0000  0.0000  0.0000 </r>
       </set>
       <set comment="band 3">
        <r>  0.0000  0.1297  0.0194  0.0663  0.0000  0.0000  0.0000  0.0000  0.0000 </r>
        <r>  0.0000  0.1297  0.0194  0.0663  0.0000  0.0000  0.0000  0.0000  0.0000 </r>
       </set>
       <set comment="band 4">
        <r>  0.0000  0.0139  0.1241  0.0773  0.0000  0.0000  0.0000  0.0000  0.0000 </r>
        <r>  0.0000  0.0139  0.1241  0.0773  0.0000  0.0000  0.0000  0.0000  0.0000 </r>
       </set>
       <set comment="band 5">
        <r>  0.1692  0.0116  0.0116  0.0116  0.0000  0.0000  0.0000  0.0000  0.0000 </r>
        <r>  0.1692  0.0116  0.0116  0.0116  0.0000  0.0000  0.0000  0.0000  0.0000 </r>
       </set>
       <set comment="band 6">
        <r>  0.0000  0.0547  0.0203  0.0447  0.0000  0.0000  0.0000  0.0000  0.0000 </r>
        <r>  0.0000  0.0547  0.0203  0.0447  0.0000  0.0000  0.0000  0.0000  0.0000 </r>
       </set>
       <set comment="band 7">
        <r>  0.0000  0.0251  0.0594  0.0351  0.0000  0.0000  0.0000  0.0000  0.0000 </r>
        <r>  0.0000  0.0251  0.0594  0.0351  0.0000  0.0000  0.0000  0.0000  0.0000 </r>
       </set>
       <set comment="band 8">
        <r>  0.0000  0.0171  0.0090  0.0056  0.0000  0.0000  0.0000  0.0000  0.0000 </r>
        <r>  0.0000  0.0171  0.0090  0.0056  0.0000  0.0000  0.0000  0.0000  0.0000 </r>
       </set>
       <set comment="band 9">
        <r>  0.0000  0.0041  0.0121  0.0155  0.0000  0.0000  0.0000  0.0000  0.0000 </r>
        <r>  0.0000  0.0041  0.0121  0.0155  0.0000  0.0000  0.0000  0.0000  0.0000 </r>
       </set>
       <set comment="band 10">
        <r>  0.0361  0.0488  0.0488  0.0488  0.0000  0.0000  0.0000  0.0000  0.0000 </r>
        <r>  0.0361  0.0488  0.0488  0.0488  0.0000  0.0000  0.0000  0.0000  0.0000 </r>
       </set>
       <set comment="band 11">
        <r>  0.0970  0.0107  0.0107  0.0107  0.0000  0.0000  0.0000  0.0000  0.0000 </r>
        <r>  0.0970  0.0107  0.0107  0.0107  0.0000  0.0000  0.0000  0.0000  0.0000 </r>
       </set>
       <set comment="band 12">
        <r>  0.0236  0.0438  0.0443  0.0438  0.0000  0.0000  0.0000  0.0000  0.0000 </r>
        <r>  0.0236  0.0441  0.0437  0.0442  0.0000  0.0000  0.0000  0.0000  0.0000 </r>
       </set>
      </set>
      <set comment="kpoint 15">
       <set comment="band 1">
        <r>  0.2104  0.0036  0.0036  0.0036  0.0000  0.0000  0.0000  0.0000  0.0000 </r>
        <r>  0.2104  0.0036  0.0036  0.0036  0.0000  0.0000  0.0000  0.0000  0.0000 </r>
       </set>
       <set comment="band 2">
        <r>  0.1019  0.0365  0.0365  0.0365  0.0000  0.0000  0.0000  0.0000  0.0000 </r>
        <r>  0.1019  0.0365  0.0365  0.0365  0.0000  0.0000  0.0000  0.0000  0.0000 </r>
       </set>
       <set comment="band 3">
        <r>  0.0000  0.1144  0.0201  0.0805  0.0000  0.0000  0.0000  0.0000  0.0000 </r>
        <r>  0.0000  0.1144  0.0201  0.0805  0.0000  0.0000  0.0000  0.0000  0.0000 </r>
       </set>
       <set comment="band 4">
        <r>  0.0000  0.0289  0.1233  0.0628  0.0000  0.0000  0.0000  0.0000  0.0000 </r>
        <r>  0.0000  0.0289  0.1233  0.0628  0.0000  0.0000  0.0000  0.0000  0.0000 </r>
       </set>
       <set comment="band 5">
        <r>  0.1664  0.0125  0.0125  0.0125  0.0000  0.0000  0.0000  0.0000  0.0000 </r>
        <r>  0.1664  0.0125  0.0125  0.0125  0.0000  0.0000  0.0000  0.0000  0.0000 </r>
       </set>
       <set comment="band 6">
        <r>  0.0000  0.0709  0.0150  0.0379  0.0000  0.0000  0.0000  0.0000  0.0000 </r>
        <r>  0.0000  0.0709  0.0150  0.0379  0.0000  0.0000  0.0000  0.0000  0.0000 </r>
       </set>
       <set comment="band 7">
        <r>  0.0000  0.0116  0.0675  0.0446  0.0000  0.0000  0.0000  0.0000  0.0000 </r>
        <r>  0.0000  0.0116  0.0675  0.0446  0.0000  0.0000  0.0000  0.0000  0.0000 </r>
       </set>
       <set comment="band 8">
        <r>  0.0000  0.0115  0.0043  0.0128  0.0000  0.0000  0.0000  0.0000  0.0000 </r>
        <r>  0.0000  0.0115  0.0043  0.0128  0.0000  0.0000  0.0000  0.0000  0.0000 </r>
       </set>
       <set comment="band 9">
        <r>  0.0000  0.0076  0.0147  0.0062  0.0000  0.0000  0.0000  0.0000  0.0000 </r>
        <r>  0.0000  0.0076  0.0147  0.0062  0.0000  0.0000  0.0000  0.0000  0.0000 </r>
       </set>
       <set comment="band 10">
        <r>  0.0555  0.0521  0.0521  0.0521  0.0000  0.0000  0.0000  0.0000  0.0000 </r>
        <r>  0.0555  0.0521  0.0521  0.0521  0.0000  0.0000  0.0000  0.0000  0.0000 </r>
       </set>
       <set comment="band 11">
        <r>  0.0839  0.0067  0.0067  0.0067  0.0000  0.0000  0.0000  0.0000  0.0000 </r>
        <r>  0.0839  0.0067  0.0067  0.0067  0.0000  0.0000  0.0000  0.0000  0.0000 </r>
       </set>
       <set comment="band 12">
        <r>  0.0276  0.0389  0.0385  0.0385  0.0000  0.0000  0.0000  0.0000  0.0000 </r>
        <r>  0.0275  0.0385  0.0387  0.0387  0.0000  0.0000  0.0000  0.0000  0.0000 </r>
       </set>
      </set>
      <set comment="kpoint 16">
       <set comment="band 1">
        <r>  0.2103  0.0034  0.0034  0.0034  0.0000  0.0000  0.0000  0.0000  0.0000 </r>
        <r>  0.2103  0.0034  0.0034  0.0034  0.0000  0.0000  0.0000  0.0000  0.0000 </r>
       </set>
       <set comment="band 2">
        <r>  0.1002  0.0374  0.0374  0.0374  0.0000  0.0000  0.0000  0.0000  0.0000 </r>
        <r>  0.1002  0.0374  0.0374  0.0374  0.0000  0.0000  0.0000  0.0000  0.0000 </r>
       </set>
       <set comment="band 3">
        <r>  0.0000  0.0254  0.1046  0.0846  0.0000  0.0000  0.0000  0.0000  0.0000 </r>
        <r>  0.0000  0.0254  0.1046  0.0846  0.0000  0.0000  0.0000  0.0000  0.0000 </r>
       </set>
       <set comment="band 4">
        <r>  0.0000  0.1177  0.0385  0.0585  0.0000  0.0000  0.0000  0.0000  0.0000 </r>
        <r>  0.0000  0.1177  0.0385  0.0585  0.0000  0.0000  0.0000  0.0000  0.0000 </r>
       </set>
       <set comment="band 5">
        <r>  0.1634  0.0134  0.0134  0.0134  0.0000  0.0000  0.0000  0.0000  0.0000 </r>
        <r>  0.1634  0.0134  0.0134  0.0134  0.0000  0.0000  0.0000  0.0000  0.0000 </r>
       </set>
       <set comment="band 6">
        <r>  0.0000  0.0388  0.0477  0.0416  0.0000  0.0000  0.0000  0.0000  0.0000 </r>
        <r>  0.0000  0.0388  0.0477  0.0416  0.0000  0.0000  0.0000  0.0000  0.0000 </r>
       </set>
       <set comment="band 7">
        <r>  0.0000  0.0466  0.0377  0.0438  0.0000  0.0000  0.0000  0.0000  0.0000 </r>
        <r>  0.0000  0.0466  0.0377  0.0438  0.0000  0.0000  0.0000  0.0000  0.0000 </r>
       </set>
       <set comment="band 8">
        <r>  0.0000  0.0088  0.0146  0.0018  0.0000  0.0000  0.0000  0.0000  0.0000 </r>
        <r>  0.0000  0.0088  0.0146  0.0018  0.0000  0.0000  0.0000  0.0000  0.0000 </r>
       </set>
       <set comment="band 9">
        <r>  0.0000  0.0080  0.0022  0.0150  0.0000  0.0000  0.0000  0.0000  0.0000 </r>
        <r>  0.0000  0.0080  0.0022  0.0150  0.0000  0.0000  0.0000  0.0000  0.0000 </r>
       </set>
       <set comment="band 10">
        <r>  0.0746  0.0530  0.0530  0.0530  0.0000  0.0000  0.0000  0.0000  0.0000 </r>
        <r>  0.0746  0.0530  0.0530  0.0530  0.0000  0.0000  0.0000  0.0000  0.0000 </r>
       </set>
       <set comment="band 11">
        <r>  0.0712  0.0051  0.0051  0.0051  0.0000  0.0000  0.0000  0.0000  0.0000 </r>
        <r>  0.0712  0.0051  0.0051  0.0051  0.0000  0.0000  0.0000  0.0000  0.0000 </r>
       </set>
       <set comment="band 12">
        <r>  0.0311  0.0340  0.0341  0.0341  0.0000  0.0000  0.0000  0.0000  0.0000 </r>
        <r>  0.0311  0.0340  0.0341  0.0340  0.0000  0.0000  0.0000  0.0000  0.0000 </r>
       </set>
      </set>
      <set comment="kpoint 17">
       <set comment="band 1">
        <r>  0.2103  0.0031  0.0031  0.0031  0.0000  0.0000  0.0000  0.0000  0.0000 </r>
        <r>  0.2103  0.0031  0.0031  0.0031  0.0000  0.0000  0.0000  0.0000  0.0000 </r>
       </set>
       <set comment="band 2">
        <r>  0.0982  0.0384  0.0384  0.0384  0.0000  0.0000  0.0000  0.0000  0.0000 </r>
        <r>  0.0982  0.0384  0.0384  0.0384  0.0000  0.0000  0.0000  0.0000  0.0000 </r>
       </set>
       <set comment="band 3">
        <r>  0.0000  0.0378  0.1147  0.0618  0.0000  0.0000  0.0000  0.0000  0.0000 </r>
        <r>  0.0000  0.0378  0.1147  0.0618  0.0000  0.0000  0.0000  0.0000  0.0000 </r>
       </set>
       <set comment="band 4">
        <r>  0.0000  0.1050  0.0282  0.0811  0.0000  0.0000  0.0000  0.0000  0.0000 </r>
        <r>  0.0000  0.1050  0.0282  0.0811  0.0000  0.0000  0.0000  0.0000  0.0000 </r>
       </set>
       <set comment="band 5">
        <r>  0.1602  0.0144  0.0144  0.0144  0.0000  0.0000  0.0000  0.0000  0.0000 </r>
        <r>  0.1602  0.0144  0.0144  0.0144  0.0000  0.0000  0.0000  0.0000  0.0000 </r>
       </set>
       <set comment="band 6">
        <r>  0.0000  0.0086  0.0843  0.0395  0.0000  0.0000  0.0000  0.0000  0.0000 </r>
        <r>  0.0000  0.0086  0.0843  0.0395  0.0000  0.0000  0.0000  0.0000  0.0000 </r>
       </set>
       <set comment="band 7">
        <r>  0.0000  0.0797  0.0039  0.0488  0.0000  0.0000  0.0000  0.0000  0.0000 </r>
        <r>  0.0000  0.0797  0.0039  0.0488  0.0000  0.0000  0.0000  0.0000  0.0000 </r>
       </set>
       <set comment="band 8">
        <r>  0.0914  0.0524  0.0525  0.0525  0.0000  0.0000  0.0000  0.0000  0.0000 </r>
        <r>  0.0914  0.0525  0.0525  0.0525  0.0000  0.0000  0.0000  0.0000  0.0000 </r>
       </set>
       <set comment="band 9">
        <r>  0.0000  0.0058  0.0037  0.0123  0.0000  0.0000  0.0000  0.0000  0.0000 </r>
        <r>  0.0000  0.0058  0.0037  0.0123  0.0000  0.0000  0.0000  0.0000  0.0000 </r>
       </set>
       <set comment="band 10">
        <r>  0.0000  0.0087  0.0108  0.0022  0.0000  0.0000  0.0000  0.0000  0.0000 </r>
        <r>  0.0000  0.0087  0.0108  0.0022  0.0000  0.0000  0.0000  0.0000  0.0000 </r>
       </set>
       <set comment="band 11">
        <r>  0.0611  0.0051  0.0051  0.0051  0.0000  0.0000  0.0000  0.0000  0.0000 </r>
        <r>  0.0612  0.0051  0.0051  0.0051  0.0000  0.0000  0.0000  0.0000  0.0000 </r>
       </set>
       <set comment="band 12">
        <r>  0.0343  0.0299  0.0299  0.0303  0.0000  0.0000  0.0000  0.0000  0.0000 </r>
        <r>  0.0342  0.0301  0.0302  0.0298  0.0000  0.0000  0.0000  0.0000  0.0000 </r>
       </set>
      </set>
      <set comment="kpoint 18">
       <set comment="band 1">
        <r>  0.2104  0.0028  0.0028  0.0028  0.0000  0.0000  0.0000  0.0000  0.0000 </r>
        <r>  0.2104  0.0028  0.0028  0.0028  0.0000  0.0000  0.0000  0.0000  0.0000 </r>
       </set>
       <set comment="band 2">
        <r>  0.0961  0.0395  0.0395  0.0395  0.0000  0.0000  0.0000  0.0000  0.0000 </r>
        <r>  0.0961  0.0395  0.0395  0.0395  0.0000  0.0000  0.0000  0.0000  0.0000 </r>
       </set>
       <set comment="band 3">
        <r>  0.0000  0.1021  0.0074  0.1045  0.0000  0.0000  0.0000  0.0000  0.0000 </r>
        <r>  0.0000  0.1021  0.0074  0.1045  0.0000  0.0000  0.0000  0.0000  0.0000 </r>
       </set>
       <set comment="band 4">
        <r>  0.0000  0.0406  0.1352  0.0382  0.0000  0.0000  0.0000  0.0000  0.0000 </r>
        <r>  0.0000  0.0406  0.1352  0.0382  0.0000  0.0000  0.0000  0.0000  0.0000 </r>
       </set>
       <set comment="band 5">
        <r>  0.1566  0.0155  0.0155  0.0155  0.0000  0.0000  0.0000  0.0000  0.0000 </r>
        <r>  0.1566  0.0155  0.0155  0.0155  0.0000  0.0000  0.0000  0.0000  0.0000 </r>
       </set>
       <set comment="band 6">
        <r>  0.0000  0.0755  0.0049  0.0562  0.0000  0.0000  0.0000  0.0000  0.0000 </r>
        <r>  0.0000  0.0755  0.0049  0.0562  0.0000  0.0000  0.0000  0.0000  0.0000 </r>
       </set>
       <set comment="band 7">
        <r>  0.0000  0.0155  0.0862  0.0349  0.0000  0.0000  0.0000  0.0000  0.0000 </r>
        <r>  0.0000  0.0155  0.0862  0.0349  0.0000  0.0000  0.0000  0.0000  0.0000 </r>
       </set>
       <set comment="band 8">
        <r>  0.1056  0.0511  0.0511  0.0511  0.0000  0.0000  0.0000  0.0000  0.0000 </r>
        <r>  0.1056  0.0511  0.0511  0.0511  0.0000  0.0000  0.0000  0.0000  0.0000 </r>
       </set>
       <set comment="band 9">
        <r>  0.0000  0.0028  0.0076  0.0078  0.0000  0.0000  0.0000  0.0000  0.0000 </r>
        <r>  0.0000  0.0028  0.0076  0.0078  0.0000  0.0000  0.0000  0.0000  0.0000 </r>
       </set>
       <set comment="band 10">
        <r>  0.0000  0.0094  0.0045  0.0044  0.0000  0.0000  0.0000  0.0000  0.0000 </r>
        <r>  0.0000  0.0094  0.0045  0.0044  0.0000  0.0000  0.0000  0.0000  0.0000 </r>
       </set>
       <set comment="band 11">
        <r>  0.0540  0.0060  0.0060  0.0060  0.0000  0.0000  0.0000  0.0000  0.0000 </r>
        <r>  0.0540  0.0060  0.0060  0.0060  0.0000  0.0000  0.0000  0.0000  0.0000 </r>
       </set>
       <set comment="band 12">
        <r>  0.0369  0.0263  0.0263  0.0264  0.0000  0.0000  0.0000  0.0000  0.0000 </r>
        <r>  0.0369  0.0263  0.0263  0.0263  0.0000  0.0000  0.0000  0.0000  0.0000 </r>
       </set>
      </set>
      <set comment="kpoint 19">
       <set comment="band 1">
        <r>  0.2106  0.0026  0.0026  0.0026  0.0000  0.0000  0.0000  0.0000  0.0000 </r>
        <r>  0.2106  0.0026  0.0026  0.0026  0.0000  0.0000  0.0000  0.0000  0.0000 </r>
       </set>
       <set comment="band 2">
        <r>  0.0936  0.0406  0.0406  0.0406  0.0000  0.0000  0.0000  0.0000  0.0000 </r>
        <r>  0.0936  0.0406  0.0406  0.0406  0.0000  0.0000  0.0000  0.0000  0.0000 </r>
       </set>
       <set comment="band 3">
        <r>  0.0000  0.0951  0.0506  0.0681  0.0000  0.0000  0.0000  0.0000  0.0000 </r>
        <r>  0.0000  0.0951  0.0506  0.0681  0.0000  0.0000  0.0000  0.0000  0.0000 </r>
       </set>
       <set comment="band 4">
        <r>  0.0000  0.0474  0.0919  0.0744  0.0000  0.0000  0.0000  0.0000  0.0000 </r>
        <r>  0.0000  0.0474  0.0919  0.0744  0.0000  0.0000  0.0000  0.0000  0.0000 </r>
       </set>
       <set comment="band 5">
        <r>  0.1528  0.0167  0.0167  0.0167  0.0000  0.0000  0.0000  0.0000  0.0000 </r>
        <r>  0.1528  0.0167  0.0167  0.0167  0.0000  0.0000  0.0000  0.0000  0.0000 </r>
       </set>
       <set comment="band 6">
        <r>  0.0000  0.0403  0.0888  0.0115  0.0000  0.0000  0.0000  0.0000  0.0000 </r>
        <r>  0.0000  0.0403  0.0888  0.0115  0.0000  0.0000  0.0000  0.0000  0.0000 </r>
       </set>
       <set comment="band 7">
        <r>  0.0000  0.0534  0.0049  0.0822  0.0000  0.0000  0.0000  0.0000  0.0000 </r>
        <r>  0.0000  0.0534  0.0049  0.0822  0.0000  0.0000  0.0000  0.0000  0.0000 </r>
       </set>
       <set comment="band 8">
        <r>  0.1178  0.0495  0.0494  0.0494  0.0000  0.0000  0.0000  0.0000  0.0000 </r>
        <r>  0.1178  0.0494  0.0495  0.0494  0.0000  0.0000  0.0000  0.0000  0.0000 </r>
       </set>
       <set comment="band 9">
        <r>  0.0000  0.0050  0.0017  0.0082  0.0000  0.0000  0.0000  0.0000  0.0000 </r>
        <r>  0.0000  0.0050  0.0017  0.0082  0.0000  0.0000  0.0000  0.0000  0.0000 </r>
       </set>
       <set comment="band 10">
        <r>  0.0000  0.0050  0.0082  0.0017  0.0000  0.0000  0.0000  0.0000  0.0000 </r>
        <r>  0.0000  0.0050  0.0082  0.0017  0.0000  0.0000  0.0000  0.0000  0.0000 </r>
       </set>
       <set comment="band 11">
        <r>  0.0493  0.0073  0.0073  0.0073  0.0000  0.0000  0.0000  0.0000  0.0000 </r>
        <r>  0.0493  0.0073  0.0073  0.0073  0.0000  0.0000  0.0000  0.0000  0.0000 </r>
       </set>
       <set comment="band 12">
        <r>  0.0390  0.0229  0.0230  0.0227  0.0000  0.0000  0.0000  0.0000  0.0000 </r>
        <r>  0.0390  0.0229  0.0228  0.0230  0.0000  0.0000  0.0000  0.0000  0.0000 </r>
       </set>
      </set>
      <set comment="kpoint 20">
       <set comment="band 1">
        <r>  0.2108  0.0023  0.0023  0.0023  0.0000  0.0000  0.0000  0.0000  0.0000 </r>
        <r>  0.2108  0.0023  0.0023  0.0023  0.0000  0.0000  0.0000  0.0000  0.0000 </r>
       </set>
       <set comment="band 2">
        <r>  0.0909  0.0417  0.0417  0.0417  0.0000  0.0000  0.0000  0.0000  0.0000 </r>
        <r>  0.0909  0.0417  0.0417  0.0417  0.0000  0.0000  0.0000  0.0000  0.0000 </r>
       </set>
       <set comment="band 3">
        <r>  0.0000  0.1182  0.0349  0.0604  0.0000  0.0000  0.0000  0.0000  0.0000 </r>
        <r>  0.0000  0.1182  0.0349  0.0604  0.0000  0.0000  0.0000  0.0000  0.0000 </r>
       </set>
       <set comment="band 4">
        <r>  0.0000  0.0241  0.1075  0.0819  0.0000  0.0000  0.0000  0.0000  0.0000 </r>
        <r>  0.0000  0.0241  0.1075  0.0819  0.0000  0.0000  0.0000  0.0000  0.0000 </r>
       </set>
       <set comment="band 5">
        <r>  0.1486  0.0179  0.0179  0.0179  0.0000  0.0000  0.0000  0.0000  0.0000 </r>
        <r>  0.1486  0.0179  0.0179  0.0179  0.0000  0.0000  0.0000  0.0000  0.0000 </r>
       </set>
       <set comment="band 6">
        <r>  0.0000  0.0765  0.0674  0.0004  0.0000  0.0000  0.0000  0.0000  0.0000 </r>
        <r>  0.0000  0.0765  0.0674  0.0004  0.0000  0.0000  0.0000  0.0000  0.0000 </r>
       </set>
       <set comment="band 7">
        <r>  0.0000  0.0197  0.0288  0.0958  0.0000  0.0000  0.0000  0.0000  0.0000 </r>
        <r>  0.0000  0.0197  0.0288  0.0958  0.0000  0.0000  0.0000  0.0000  0.0000 </r>
       </set>
       <set comment="band 8">
        <r>  0.1288  0.0476  0.0476  0.0476  0.0000  0.0000  0.0000  0.0000  0.0000 </r>
        <r>  0.1288  0.0476  0.0476  0.0476  0.0000  0.0000  0.0000  0.0000  0.0000 </r>
       </set>
       <set comment="band 9">
        <r>  0.0000  0.0039  0.0048  0.0032  0.0000  0.0000  0.0000  0.0000  0.0000 </r>
        <r>  0.0000  0.0039  0.0048  0.0032  0.0000  0.0000  0.0000  0.0000  0.0000 </r>
       </set>
       <set comment="band 10">
        <r>  0.0000  0.0041  0.0031  0.0048  0.0000  0.0000  0.0000  0.0000  0.0000 </r>
        <r>  0.0000  0.0041  0.0031  0.0048  0.0000  0.0000  0.0000  0.0000  0.0000 </r>
       </set>
       <set comment="band 11">
        <r>  0.0468  0.0088  0.0088  0.0088  0.0000  0.0000  0.0000  0.0000  0.0000 </r>
        <r>  0.0468  0.0088  0.0088  0.0088  0.0000  0.0000  0.0000  0.0000  0.0000 </r>
       </set>
       <set comment="band 12">
        <r>  0.0403  0.0196  0.0195  0.0196  0.0000  0.0000  0.0000  0.0000  0.0000 </r>
        <r>  0.0403  0.0196  0.0196  0.0195  0.0000  0.0000  0.0000  0.0000  0.0000 </r>
       </set>
      </set>
      <set comment="kpoint 21">
       <set comment="band 1">
        <r>  0.2110  0.0021  0.0021  0.0021  0.0000  0.0000  0.0000  0.0000  0.0000 </r>
        <r>  0.2110  0.0021  0.0021  0.0021  0.0000  0.0000  0.0000  0.0000  0.0000 </r>
       </set>
       <set comment="band 2">
        <r>  0.0879  0.0430  0.0430  0.0430  0.0000  0.0000  0.0000  0.0000  0.0000 </r>
        <r>  0.0879  0.0430  0.0430  0.0430  0.0000  0.0000  0.0000  0.0000  0.0000 </r>
       </set>
       <set comment="band 3">
        <r>  0.0000  0.1132  0.0867  0.0134  0.0000  0.0000  0.0000  0.0000  0.0000 </r>
        <r>  0.0000  0.1132  0.0867  0.0134  0.0000  0.0000  0.0000  0.0000  0.0000 </r>
       </set>
       <set comment="band 4">
        <r>  0.0000  0.0290  0.0555  0.1288  0.0000  0.0000  0.0000  0.0000  0.0000 </r>
        <r>  0.0000  0.0290  0.0555  0.1288  0.0000  0.0000  0.0000  0.0000  0.0000 </r>
       </set>
       <set comment="band 5">
        <r>  0.1441  0.0193  0.0193  0.0193  0.0000  0.0000  0.0000  0.0000  0.0000 </r>
        <r>  0.1441  0.0193  0.0193  0.0193  0.0000  0.0000  0.0000  0.0000  0.0000 </r>
       </set>
       <set comment="band 6">
        <r>  0.0000  0.0220  0.0593  0.0661  0.0000  0.0000  0.0000  0.0000  0.0000 </r>
        <r>  0.0000  0.0220  0.0593  0.0661  0.0000  0.0000  0.0000  0.0000  0.0000 </r>
       </set>
       <set comment="band 7">
        <r>  0.0000  0.0763  0.0389  0.0321  0.0000  0.0000  0.0000  0.0000  0.0000 </r>
        <r>  0.0000  0.0763  0.0389  0.0321  0.0000  0.0000  0.0000  0.0000  0.0000 </r>
       </set>
       <set comment="band 8">
        <r>  0.1390  0.0458  0.0458  0.0458  0.0000  0.0000  0.0000  0.0000  0.0000 </r>
        <r>  0.1390  0.0458  0.0458  0.0458  0.0000  0.0000  0.0000  0.0000  0.0000 </r>
       </set>
       <set comment="band 9">
        <r>  0.0000  0.0052  0.0029  0.0012  0.0000  0.0000  0.0000  0.0000  0.0000 </r>
        <r>  0.0000  0.0052  0.0029  0.0012  0.0000  0.0000  0.0000  0.0000  0.0000 </r>
       </set>
       <set comment="band 10">
        <r>  0.0000  0.0010  0.0033  0.0049  0.0000  0.0000  0.0000  0.0000  0.0000 </r>
        <r>  0.0000  0.0010  0.0033  0.0049  0.0000  0.0000  0.0000  0.0000  0.0000 </r>
       </set>
       <set comment="band 11">
        <r>  0.0463  0.0104  0.0104  0.0104  0.0000  0.0000  0.0000  0.0000  0.0000 </r>
        <r>  0.0463  0.0104  0.0104  0.0104  0.0000  0.0000  0.0000  0.0000  0.0000 </r>
       </set>
       <set comment="band 12">
        <r>  0.0406  0.0163  0.0164  0.0162  0.0000  0.0000  0.0000  0.0000  0.0000 </r>
        <r>  0.0406  0.0163  0.0162  0.0164  0.0000  0.0000  0.0000  0.0000  0.0000 </r>
       </set>
      </set>
      <set comment="kpoint 22">
       <set comment="band 1">
        <r>  0.2112  0.0018  0.0018  0.0018  0.0000  0.0000  0.0000  0.0000  0.0000 </r>
        <r>  0.2112  0.0018  0.0018  0.0018  0.0000  0.0000  0.0000  0.0000  0.0000 </r>
       </set>
       <set comment="band 2">
        <r>  0.0847  0.0443  0.0443  0.0443  0.0000  0.0000  0.0000  0.0000  0.0000 </r>
        <r>  0.0847  0.0443  0.0443  0.0443  0.0000  0.0000  0.0000  0.0000  0.0000 </r>
       </set>
       <set comment="band 3">
        <r>  0.0000  0.1151  0.0663  0.0317  0.0000  0.0000  0.0000  0.0000  0.0000 </r>
        <r>  0.0000  0.1151  0.0663  0.0317  0.0000  0.0000  0.0000  0.0000  0.0000 </r>
       </set>
       <set comment="band 4">
        <r>  0.0000  0.0269  0.0758  0.1104  0.0000  0.0000  0.0000  0.0000  0.0000 </r>
        <r>  0.0000  0.0269  0.0758  0.1104  0.0000  0.0000  0.0000  0.0000  0.0000 </r>
       </set>
       <set comment="band 5">
        <r>  0.1391  0.0207  0.0207  0.0207  0.0000  0.0000  0.0000  0.0000  0.0000 </r>
        <r>  0.1391  0.0207  0.0207  0.0207  0.0000  0.0000  0.0000  0.0000  0.0000 </r>
       </set>
       <set comment="band 6">
        <r>  0.0000  0.0479  0.0556  0.0465  0.0000  0.0000  0.0000  0.0000  0.0000 </r>
        <r>  0.0000  0.0479  0.0556  0.0465  0.0000  0.0000  0.0000  0.0000  0.0000 </r>
       </set>
       <set comment="band 7">
        <r>  0.0000  0.0521  0.0444  0.0534  0.0000  0.0000  0.0000  0.0000  0.0000 </r>
        <r>  0.0000  0.0521  0.0444  0.0535  0.0000  0.0000  0.0000  0.0000  0.0000 </r>
       </set>
       <set comment="band 8">
        <r>  0.1489  0.0439  0.0438  0.0438  0.0000  0.0000  0.0000  0.0000  0.0000 </r>
        <r>  0.1489  0.0438  0.0438  0.0438  0.0000  0.0000  0.0000  0.0000  0.0000 </r>
       </set>
       <set comment="band 9">
        <r>  0.0000  0.0004  0.0045  0.0022  0.0000  0.0000  0.0000  0.0000  0.0000 </r>
        <r>  0.0000  0.0004  0.0045  0.0022  0.0000  0.0000  0.0000  0.0000  0.0000 </r>
       </set>
       <set comment="band 10">
        <r>  0.0000  0.0043  0.0002  0.0025  0.0000  0.0000  0.0000  0.0000  0.0000 </r>
        <r>  0.0000  0.0043  0.0002  0.0025  0.0000  0.0000  0.0000  0.0000  0.0000 </r>
       </set>
       <set comment="band 11">
        <r>  0.0480  0.0121  0.0121  0.0121  0.0000  0.0000  0.0000  0.0000  0.0000 </r>
        <r>  0.0480  0.0121  0.0121  0.0121  0.0000  0.0000  0.0000  0.0000  0.0000 </r>
       </set>
       <set comment="band 12">
        <r>  0.0393  0.0131  0.0131  0.0131  0.0000  0.0000  0.0000  0.0000  0.0000 </r>
        <r>  0.0393  0.0131  0.0131  0.0131  0.0000  0.0000  0.0000  0.0000  0.0000 </r>
       </set>
      </set>
      <set comment="kpoint 23">
       <set comment="band 1">
        <r>  0.2114  0.0016  0.0016  0.0016  0.0000  0.0000  0.0000  0.0000  0.0000 </r>
        <r>  0.2114  0.0016  0.0016  0.0016  0.0000  0.0000  0.0000  0.0000  0.0000 </r>
       </set>
       <set comment="band 2">
        <r>  0.0811  0.0457  0.0457  0.0457  0.0000  0.0000  0.0000  0.0000  0.0000 </r>
        <r>  0.0811  0.0457  0.0457  0.0457  0.0000  0.0000  0.0000  0.0000  0.0000 </r>
       </set>
       <set comment="band 3">
        <r>  0.0000  0.0407  0.1407  0.0316  0.0000  0.0000  0.0000  0.0000  0.0000 </r>
        <r>  0.0000  0.0407  0.1407  0.0316  0.0000  0.0000  0.0000  0.0000  0.0000 </r>
       </set>
       <set comment="band 4">
        <r>  0.0000  0.1013  0.0013  0.1104  0.0000  0.0000  0.0000  0.0000  0.0000 </r>
        <r>  0.0000  0.1013  0.0013  0.1104  0.0000  0.0000  0.0000  0.0000  0.0000 </r>
       </set>
       <set comment="band 5">
        <r>  0.1336  0.0223  0.0223  0.0223  0.0000  0.0000  0.0000  0.0000  0.0000 </r>
        <r>  0.1336  0.0223  0.0223  0.0223  0.0000  0.0000  0.0000  0.0000  0.0000 </r>
       </set>
       <set comment="band 6">
        <r>  0.0000  0.0703  0.0539  0.0277  0.0000  0.0000  0.0000  0.0000  0.0000 </r>
        <r>  0.0000  0.0703  0.0539  0.0277  0.0000  0.0000  0.0000  0.0000  0.0000 </r>
       </set>
       <set comment="band 7">
        <r>  0.0000  0.0310  0.0474  0.0736  0.0000  0.0000  0.0000  0.0000  0.0000 </r>
        <r>  0.0000  0.0310  0.0474  0.0736  0.0000  0.0000  0.0000  0.0000  0.0000 </r>
       </set>
       <set comment="band 8">
        <r>  0.1587  0.0419  0.0419  0.0419  0.0000  0.0000  0.0000  0.0000  0.0000 </r>
        <r>  0.1587  0.0419  0.0418  0.0419  0.0000  0.0000  0.0000  0.0000  0.0000 </r>
       </set>
       <set comment="band 9">
        <r>  0.0000  0.0020  0.0025  0.0009  0.0000  0.0000  0.0000  0.0000  0.0000 </r>
        <r>  0.0000  0.0020  0.0025  0.0009  0.0000  0.0000  0.0000  0.0000  0.0000 </r>
       </set>
       <set comment="band 10">
        <r>  0.0000  0.0016  0.0010  0.0027  0.0000  0.0000  0.0000  0.0000  0.0000 </r>
        <r>  0.0000  0.0016  0.0010  0.0027  0.0000  0.0000  0.0000  0.0000  0.0000 </r>
       </set>
       <set comment="band 11">
        <r>  0.0520  0.0134  0.0134  0.0134  0.0000  0.0000  0.0000  0.0000  0.0000 </r>
        <r>  0.0520  0.0134  0.0134  0.0134  0.0000  0.0000  0.0000  0.0000  0.0000 </r>
       </set>
       <set comment="band 12">
        <r>  0.0363  0.0102  0.0102  0.0102  0.0000  0.0000  0.0000  0.0000  0.0000 </r>
        <r>  0.0363  0.0102  0.0103  0.0102  0.0000  0.0000  0.0000  0.0000  0.0000 </r>
       </set>
      </set>
      <set comment="kpoint 24">
       <set comment="band 1">
        <r>  0.2117  0.0014  0.0014  0.0014  0.0000  0.0000  0.0000  0.0000  0.0000 </r>
        <r>  0.2117  0.0014  0.0014  0.0014  0.0000  0.0000  0.0000  0.0000  0.0000 </r>
       </set>
       <set comment="band 2">
        <r>  0.0771  0.0472  0.0472  0.0472  0.0000  0.0000  0.0000  0.0000  0.0000 </r>
        <r>  0.0771  0.0472  0.0472  0.0472  0.0000  0.0000  0.0000  0.0000  0.0000 </r>
       </set>
       <set comment="band 3">
        <r>  0.0000  0.0626  0.1251  0.0253  0.0000  0.0000  0.0000  0.0000  0.0000 </r>
        <r>  0.0000  0.0626  0.1251  0.0253  0.0000  0.0000  0.0000  0.0000  0.0000 </r>
       </set>
       <set comment="band 4">
        <r>  0.0000  0.0794  0.0169  0.1167  0.0000  0.0000  0.0000  0.0000  0.0000 </r>
        <r>  0.0000  0.0794  0.0169  0.1167  0.0000  0.0000  0.0000  0.0000  0.0000 </r>
       </set>
       <set comment="band 5">
        <r>  0.1276  0.0240  0.0240  0.0240  0.0000  0.0000  0.0000  0.0000  0.0000 </r>
        <r>  0.1276  0.0240  0.0240  0.0240  0.0000  0.0000  0.0000  0.0000  0.0000 </r>
       </set>
       <set comment="band 6">
        <r>  0.0000  0.0879  0.0172  0.0484  0.0000  0.0000  0.0000  0.0000  0.0000 </r>
        <r>  0.0000  0.0879  0.0172  0.0484  0.0000  0.0000  0.0000  0.0000  0.0000 </r>
       </set>
       <set comment="band 7">
        <r>  0.0000  0.0144  0.0851  0.0539  0.0000  0.0000  0.0000  0.0000  0.0000 </r>
        <r>  0.0000  0.0144  0.0851  0.0539  0.0000  0.0000  0.0000  0.0000  0.0000 </r>
       </set>
       <set comment="band 8">
        <r>  0.1688  0.0398  0.0398  0.0398  0.0000  0.0000  0.0000  0.0000  0.0000 </r>
        <r>  0.1688  0.0398  0.0398  0.0398  0.0000  0.0000  0.0000  0.0000  0.0000 </r>
       </set>
       <set comment="band 9">
        <r>  0.0000  0.0003  0.0012  0.0026  0.0000  0.0000  0.0000  0.0000  0.0000 </r>
        <r>  0.0000  0.0003  0.0012  0.0026  0.0000  0.0000  0.0000  0.0000  0.0000 </r>
       </set>
       <set comment="band 10">
        <r>  0.0000  0.0024  0.0015  0.0001  0.0000  0.0000  0.0000  0.0000  0.0000 </r>
        <r>  0.0000  0.0024  0.0015  0.0001  0.0000  0.0000  0.0000  0.0000  0.0000 </r>
       </set>
       <set comment="band 11">
        <r>  0.0578  0.0142  0.0142  0.0142  0.0000  0.0000  0.0000  0.0000  0.0000 </r>
        <r>  0.0578  0.0142  0.0142  0.0142  0.0000  0.0000  0.0000  0.0000  0.0000 </r>
       </set>
       <set comment="band 12">
        <r>  0.0316  0.0081  0.0081  0.0081  0.0000  0.0000  0.0000  0.0000  0.0000 </r>
        <r>  0.0317  0.0081  0.0081  0.0081  0.0000  0.0000  0.0000  0.0000  0.0000 </r>
       </set>
      </set>
      <set comment="kpoint 25">
       <set comment="band 1">
        <r>  0.2119  0.0011  0.0011  0.0011  0.0000  0.0000  0.0000  0.0000  0.0000 </r>
        <r>  0.2119  0.0011  0.0011  0.0011  0.0000  0.0000  0.0000  0.0000  0.0000 </r>
       </set>
       <set comment="band 2">
        <r>  0.0728  0.0488  0.0488  0.0488  0.0000  0.0000  0.0000  0.0000  0.0000 </r>
        <r>  0.0728  0.0488  0.0488  0.0488  0.0000  0.0000  0.0000  0.0000  0.0000 </r>
       </set>
       <set comment="band 3">
        <r>  0.0000  0.0440  0.0925  0.0766  0.0000  0.0000  0.0000  0.0000  0.0000 </r>
        <r>  0.0000  0.0440  0.0925  0.0766  0.0000  0.0000  0.0000  0.0000  0.0000 </r>
       </set>
       <set comment="band 4">
        <r>  0.0000  0.0981  0.0495  0.0654  0.0000  0.0000  0.0000  0.0000  0.0000 </r>
        <r>  0.0000  0.0981  0.0495  0.0654  0.0000  0.0000  0.0000  0.0000  0.0000 </r>
       </set>
       <set comment="band 5">
        <r>  0.1207  0.0258  0.0258  0.0258  0.0000  0.0000  0.0000  0.0000  0.0000 </r>
        <r>  0.1207  0.0258  0.0258  0.0258  0.0000  0.0000  0.0000  0.0000  0.0000 </r>
       </set>
       <set comment="band 6">
        <r>  0.0000  0.0162  0.0442  0.0940  0.0000  0.0000  0.0000  0.0000  0.0000 </r>
        <r>  0.0000  0.0162  0.0442  0.0940  0.0000  0.0000  0.0000  0.0000  0.0000 </r>
       </set>
       <set comment="band 7">
        <r>  0.0000  0.0867  0.0587  0.0089  0.0000  0.0000  0.0000  0.0000  0.0000 </r>
        <r>  0.0000  0.0867  0.0587  0.0089  0.0000  0.0000  0.0000  0.0000  0.0000 </r>
       </set>
       <set comment="band 8">
        <r>  0.1795  0.0375  0.0375  0.0375  0.0000  0.0000  0.0000  0.0000  0.0000 </r>
        <r>  0.1795  0.0375  0.0375  0.0375  0.0000  0.0000  0.0000  0.0000  0.0000 </r>
       </set>
       <set comment="band 9">
        <r>  0.0000  0.0003  0.0009  0.0019  0.0000  0.0000  0.0000  0.0000  0.0000 </r>
        <r>  0.0000  0.0003  0.0009  0.0019  0.0000  0.0000  0.0000  0.0000  0.0000 </r>
       </set>
       <set comment="band 10">
        <r>  0.0000  0.0018  0.0011  0.0002  0.0000  0.0000  0.0000  0.0000  0.0000 </r>
        <r>  0.0000  0.0018  0.0011  0.0002  0.0000  0.0000  0.0000  0.0000  0.0000 </r>
       </set>
       <set comment="band 11">
        <r>  0.0646  0.0140  0.0140  0.0140  0.0000  0.0000  0.0000  0.0000  0.0000 </r>
        <r>  0.0646  0.0140  0.0140  0.0140  0.0000  0.0000  0.0000  0.0000  0.0000 </r>
       </set>
       <set comment="band 12">
        <r>  0.0264  0.0070  0.0070  0.0070  0.0000  0.0000  0.0000  0.0000  0.0000 </r>
        <r>  0.0264  0.0070  0.0070  0.0070  0.0000  0.0000  0.0000  0.0000  0.0000 </r>
       </set>
      </set>
      <set comment="kpoint 26">
       <set comment="band 1">
        <r>  0.2122  0.0010  0.0010  0.0010  0.0000  0.0000  0.0000  0.0000  0.0000 </r>
        <r>  0.2122  0.0010  0.0010  0.0010  0.0000  0.0000  0.0000  0.0000  0.0000 </r>
       </set>
       <set comment="band 2">
        <r>  0.0680  0.0506  0.0506  0.0506  0.0000  0.0000  0.0000  0.0000  0.0000 </r>
        <r>  0.0680  0.0506  0.0506  0.0506  0.0000  0.0000  0.0000  0.0000  0.0000 </r>
       </set>
       <set comment="band 3">
        <r>  0.0000  0.0751  0.0094  0.1286  0.0000  0.0000  0.0000  0.0000  0.0000 </r>
        <r>  0.0000  0.0751  0.0094  0.1286  0.0000  0.0000  0.0000  0.0000  0.0000 </r>
       </set>
       <set comment="band 4">
        <r>  0.0000  0.0670  0.1327  0.0135  0.0000  0.0000  0.0000  0.0000  0.0000 </r>
        <r>  0.0000  0.0670  0.1327  0.0135  0.0000  0.0000  0.0000  0.0000  0.0000 </r>
       </set>
       <set comment="band 5">
        <r>  0.1129  0.0278  0.0278  0.0278  0.0000  0.0000  0.0000  0.0000  0.0000 </r>
        <r>  0.1129  0.0278  0.0278  0.0278  0.0000  0.0000  0.0000  0.0000  0.0000 </r>
       </set>
       <set comment="band 6">
        <r>  0.0000  0.0096  0.0981  0.0471  0.0000  0.0000  0.0000  0.0000  0.0000 </r>
        <r>  0.0000  0.0096  0.0981  0.0471  0.0000  0.0000  0.0000  0.0000  0.0000 </r>
       </set>
       <set comment="band 7">
        <r>  0.0000  0.0936  0.0051  0.0561  0.0000  0.0000  0.0000  0.0000  0.0000 </r>
        <r>  0.0000  0.0936  0.0051  0.0561  0.0000  0.0000  0.0000  0.0000  0.0000 </r>
       </set>
       <set comment="band 8">
        <r>  0.1911  0.0350  0.0350  0.0350  0.0000  0.0000  0.0000  0.0000  0.0000 </r>
        <r>  0.1911  0.0350  0.0350  0.0350  0.0000  0.0000  0.0000  0.0000  0.0000 </r>
       </set>
       <set comment="band 9">
        <r>  0.0000  0.0006  0.0015  0.0003  0.0000  0.0000  0.0000  0.0000  0.0000 </r>
        <r>  0.0000  0.0006  0.0015  0.0003  0.0000  0.0000  0.0000  0.0000  0.0000 </r>
       </set>
       <set comment="band 10">
        <r>  0.0000  0.0010  0.0001  0.0013  0.0000  0.0000  0.0000  0.0000  0.0000 </r>
        <r>  0.0000  0.0010  0.0001  0.0013  0.0000  0.0000  0.0000  0.0000  0.0000 </r>
       </set>
       <set comment="band 11">
        <r>  0.0711  0.0129  0.0129  0.0129  0.0000  0.0000  0.0000  0.0000  0.0000 </r>
        <r>  0.0711  0.0129  0.0129  0.0129  0.0000  0.0000  0.0000  0.0000  0.0000 </r>
       </set>
       <set comment="band 12">
        <r>  0.0214  0.0068  0.0067  0.0068  0.0000  0.0000  0.0000  0.0000  0.0000 </r>
        <r>  0.0214  0.0068  0.0067  0.0068  0.0000  0.0000  0.0000  0.0000  0.0000 </r>
       </set>
      </set>
      <set comment="kpoint 27">
       <set comment="band 1">
        <r>  0.2124  0.0008  0.0008  0.0008  0.0000  0.0000  0.0000  0.0000  0.0000 </r>
        <r>  0.2124  0.0008  0.0008  0.0008  0.0000  0.0000  0.0000  0.0000  0.0000 </r>
       </set>
       <set comment="band 2">
        <r>  0.0626  0.0524  0.0524  0.0524  0.0000  0.0000  0.0000  0.0000  0.0000 </r>
        <r>  0.0626  0.0524  0.0524  0.0524  0.0000  0.0000  0.0000  0.0000  0.0000 </r>
       </set>
       <set comment="band 3">
        <r>  0.0000  0.1241  0.0053  0.0839  0.0000  0.0000  0.0000  0.0000  0.0000 </r>
        <r>  0.0000  0.1241  0.0053  0.0839  0.0000  0.0000  0.0000  0.0000  0.0000 </r>
       </set>
       <set comment="band 4">
        <r>  0.0000  0.0181  0.1369  0.0583  0.0000  0.0000  0.0000  0.0000  0.0000 </r>
        <r>  0.0000  0.0181  0.1369  0.0583  0.0000  0.0000  0.0000  0.0000  0.0000 </r>
       </set>
       <set comment="band 5">
        <r>  0.1039  0.0301  0.0301  0.0301  0.0000  0.0000  0.0000  0.0000  0.0000 </r>
        <r>  0.1039  0.0301  0.0301  0.0301  0.0000  0.0000  0.0000  0.0000  0.0000 </r>
       </set>
       <set comment="band 6">
        <r>  0.0000  0.0059  0.0606  0.0885  0.0000  0.0000  0.0000  0.0000  0.0000 </r>
        <r>  0.0000  0.0059  0.0606  0.0885  0.0000  0.0000  0.0000  0.0000  0.0000 </r>
       </set>
       <set comment="band 7">
        <r>  0.0000  0.0974  0.0427  0.0149  0.0000  0.0000  0.0000  0.0000  0.0000 </r>
        <r>  0.0000  0.0974  0.0427  0.0149  0.0000  0.0000  0.0000  0.0000  0.0000 </r>
       </set>
       <set comment="band 8">
        <r>  0.2042  0.0322  0.0322  0.0322  0.0000  0.0000  0.0000  0.0000  0.0000 </r>
        <r>  0.2042  0.0322  0.0322  0.0322  0.0000  0.0000  0.0000  0.0000  0.0000 </r>
       </set>
       <set comment="band 9">
        <r>  0.0000  0.0012  0.0004  0.0004  0.0000  0.0000  0.0000  0.0000  0.0000 </r>
        <r>  0.0000  0.0012  0.0004  0.0004  0.0000  0.0000  0.0000  0.0000  0.0000 </r>
       </set>
       <set comment="band 10">
        <r>  0.0000  0.0001  0.0009  0.0009  0.0000  0.0000  0.0000  0.0000  0.0000 </r>
        <r>  0.0000  0.0001  0.0009  0.0009  0.0000  0.0000  0.0000  0.0000  0.0000 </r>
       </set>
       <set comment="band 11">
        <r>  0.0769  0.0112  0.0112  0.0112  0.0000  0.0000  0.0000  0.0000  0.0000 </r>
        <r>  0.0769  0.0112  0.0112  0.0112  0.0000  0.0000  0.0000  0.0000  0.0000 </r>
       </set>
       <set comment="band 12">
        <r>  0.0173  0.0072  0.0072  0.0072  0.0000  0.0000  0.0000  0.0000  0.0000 </r>
        <r>  0.0173  0.0072  0.0072  0.0072  0.0000  0.0000  0.0000  0.0000  0.0000 </r>
       </set>
      </set>
      <set comment="kpoint 28">
       <set comment="band 1">
        <r>  0.2126  0.0006  0.0006  0.0006  0.0000  0.0000  0.0000  0.0000  0.0000 </r>
        <r>  0.2126  0.0006  0.0006  0.0006  0.0000  0.0000  0.0000  0.0000  0.0000 </r>
       </set>
       <set comment="band 2">
        <r>  0.0566  0.0544  0.0544  0.0544  0.0000  0.0000  0.0000  0.0000  0.0000 </r>
        <r>  0.0566  0.0545  0.0545  0.0545  0.0000  0.0000  0.0000  0.0000  0.0000 </r>
       </set>
       <set comment="band 3">
        <r>  0.0000  0.1046  0.0017  0.1073  0.0000  0.0000  0.0000  0.0000  0.0000 </r>
        <r>  0.0000  0.1046  0.0017  0.1073  0.0000  0.0000  0.0000  0.0000  0.0000 </r>
       </set>
       <set comment="band 4">
        <r>  0.0000  0.0378  0.1407  0.0351  0.0000  0.0000  0.0000  0.0000  0.0000 </r>
        <r>  0.0000  0.0378  0.1407  0.0351  0.0000  0.0000  0.0000  0.0000  0.0000 </r>
       </set>
       <set comment="band 5">
        <r>  0.0932  0.0325  0.0325  0.0325  0.0000  0.0000  0.0000  0.0000  0.0000 </r>
        <r>  0.0932  0.0325  0.0325  0.0325  0.0000  0.0000  0.0000  0.0000  0.0000 </r>
       </set>
       <set comment="band 6">
        <r>  0.0000  0.0148  0.0416  0.0984  0.0000  0.0000  0.0000  0.0000  0.0000 </r>
        <r>  0.0000  0.0148  0.0416  0.0984  0.0000  0.0000  0.0000  0.0000  0.0000 </r>
       </set>
       <set comment="band 7">
        <r>  0.0000  0.0884  0.0616  0.0048  0.0000  0.0000  0.0000  0.0000  0.0000 </r>
        <r>  0.0000  0.0884  0.0616  0.0048  0.0000  0.0000  0.0000  0.0000  0.0000 </r>
       </set>
       <set comment="band 8">
        <r>  0.2192  0.0291  0.0291  0.0290  0.0000  0.0000  0.0000  0.0000  0.0000 </r>
        <r>  0.2192  0.0291  0.0291  0.0290  0.0000  0.0000  0.0000  0.0000  0.0000 </r>
       </set>
       <set comment="band 9">
        <r>  0.0000  0.0006  0.0003  0.0007  0.0000  0.0000  0.0000  0.0000  0.0000 </r>
        <r>  0.0000  0.0006  0.0003  0.0007  0.0000  0.0000  0.0000  0.0000  0.0000 </r>
       </set>
       <set comment="band 10">
        <r>  0.0000  0.0005  0.0008  0.0004  0.0000  0.0000  0.0000  0.0000  0.0000 </r>
        <r>  0.0000  0.0005  0.0008  0.0004  0.0000  0.0000  0.0000  0.0000  0.0000 </r>
       </set>
       <set comment="band 11">
        <r>  0.0819  0.0094  0.0093  0.0094  0.0000  0.0000  0.0000  0.0000  0.0000 </r>
        <r>  0.0819  0.0093  0.0094  0.0093  0.0000  0.0000  0.0000  0.0000  0.0000 </r>
       </set>
       <set comment="band 12">
        <r>  0.0139  0.0080  0.0080  0.0080  0.0000  0.0000  0.0000  0.0000  0.0000 </r>
        <r>  0.0139  0.0080  0.0080  0.0079  0.0000  0.0000  0.0000  0.0000  0.0000 </r>
       </set>
      </set>
      <set comment="kpoint 29">
       <set comment="band 1">
        <r>  0.2128  0.0005  0.0005  0.0005  0.0000  0.0000  0.0000  0.0000  0.0000 </r>
        <r>  0.2128  0.0005  0.0005  0.0005  0.0000  0.0000  0.0000  0.0000  0.0000 </r>
       </set>
       <set comment="band 2">
        <r>  0.0499  0.0566  0.0566  0.0566  0.0000  0.0000  0.0000  0.0000  0.0000 </r>
        <r>  0.0499  0.0566  0.0567  0.0566  0.0000  0.0000  0.0000  0.0000  0.0000 </r>
       </set>
       <set comment="band 3">
        <r>  0.0000  0.0408  0.0746  0.0986  0.0000  0.0000  0.0000  0.0000  0.0000 </r>
        <r>  0.0000  0.0408  0.0746  0.0986  0.0000  0.0000  0.0000  0.0000  0.0000 </r>
       </set>
       <set comment="band 4">
        <r>  0.0000  0.1019  0.0681  0.0440  0.0000  0.0000  0.0000  0.0000  0.0000 </r>
        <r>  0.0000  0.1019  0.0681  0.0440  0.0000  0.0000  0.0000  0.0000  0.0000 </r>
       </set>
       <set comment="band 5">
        <r>  0.0806  0.0353  0.0353  0.0353  0.0000  0.0000  0.0000  0.0000  0.0000 </r>
        <r>  0.0806  0.0353  0.0353  0.0353  0.0000  0.0000  0.0000  0.0000  0.0000 </r>
       </set>
       <set comment="band 6">
        <r>  0.0000  0.0783  0.0014  0.0747  0.0000  0.0000  0.0000  0.0000  0.0000 </r>
        <r>  0.0000  0.0783  0.0014  0.0747  0.0000  0.0000  0.0000  0.0000  0.0000 </r>
       </set>
       <set comment="band 7">
        <r>  0.0000  0.0246  0.1015  0.0283  0.0000  0.0000  0.0000  0.0000  0.0000 </r>
        <r>  0.0000  0.0246  0.1016  0.0283  0.0000  0.0000  0.0000  0.0000  0.0000 </r>
       </set>
       <set comment="band 8">
        <r>  0.2367  0.0254  0.0254  0.0254  0.0000  0.0000  0.0000  0.0000  0.0000 </r>
        <r>  0.2367  0.0254  0.0254  0.0254  0.0000  0.0000  0.0000  0.0000  0.0000 </r>
       </set>
       <set comment="band 9">
        <r>  0.0000  0.0007  0.0001  0.0006  0.0000  0.0000  0.0000  0.0000  0.0000 </r>
        <r>  0.0000  0.0007  0.0001  0.0006  0.0000  0.0000  0.0000  0.0000  0.0000 </r>
       </set>
       <set comment="band 10">
        <r>  0.0000  0.0003  0.0008  0.0003  0.0000  0.0000  0.0000  0.0000  0.0000 </r>
        <r>  0.0000  0.0003  0.0008  0.0003  0.0000  0.0000  0.0000  0.0000  0.0000 </r>
       </set>
       <set comment="band 11">
        <r>  0.0863  0.0075  0.0075  0.0075  0.0000  0.0000  0.0000  0.0000  0.0000 </r>
        <r>  0.0863  0.0075  0.0075  0.0075  0.0000  0.0000  0.0000  0.0000  0.0000 </r>
       </set>
       <set comment="band 12">
        <r>  0.0110  0.0089  0.0089  0.0089  0.0000  0.0000  0.0000  0.0000  0.0000 </r>
        <r>  0.0110  0.0089  0.0089  0.0089  0.0000  0.0000  0.0000  0.0000  0.0000 </r>
       </set>
      </set>
      <set comment="kpoint 30">
       <set comment="band 1">
        <r>  0.2130  0.0004  0.0004  0.0004  0.0000  0.0000  0.0000  0.0000  0.0000 </r>
        <r>  0.2130  0.0004  0.0004  0.0004  0.0000  0.0000  0.0000  0.0000  0.0000 </r>
       </set>
       <set comment="band 2">
        <r>  0.0425  0.0590  0.0590  0.0590  0.0000  0.0000  0.0000  0.0000  0.0000 </r>
        <r>  0.0425  0.0590  0.0590  0.0590  0.0000  0.0000  0.0000  0.0000  0.0000 </r>
       </set>
       <set comment="band 3">
        <r>  0.0000  0.1253  0.0047  0.0844  0.0000  0.0000  0.0000  0.0000  0.0000 </r>
        <r>  0.0000  0.1253  0.0047  0.0844  0.0000  0.0000  0.0000  0.0000  0.0000 </r>
       </set>
       <set comment="band 4">
        <r>  0.0000  0.0176  0.1382  0.0585  0.0000  0.0000  0.0000  0.0000  0.0000 </r>
        <r>  0.0000  0.0176  0.1382  0.0585  0.0000  0.0000  0.0000  0.0000  0.0000 </r>
       </set>
       <set comment="band 5">
        <r>  0.0656  0.0384  0.0383  0.0384  0.0000  0.0000  0.0000  0.0000  0.0000 </r>
        <r>  0.0656  0.0384  0.0384  0.0384  0.0000  0.0000  0.0000  0.0000  0.0000 </r>
       </set>
       <set comment="band 6">
        <r>  0.0000  0.0780  0.0749  0.0010  0.0000  0.0000  0.0000  0.0000  0.0000 </r>
        <r>  0.0000  0.0780  0.0749  0.0010  0.0000  0.0000  0.0000  0.0000  0.0000 </r>
       </set>
       <set comment="band 7">
        <r>  0.0000  0.0246  0.0278  0.1016  0.0000  0.0000  0.0000  0.0000  0.0000 </r>
        <r>  0.0000  0.0246  0.0278  0.1016  0.0000  0.0000  0.0000  0.0000  0.0000 </r>
       </set>
       <set comment="band 8">
        <r>  0.2573  0.0211  0.0211  0.0211  0.0000  0.0000  0.0000  0.0000  0.0000 </r>
        <r>  0.2573  0.0211  0.0211  0.0211  0.0000  0.0000  0.0000  0.0000  0.0000 </r>
       </set>
       <set comment="band 9">
        <r>  0.0000  0.0004  0.0003  0.0005  0.0000  0.0000  0.0000  0.0000  0.0000 </r>
        <r>  0.0000  0.0004  0.0003  0.0005  0.0000  0.0000  0.0000  0.0000  0.0000 </r>
       </set>
       <set comment="band 10">
        <r>  0.0000  0.0004  0.0005  0.0003  0.0000  0.0000  0.0000  0.0000  0.0000 </r>
        <r>  0.0000  0.0004  0.0005  0.0003  0.0000  0.0000  0.0000  0.0000  0.0000 </r>
       </set>
       <set comment="band 11">
        <r>  0.0901  0.0057  0.0057  0.0057  0.0000  0.0000  0.0000  0.0000  0.0000 </r>
        <r>  0.0901  0.0057  0.0057  0.0057  0.0000  0.0000  0.0000  0.0000  0.0000 </r>
       </set>
       <set comment="band 12">
        <r>  0.0084  0.0095  0.0111  0.0090  0.0000  0.0000  0.0000  0.0000  0.0000 </r>
        <r>  0.0084  0.0095  0.0108  0.0092  0.0000  0.0000  0.0000  0.0000  0.0000 </r>
       </set>
      </set>
      <set comment="kpoint 31">
       <set comment="band 1">
        <r>  0.2131  0.0002  0.0002  0.0002  0.0000  0.0000  0.0000  0.0000  0.0000 </r>
        <r>  0.2131  0.0002  0.0002  0.0002  0.0000  0.0000  0.0000  0.0000  0.0000 </r>
       </set>
       <set comment="band 2">
        <r>  0.0343  0.0616  0.0616  0.0616  0.0000  0.0000  0.0000  0.0000  0.0000 </r>
        <r>  0.0343  0.0616  0.0616  0.0616  0.0000  0.0000  0.0000  0.0000  0.0000 </r>
       </set>
       <set comment="band 3">
        <r>  0.0000  0.0485  0.0338  0.1324  0.0000  0.0000  0.0000  0.0000  0.0000 </r>
        <r>  0.0000  0.0485  0.0338  0.1324  0.0000  0.0000  0.0000  0.0000  0.0000 </r>
       </set>
       <set comment="band 4">
        <r>  0.0000  0.0946  0.1094  0.0107  0.0000  0.0000  0.0000  0.0000  0.0000 </r>
        <r>  0.0000  0.0946  0.1094  0.0107  0.0000  0.0000  0.0000  0.0000  0.0000 </r>
       </set>
       <set comment="band 5">
        <r>  0.0484  0.0417  0.0417  0.0417  0.0000  0.0000  0.0000  0.0000  0.0000 </r>
        <r>  0.0484  0.0417  0.0417  0.0417  0.0000  0.0000  0.0000  0.0000  0.0000 </r>
       </set>
       <set comment="band 6">
        <r>  0.0000  0.1002  0.0159  0.0372  0.0000  0.0000  0.0000  0.0000  0.0000 </r>
        <r>  0.0000  0.1002  0.0159  0.0372  0.0000  0.0000  0.0000  0.0000  0.0000 </r>
       </set>
       <set comment="band 7">
        <r>  0.0000  0.0020  0.0863  0.0650  0.0000  0.0000  0.0000  0.0000  0.0000 </r>
        <r>  0.0000  0.0020  0.0864  0.0650  0.0000  0.0000  0.0000  0.0000  0.0000 </r>
       </set>
       <set comment="band 8">
        <r>  0.2810  0.0163  0.0162  0.0163  0.0000  0.0000  0.0000  0.0000  0.0000 </r>
        <r>  0.2810  0.0163  0.0163  0.0163  0.0000  0.0000  0.0000  0.0000  0.0000 </r>
       </set>
       <set comment="band 9">
        <r>  0.0000  0.0002  0.0001  0.0006  0.0000  0.0000  0.0000  0.0000  0.0000 </r>
        <r>  0.0000  0.0002  0.0001  0.0006  0.0000  0.0000  0.0000  0.0000  0.0000 </r>
       </set>
       <set comment="band 10">
        <r>  0.0000  0.0004  0.0005  0.0000  0.0000  0.0000  0.0000  0.0000  0.0000 </r>
        <r>  0.0000  0.0004  0.0005  0.0000  0.0000  0.0000  0.0000  0.0000  0.0000 </r>
       </set>
       <set comment="band 11">
        <r>  0.0935  0.0040  0.0040  0.0040  0.0000  0.0000  0.0000  0.0000  0.0000 </r>
        <r>  0.0935  0.0040  0.0040  0.0040  0.0000  0.0000  0.0000  0.0000  0.0000 </r>
       </set>
       <set comment="band 12">
        <r>  0.0061  0.0108  0.0108  0.0107  0.0000  0.0000  0.0000  0.0000  0.0000 </r>
        <r>  0.0061  0.0108  0.0108  0.0107  0.0000  0.0000  0.0000  0.0000  0.0000 </r>
       </set>
      </set>
      <set comment="kpoint 32">
       <set comment="band 1">
        <r>  0.2132  0.0002  0.0002  0.0002  0.0000  0.0000  0.0000  0.0000  0.0000 </r>
        <r>  0.2132  0.0002  0.0002  0.0002  0.0000  0.0000  0.0000  0.0000  0.0000 </r>
       </set>
       <set comment="band 2">
        <r>  0.0255  0.0644  0.0644  0.0644  0.0000  0.0000  0.0000  0.0000  0.0000 </r>
        <r>  0.0255  0.0644  0.0644  0.0644  0.0000  0.0000  0.0000  0.0000  0.0000 </r>
       </set>
       <set comment="band 3">
        <r>  0.0000  0.1277  0.0811  0.0064  0.0000  0.0000  0.0000  0.0000  0.0000 </r>
        <r>  0.0000  0.1277  0.0811  0.0064  0.0000  0.0000  0.0000  0.0000  0.0000 </r>
       </set>
       <set comment="band 4">
        <r>  0.0000  0.0158  0.0624  0.1370  0.0000  0.0000  0.0000  0.0000  0.0000 </r>
        <r>  0.0000  0.0158  0.0624  0.1370  0.0000  0.0000  0.0000  0.0000  0.0000 </r>
       </set>
       <set comment="band 5">
        <r>  0.0302  0.0452  0.0452  0.0451  0.0000  0.0000  0.0000  0.0000  0.0000 </r>
        <r>  0.0302  0.0451  0.0452  0.0452  0.0000  0.0000  0.0000  0.0000  0.0000 </r>
       </set>
       <set comment="band 6">
        <r>  0.0000  0.0817  0.0512  0.0199  0.0000  0.0000  0.0000  0.0000  0.0000 </r>
        <r>  0.0000  0.0817  0.0512  0.0199  0.0000  0.0000  0.0000  0.0000  0.0000 </r>
       </set>
       <set comment="band 7">
        <r>  0.0000  0.0201  0.0507  0.0820  0.0000  0.0000  0.0000  0.0000  0.0000 </r>
        <r>  0.0000  0.0201  0.0507  0.0820  0.0000  0.0000  0.0000  0.0000  0.0000 </r>
       </set>
       <set comment="band 8">
        <r>  0.3064  0.0111  0.0111  0.0111  0.0000  0.0000  0.0000  0.0000  0.0000 </r>
        <r>  0.3064  0.0111  0.0111  0.0111  0.0000  0.0000  0.0000  0.0000  0.0000 </r>
       </set>
       <set comment="band 9">
        <r>  0.0000  0.0004  0.0002  0.0000  0.0000  0.0000  0.0000  0.0000  0.0000 </r>
        <r>  0.0000  0.0004  0.0002  0.0000  0.0000  0.0000  0.0000  0.0000  0.0000 </r>
       </set>
       <set comment="band 10">
        <r>  0.0000  0.0000  0.0003  0.0004  0.0000  0.0000  0.0000  0.0000  0.0000 </r>
        <r>  0.0000  0.0000  0.0003  0.0004  0.0000  0.0000  0.0000  0.0000  0.0000 </r>
       </set>
       <set comment="band 11">
        <r>  0.0963  0.0026  0.0026  0.0026  0.0000  0.0000  0.0000  0.0000  0.0000 </r>
        <r>  0.0963  0.0026  0.0026  0.0026  0.0000  0.0000  0.0000  0.0000  0.0000 </r>
       </set>
       <set comment="band 12">
        <r>  0.0041  0.0116  0.0116  0.0115  0.0000  0.0000  0.0000  0.0000  0.0000 </r>
        <r>  0.0041  0.0117  0.0116  0.0116  0.0000  0.0000  0.0000  0.0000  0.0000 </r>
       </set>
      </set>
      <set comment="kpoint 33">
       <set comment="band 1">
        <r>  0.2133  0.0001  0.0001  0.0001  0.0000  0.0000  0.0000  0.0000  0.0000 </r>
        <r>  0.2133  0.0001  0.0001  0.0001  0.0000  0.0000  0.0000  0.0000  0.0000 </r>
       </set>
       <set comment="band 2">
        <r>  0.0165  0.0671  0.0671  0.0671  0.0000  0.0000  0.0000  0.0000  0.0000 </r>
        <r>  0.0165  0.0671  0.0671  0.0671  0.0000  0.0000  0.0000  0.0000  0.0000 </r>
       </set>
       <set comment="band 3">
        <r>  0.0000  0.0139  0.1095  0.0922  0.0000  0.0000  0.0000  0.0000  0.0000 </r>
        <r>  0.0000  0.0139  0.1095  0.0922  0.0000  0.0000  0.0000  0.0000  0.0000 </r>
       </set>
       <set comment="band 4">
        <r>  0.0000  0.1299  0.0342  0.0515  0.0000  0.0000  0.0000  0.0000  0.0000 </r>
        <r>  0.0000  0.1299  0.0342  0.0515  0.0000  0.0000  0.0000  0.0000  0.0000 </r>
       </set>
       <set comment="band 5">
        <r>  0.0142  0.0481  0.0481  0.0481  0.0000  0.0000  0.0000  0.0000  0.0000 </r>
        <r>  0.0142  0.0481  0.0481  0.0481  0.0000  0.0000  0.0000  0.0000  0.0000 </r>
       </set>
       <set comment="band 6">
        <r>  0.0000  0.0657  0.0046  0.0819  0.0000  0.0000  0.0000  0.0000  0.0000 </r>
        <r>  0.0000  0.0657  0.0046  0.0819  0.0000  0.0000  0.0000  0.0000  0.0000 </r>
       </set>
       <set comment="band 7">
        <r>  0.0000  0.0357  0.0969  0.0196  0.0000  0.0000  0.0000  0.0000  0.0000 </r>
        <r>  0.0000  0.0357  0.0969  0.0196  0.0000  0.0000  0.0000  0.0000  0.0000 </r>
       </set>
       <set comment="band 8">
        <r>  0.3300  0.0062  0.0062  0.0062  0.0000  0.0000  0.0000  0.0000  0.0000 </r>
        <r>  0.3300  0.0062  0.0062  0.0063  0.0000  0.0000  0.0000  0.0000  0.0000 </r>
       </set>
       <set comment="band 9">
        <r>  0.0000  0.0002  0.0000  0.0002  0.0000  0.0000  0.0000  0.0000  0.0000 </r>
        <r>  0.0000  0.0002  0.0000  0.0002  0.0000  0.0000  0.0000  0.0000  0.0000 </r>
       </set>
       <set comment="band 10">
        <r>  0.0000  0.0001  0.0003  0.0001  0.0000  0.0000  0.0000  0.0000  0.0000 </r>
        <r>  0.0000  0.0001  0.0003  0.0001  0.0000  0.0000  0.0000  0.0000  0.0000 </r>
       </set>
       <set comment="band 11">
        <r>  0.0986  0.0015  0.0015  0.0015  0.0000  0.0000  0.0000  0.0000  0.0000 </r>
        <r>  0.0986  0.0015  0.0015  0.0015  0.0000  0.0000  0.0000  0.0000  0.0000 </r>
       </set>
       <set comment="band 12">
        <r>  0.0022  0.0118  0.0134  0.0117  0.0000  0.0000  0.0000  0.0000  0.0000 </r>
        <r>  0.0022  0.0119  0.0134  0.0122  0.0000  0.0000  0.0000  0.0000  0.0000 </r>
       </set>
      </set>
      <set comment="kpoint 34">
       <set comment="band 1">
        <r>  0.2134  0.0000  0.0000  0.0000  0.0000  0.0000  0.0000  0.0000  0.0000 </r>
        <r>  0.2134  0.0000  0.0000  0.0000  0.0000  0.0000  0.0000  0.0000  0.0000 </r>
       </set>
       <set comment="band 2">
        <r>  0.0082  0.0696  0.0696  0.0696  0.0000  0.0000  0.0000  0.0000  0.0000 </r>
        <r>  0.0082  0.0696  0.0696  0.0696  0.0000  0.0000  0.0000  0.0000  0.0000 </r>
       </set>
       <set comment="band 3">
        <r>  0.0000  0.0693  0.0113  0.1353  0.0000  0.0000  0.0000  0.0000  0.0000 </r>
        <r>  0.0000  0.0693  0.0113  0.1353  0.0000  0.0000  0.0000  0.0000  0.0000 </r>
       </set>
       <set comment="band 4">
        <r>  0.0000  0.0747  0.1326  0.0086  0.0000  0.0000  0.0000  0.0000  0.0000 </r>
        <r>  0.0000  0.0746  0.1326  0.0086  0.0000  0.0000  0.0000  0.0000  0.0000 </r>
       </set>
       <set comment="band 5">
        <r>  0.0000  0.0750  0.0044  0.0723  0.0000  0.0000  0.0000  0.0000  0.0000 </r>
        <r>  0.0000  0.0750  0.0044  0.0723  0.0000  0.0000  0.0000  0.0000  0.0000 </r>
       </set>
       <set comment="band 6">
        <r>  0.0000  0.0262  0.0968  0.0289  0.0000  0.0000  0.0000  0.0000  0.0000 </r>
        <r>  0.0000  0.0262  0.0967  0.0289  0.0000  0.0000  0.0000  0.0000  0.0000 </r>
       </set>
       <set comment="band 7">
        <r>  0.0042  0.0498  0.0498  0.0498  0.0000  0.0000  0.0000  0.0000  0.0000 </r>
        <r>  0.0042  0.0498  0.0498  0.0498  0.0000  0.0000  0.0000  0.0000  0.0000 </r>
       </set>
       <set comment="band 8">
        <r>  0.3472  0.0026  0.0026  0.0026  0.0000  0.0000  0.0000  0.0000  0.0000 </r>
        <r>  0.3472  0.0026  0.0026  0.0026  0.0000  0.0000  0.0000  0.0000  0.0000 </r>
       </set>
       <set comment="band 9">
        <r>  0.0000  0.0001  0.0000  0.0001  0.0000  0.0000  0.0000  0.0000  0.0000 </r>
        <r>  0.0000  0.0001  0.0000  0.0001  0.0000  0.0000  0.0000  0.0000  0.0000 </r>
       </set>
       <set comment="band 10">
        <r>  0.0000  0.0000  0.0001  0.0001  0.0000  0.0000  0.0000  0.0000  0.0000 </r>
        <r>  0.0000  0.0000  0.0001  0.0001  0.0000  0.0000  0.0000  0.0000  0.0000 </r>
       </set>
       <set comment="band 11">
        <r>  0.1003  0.0007  0.0007  0.0007  0.0000  0.0000  0.0000  0.0000  0.0000 </r>
        <r>  0.1003  0.0007  0.0007  0.0007  0.0000  0.0000  0.0000  0.0000  0.0000 </r>
       </set>
       <set comment="band 12">
        <r>  0.0011  0.0147  0.0086  0.0153  0.0000  0.0000  0.0000  0.0000  0.0000 </r>
        <r>  0.0011  0.0143  0.0085  0.0159  0.0000  0.0000  0.0000  0.0000  0.0000 </r>
       </set>
      </set>
      <set comment="kpoint 35">
       <set comment="band 1">
        <r>  0.2134  0.0000  0.0000  0.0000  0.0000  0.0000  0.0000  0.0000  0.0000 </r>
        <r>  0.2134  0.0000  0.0000  0.0000  0.0000  0.0000  0.0000  0.0000  0.0000 </r>
       </set>
       <set comment="band 2">
        <r>  0.0022  0.0714  0.0714  0.0714  0.0000  0.0000  0.0000  0.0000  0.0000 </r>
        <r>  0.0022  0.0714  0.0714  0.0714  0.0000  0.0000  0.0000  0.0000  0.0000 </r>
       </set>
       <set comment="band 3">
        <r>  0.0000  0.0682  0.0368  0.1112  0.0000  0.0000  0.0000  0.0000  0.0000 </r>
        <r>  0.0000  0.0682  0.0368  0.1112  0.0000  0.0000  0.0000  0.0000  0.0000 </r>
       </set>
       <set comment="band 4">
        <r>  0.0000  0.0759  0.1073  0.0329  0.0000  0.0000  0.0000  0.0000  0.0000 </r>
        <r>  0.0000  0.0759  0.1073  0.0329  0.0000  0.0000  0.0000  0.0000  0.0000 </r>
       </set>
       <set comment="band 5">
        <r>  0.0000  0.0110  0.0431  0.0974  0.0000  0.0000  0.0000  0.0000  0.0000 </r>
        <r>  0.0000  0.0110  0.0431  0.0974  0.0000  0.0000  0.0000  0.0000  0.0000 </r>
       </set>
       <set comment="band 6">
        <r>  0.0000  0.0900  0.0579  0.0036  0.0000  0.0000  0.0000  0.0000  0.0000 </r>
        <r>  0.0000  0.0900  0.0579  0.0036  0.0000  0.0000  0.0000  0.0000  0.0000 </r>
       </set>
       <set comment="band 7">
        <r>  0.0005  0.0504  0.0504  0.0504  0.0000  0.0000  0.0000  0.0000  0.0000 </r>
        <r>  0.0005  0.0504  0.0504  0.0504  0.0000  0.0000  0.0000  0.0000  0.0000 </r>
       </set>
       <set comment="band 8">
        <r>  0.3562  0.0006  0.0006  0.0006  0.0000  0.0000  0.0000  0.0000  0.0000 </r>
        <r>  0.3562  0.0006  0.0006  0.0006  0.0000  0.0000  0.0000  0.0000  0.0000 </r>
       </set>
       <set comment="band 9">
        <r>  0.0000  0.0000  0.0000  0.0000  0.0000  0.0000  0.0000  0.0000  0.0000 </r>
        <r>  0.0000  0.0000  0.0000  0.0000  0.0000  0.0000  0.0000  0.0000  0.0000 </r>
       </set>
       <set comment="band 10">
        <r>  0.0000  0.0000  0.0000  0.0000  0.0000  0.0000  0.0000  0.0000  0.0000 </r>
        <r>  0.0000  0.0000  0.0000  0.0000  0.0000  0.0000  0.0000  0.0000  0.0000 </r>
       </set>
       <set comment="band 11">
        <r>  0.1013  0.0002  0.0002  0.0002  0.0000  0.0000  0.0000  0.0000  0.0000 </r>
        <r>  0.1013  0.0002  0.0002  0.0002  0.0000  0.0000  0.0000  0.0000  0.0000 </r>
       </set>
       <set comment="band 12">
        <r>  0.0001  0.0085  0.0158  0.0158  0.0000  0.0000  0.0000  0.0000  0.0000 </r>
        <r>  0.0001  0.0081  0.0157  0.0161  0.0000  0.0000  0.0000  0.0000  0.0000 </r>
       </set>
      </set>
      <set comment="kpoint 36">
       <set comment="band 1">
        <r>  0.2135  0.0000  0.0000  0.0000  0.0000  0.0000  0.0000  0.0000  0.0000 </r>
        <r>  0.2135  0.0000  0.0000  0.0000  0.0000  0.0000  0.0000  0.0000  0.0000 </r>
       </set>
       <set comment="band 2">
        <r>  0.0000  0.0499  0.1023  0.0640  0.0000  0.0000  0.0000  0.0000  0.0000 </r>
        <r>  0.0000  0.0499  0.1023  0.0640  0.0000  0.0000  0.0000  0.0000  0.0000 </r>
       </set>
       <set comment="band 3">
        <r>  0.0000  0.1134  0.0016  0.1012  0.0000  0.0000  0.0000  0.0000  0.0000 </r>
        <r>  0.0000  0.1134  0.0016  0.1012  0.0000  0.0000  0.0000  0.0000  0.0000 </r>
       </set>
       <set comment="band 4">
        <r>  0.0000  0.0529  0.1123  0.0510  0.0000  0.0000  0.0000  0.0000  0.0000 </r>
        <r>  0.0000  0.0529  0.1123  0.0510  0.0000  0.0000  0.0000  0.0000  0.0000 </r>
       </set>
       <set comment="band 5">
        <r>  0.0000  0.1093  0.0391  0.0031  0.0000  0.0000  0.0000  0.0000  0.0000 </r>
        <r>  0.0000  0.1093  0.0391  0.0031  0.0000  0.0000  0.0000  0.0000  0.0000 </r>
       </set>
       <set comment="band 6">
        <r>  0.0000  0.0381  0.0984  0.0149  0.0000  0.0000  0.0000  0.0000  0.0000 </r>
        <r>  0.0000  0.0381  0.0984  0.0149  0.0000  0.0000  0.0000  0.0000  0.0000 </r>
       </set>
       <set comment="band 7">
        <r>  0.0000  0.0040  0.0139  0.1335  0.0000  0.0000  0.0000  0.0000  0.0000 </r>
        <r>  0.0000  0.0040  0.0139  0.1335  0.0000  0.0000  0.0000  0.0000  0.0000 </r>
       </set>
       <set comment="band 8">
        <r>  0.3587  0.0000  0.0000  0.0000  0.0000  0.0000  0.0000  0.0000  0.0000 </r>
        <r>  0.3587  0.0000  0.0000  0.0000  0.0000  0.0000  0.0000  0.0000  0.0000 </r>
       </set>
       <set comment="band 9">
        <r>  0.0000  0.0000  0.0000  0.0000  0.0000  0.0000  0.0000  0.0000  0.0000 </r>
        <r>  0.0000  0.0000  0.0000  0.0000  0.0000  0.0000  0.0000  0.0000  0.0000 </r>
       </set>
       <set comment="band 10">
        <r>  0.0000  0.0000  0.0000  0.0000  0.0000  0.0000  0.0000  0.0000  0.0000 </r>
        <r>  0.0000  0.0000  0.0000  0.0000  0.0000  0.0000  0.0000  0.0000  0.0000 </r>
       </set>
       <set comment="band 11">
        <r>  0.1017  0.0000  0.0000  0.0000  0.0000  0.0000  0.0000  0.0000  0.0000 </r>
        <r>  0.1017  0.0000  0.0000  0.0000  0.0000  0.0000  0.0000  0.0000  0.0000 </r>
       </set>
       <set comment="band 12">
        <r>  0.0000  0.0175  0.0076  0.0149  0.0000  0.0000  0.0000  0.0000  0.0000 </r>
        <r>  0.0000  0.0175  0.0076  0.0149  0.0000  0.0000  0.0000  0.0000  0.0000 </r>
       </set>
      </set>
      <set comment="kpoint 37">
       <set comment="band 1">
        <r>  0.2135  0.0000  0.0000  0.0000  0.0000  0.0000  0.0000  0.0000  0.0000 </r>
        <r>  0.2135  0.0000  0.0000  0.0000  0.0000  0.0000  0.0000  0.0000  0.0000 </r>
       </set>
       <set comment="band 2">
        <r>  0.0000  0.0736  0.0294  0.1131  0.0000  0.0000  0.0000  0.0000  0.0000 </r>
        <r>  0.0000  0.0736  0.0294  0.1131  0.0000  0.0000  0.0000  0.0000  0.0000 </r>
       </set>
       <set comment="band 3">
        <r>  0.0000  0.1124  0.0075  0.0962  0.0000  0.0000  0.0000  0.0000  0.0000 </r>
        <r>  0.0000  0.1124  0.0075  0.0962  0.0000  0.0000  0.0000  0.0000  0.0000 </r>
       </set>
       <set comment="band 4">
        <r>  0.0000  0.0301  0.1793  0.0068  0.0000  0.0000  0.0000  0.0000  0.0000 </r>
        <r>  0.0000  0.0301  0.1793  0.0068  0.0000  0.0000  0.0000  0.0000  0.0000 </r>
       </set>
       <set comment="band 5">
        <r>  0.0000  0.0872  0.0207  0.0435  0.0000  0.0000  0.0000  0.0000  0.0000 </r>
        <r>  0.0000  0.0872  0.0207  0.0435  0.0000  0.0000  0.0000  0.0000  0.0000 </r>
       </set>
       <set comment="band 6">
        <r>  0.0000  0.0505  0.0104  0.0905  0.0000  0.0000  0.0000  0.0000  0.0000 </r>
        <r>  0.0000  0.0505  0.0104  0.0905  0.0000  0.0000  0.0000  0.0000  0.0000 </r>
       </set>
       <set comment="band 7">
        <r>  0.0000  0.0138  0.1202  0.0174  0.0000  0.0000  0.0000  0.0000  0.0000 </r>
        <r>  0.0000  0.0138  0.1202  0.0174  0.0000  0.0000  0.0000  0.0000  0.0000 </r>
       </set>
       <set comment="band 8">
        <r>  0.3587  0.0000  0.0000  0.0000  0.0000  0.0000  0.0000  0.0000  0.0000 </r>
        <r>  0.3587  0.0000  0.0000  0.0000  0.0000  0.0000  0.0000  0.0000  0.0000 </r>
       </set>
       <set comment="band 9">
        <r>  0.0000  0.0000  0.0000  0.0000  0.0000  0.0000  0.0000  0.0000  0.0000 </r>
        <r>  0.0000  0.0000  0.0000  0.0000  0.0000  0.0000  0.0000  0.0000  0.0000 </r>
       </set>
       <set comment="band 10">
        <r>  0.0000  0.0000  0.0000  0.0000  0.0000  0.0000  0.0000  0.0000  0.0000 </r>
        <r>  0.0000  0.0000  0.0000  0.0000  0.0000  0.0000  0.0000  0.0000  0.0000 </r>
       </set>
       <set comment="band 11">
        <r>  0.1017  0.0000  0.0000  0.0000  0.0000  0.0000  0.0000  0.0000  0.0000 </r>
        <r>  0.1017  0.0000  0.0000  0.0000  0.0000  0.0000  0.0000  0.0000  0.0000 </r>
       </set>
       <set comment="band 12">
        <r>  0.0000  0.0027  0.0331  0.0043  0.0000  0.0000  0.0000  0.0000  0.0000 </r>
        <r>  0.0000  0.0027  0.0331  0.0044  0.0000  0.0000  0.0000  0.0000  0.0000 </r>
       </set>
      </set>
      <set comment="kpoint 38">
       <set comment="band 1">
        <r>  0.2134  0.0000  0.0000  0.0000  0.0000  0.0000  0.0000  0.0000  0.0000 </r>
        <r>  0.2134  0.0000  0.0000  0.0000  0.0000  0.0000  0.0000  0.0000  0.0000 </r>
       </set>
       <set comment="band 2">
        <r>  0.0030  0.2141  0.0000  0.0000  0.0000  0.0000  0.0000  0.0000  0.0000 </r>
        <r>  0.0030  0.2141  0.0000  0.0000  0.0000  0.0000  0.0000  0.0000  0.0000 </r>
       </set>
       <set comment="band 3">
        <r>  0.0000  0.0000  0.0782  0.1375  0.0000  0.0000  0.0000  0.0000  0.0000 </r>
        <r>  0.0000  0.0000  0.0597  0.1560  0.0000  0.0000  0.0000  0.0000  0.0000 </r>
       </set>
       <set comment="band 4">
        <r>  0.0000  0.0000  0.1375  0.0782  0.0000  0.0000  0.0000  0.0000  0.0000 </r>
        <r>  0.0000  0.0000  0.1560  0.0597  0.0000  0.0000  0.0000  0.0000  0.0000 </r>
       </set>
       <set comment="band 5">
        <r>  0.0004  0.1508  0.0000  0.0000  0.0000  0.0000  0.0000  0.0000  0.0000 </r>
        <r>  0.0004  0.1508  0.0000  0.0000  0.0000  0.0000  0.0000  0.0000  0.0000 </r>
       </set>
       <set comment="band 6">
        <r>  0.0000  0.0000  0.0197  0.1321  0.0000  0.0000  0.0000  0.0000  0.0000 </r>
        <r>  0.0000  0.0000  0.0441  0.1077  0.0000  0.0000  0.0000  0.0000  0.0000 </r>
       </set>
       <set comment="band 7">
        <r>  0.0000  0.0000  0.1321  0.0197  0.0000  0.0000  0.0000  0.0000  0.0000 </r>
        <r>  0.0000  0.0000  0.1077  0.0441  0.0000  0.0000  0.0000  0.0000  0.0000 </r>
       </set>
       <set comment="band 8">
        <r>  0.3556  0.0023  0.0000  0.0000  0.0000  0.0000  0.0000  0.0000  0.0000 </r>
        <r>  0.3556  0.0023  0.0000  0.0000  0.0000  0.0000  0.0000  0.0000  0.0000 </r>
       </set>
       <set comment="band 9">
        <r>  0.0000  0.0001  0.0000  0.0000  0.0000  0.0000  0.0000  0.0000  0.0000 </r>
        <r>  0.0000  0.0001  0.0000  0.0000  0.0000  0.0000  0.0000  0.0000  0.0000 </r>
       </set>
       <set comment="band 10">
        <r>  0.0000  0.0000  0.0000  0.0000  0.0000  0.0000  0.0000  0.0000  0.0000 </r>
        <r>  0.0000  0.0000  0.0000  0.0000  0.0000  0.0000  0.0000  0.0000  0.0000 </r>
       </set>
       <set comment="band 11">
        <r>  0.1012  0.0007  0.0000  0.0000  0.0000  0.0000  0.0000  0.0000  0.0000 </r>
        <r>  0.1012  0.0007  0.0000  0.0000  0.0000  0.0000  0.0000  0.0000  0.0000 </r>
       </set>
       <set comment="band 12">
        <r>  0.0000  0.0002  0.0108  0.0290  0.0000  0.0000  0.0000  0.0000  0.0000 </r>
        <r>  0.0000  0.0002  0.0108  0.0290  0.0000  0.0000  0.0000  0.0000  0.0000 </r>
       </set>
      </set>
      <set comment="kpoint 39">
       <set comment="band 1">
        <r>  0.2134  0.0002  0.0000  0.0000  0.0000  0.0000  0.0000  0.0000  0.0000 </r>
        <r>  0.2134  0.0002  0.0000  0.0000  0.0000  0.0000  0.0000  0.0000  0.0000 </r>
       </set>
       <set comment="band 2">
        <r>  0.0113  0.2084  0.0000  0.0000  0.0000  0.0000  0.0000  0.0000  0.0000 </r>
        <r>  0.0113  0.2084  0.0000  0.0000  0.0000  0.0000  0.0000  0.0000  0.0000 </r>
       </set>
       <set comment="band 3">
        <r>  0.0000  0.0000  0.1896  0.0250  0.0000  0.0000  0.0000  0.0000  0.0000 </r>
        <r>  0.0000  0.0000  0.1381  0.0766  0.0000  0.0000  0.0000  0.0000  0.0000 </r>
       </set>
       <set comment="band 4">
        <r>  0.0000  0.0000  0.0250  0.1897  0.0000  0.0000  0.0000  0.0000  0.0000 </r>
        <r>  0.0000  0.0000  0.0766  0.1381  0.0000  0.0000  0.0000  0.0000  0.0000 </r>
       </set>
       <set comment="band 5">
        <r>  0.0015  0.1489  0.0000  0.0000  0.0000  0.0000  0.0000  0.0000  0.0000 </r>
        <r>  0.0015  0.1489  0.0000  0.0000  0.0000  0.0000  0.0000  0.0000  0.0000 </r>
       </set>
       <set comment="band 6">
        <r>  0.0000  0.0000  0.0399  0.1130  0.0000  0.0000  0.0000  0.0000  0.0000 </r>
        <r>  0.0000  0.0000  0.0973  0.0556  0.0000  0.0000  0.0000  0.0000  0.0000 </r>
       </set>
       <set comment="band 7">
        <r>  0.0000  0.0000  0.1130  0.0399  0.0000  0.0000  0.0000  0.0000  0.0000 </r>
        <r>  0.0000  0.0000  0.0557  0.0973  0.0000  0.0000  0.0000  0.0000  0.0000 </r>
       </set>
       <set comment="band 8">
        <r>  0.3470  0.0086  0.0000  0.0000  0.0000  0.0000  0.0000  0.0000  0.0000 </r>
        <r>  0.3470  0.0086  0.0000  0.0000  0.0000  0.0000  0.0000  0.0000  0.0000 </r>
       </set>
       <set comment="band 9">
        <r>  0.0001  0.0005  0.0000  0.0000  0.0000  0.0000  0.0000  0.0000  0.0000 </r>
        <r>  0.0001  0.0005  0.0000  0.0000  0.0000  0.0000  0.0000  0.0000  0.0000 </r>
       </set>
       <set comment="band 10">
        <r>  0.0000  0.0000  0.0000  0.0000  0.0000  0.0000  0.0000  0.0000  0.0000 </r>
        <r>  0.0000  0.0000  0.0000  0.0000  0.0000  0.0000  0.0000  0.0000  0.0000 </r>
       </set>
       <set comment="band 11">
        <r>  0.0998  0.0027  0.0000  0.0000  0.0000  0.0000  0.0000  0.0000  0.0000 </r>
        <r>  0.0998  0.0027  0.0000  0.0000  0.0000  0.0000  0.0000  0.0000  0.0000 </r>
       </set>
       <set comment="band 12">
        <r>  0.0000  0.0002  0.0295  0.0102  0.0000  0.0000  0.0000  0.0000  0.0000 </r>
        <r>  0.0000  0.0002  0.0282  0.0115  0.0000  0.0000  0.0000  0.0000  0.0000 </r>
       </set>
      </set>
      <set comment="kpoint 40">
       <set comment="band 1">
        <r>  0.2133  0.0004  0.0000  0.0000  0.0000  0.0000  0.0000  0.0000  0.0000 </r>
        <r>  0.2133  0.0004  0.0000  0.0000  0.0000  0.0000  0.0000  0.0000  0.0000 </r>
       </set>
       <set comment="band 2">
        <r>  0.0232  0.2001  0.0000  0.0000  0.0000  0.0000  0.0000  0.0000  0.0000 </r>
        <r>  0.0232  0.2001  0.0000  0.0000  0.0000  0.0000  0.0000  0.0000  0.0000 </r>
       </set>
       <set comment="band 3">
        <r>  0.0000  0.0000  0.0044  0.2087  0.0000  0.0000  0.0000  0.0000  0.0000 </r>
        <r>  0.0000  0.0000  0.0200  0.1930  0.0000  0.0000  0.0000  0.0000  0.0000 </r>
       </set>
       <set comment="band 4">
        <r>  0.0000  0.0000  0.2087  0.0044  0.0000  0.0000  0.0000  0.0000  0.0000 </r>
        <r>  0.0000  0.0000  0.1930  0.0200  0.0000  0.0000  0.0000  0.0000  0.0000 </r>
       </set>
       <set comment="band 5">
        <r>  0.0033  0.1461  0.0000  0.0000  0.0000  0.0000  0.0000  0.0000  0.0000 </r>
        <r>  0.0033  0.1460  0.0000  0.0000  0.0000  0.0000  0.0000  0.0000  0.0000 </r>
       </set>
       <set comment="band 6">
        <r>  0.0000  0.0000  0.1042  0.0503  0.0000  0.0000  0.0000  0.0000  0.0000 </r>
        <r>  0.0000  0.0000  0.0210  0.1335  0.0000  0.0000  0.0000  0.0000  0.0000 </r>
       </set>
       <set comment="band 7">
        <r>  0.0000  0.0000  0.0503  0.1042  0.0000  0.0000  0.0000  0.0000  0.0000 </r>
        <r>  0.0000  0.0000  0.1335  0.0210  0.0000  0.0000  0.0000  0.0000  0.0000 </r>
       </set>
       <set comment="band 8">
        <r>  0.3344  0.0178  0.0000  0.0000  0.0000  0.0000  0.0000  0.0000  0.0000 </r>
        <r>  0.3344  0.0178  0.0000  0.0000  0.0000  0.0000  0.0000  0.0000  0.0000 </r>
       </set>
       <set comment="band 9">
        <r>  0.0004  0.0008  0.0000  0.0000  0.0000  0.0000  0.0000  0.0000  0.0000 </r>
        <r>  0.0004  0.0008  0.0000  0.0000  0.0000  0.0000  0.0000  0.0000  0.0000 </r>
       </set>
       <set comment="band 10">
        <r>  0.0000  0.0000  0.0000  0.0000  0.0000  0.0000  0.0000  0.0000  0.0000 </r>
        <r>  0.0000  0.0000  0.0000  0.0000  0.0000  0.0000  0.0000  0.0000  0.0000 </r>
       </set>
       <set comment="band 11">
        <r>  0.0977  0.0059  0.0000  0.0000  0.0000  0.0000  0.0000  0.0000  0.0000 </r>
        <r>  0.0977  0.0059  0.0000  0.0000  0.0000  0.0000  0.0000  0.0000  0.0000 </r>
       </set>
       <set comment="band 12">
        <r>  0.0000  0.0001  0.0211  0.0185  0.0000  0.0000  0.0000  0.0000  0.0000 </r>
        <r>  0.0000  0.0001  0.0242  0.0154  0.0000  0.0000  0.0000  0.0000  0.0000 </r>
       </set>
      </set>
      <set comment="kpoint 41">
       <set comment="band 1">
        <r>  0.2132  0.0006  0.0000  0.0000  0.0000  0.0000  0.0000  0.0000  0.0000 </r>
        <r>  0.2132  0.0006  0.0000  0.0000  0.0000  0.0000  0.0000  0.0000  0.0000 </r>
       </set>
       <set comment="band 2">
        <r>  0.0369  0.1905  0.0000  0.0000  0.0000  0.0000  0.0000  0.0000  0.0000 </r>
        <r>  0.0369  0.1905  0.0000  0.0000  0.0000  0.0000  0.0000  0.0000  0.0000 </r>
       </set>
       <set comment="band 3">
        <r>  0.0000  0.0000  0.0661  0.1452  0.0000  0.0000  0.0000  0.0000  0.0000 </r>
        <r>  0.0000  0.0000  0.0816  0.1296  0.0000  0.0000  0.0000  0.0000  0.0000 </r>
       </set>
       <set comment="band 4">
        <r>  0.0000  0.0000  0.1452  0.0661  0.0000  0.0000  0.0000  0.0000  0.0000 </r>
        <r>  0.0000  0.0000  0.1296  0.0816  0.0000  0.0000  0.0000  0.0000  0.0000 </r>
       </set>
       <set comment="band 5">
        <r>  0.0057  0.1423  0.0000  0.0000  0.0000  0.0000  0.0000  0.0000  0.0000 </r>
        <r>  0.0057  0.1423  0.0000  0.0000  0.0000  0.0000  0.0000  0.0000  0.0000 </r>
       </set>
       <set comment="band 6">
        <r>  0.0000  0.0000  0.0522  0.1041  0.0000  0.0000  0.0000  0.0000  0.0000 </r>
        <r>  0.0000  0.0000  0.0060  0.1503  0.0000  0.0000  0.0000  0.0000  0.0000 </r>
       </set>
       <set comment="band 7">
        <r>  0.0000  0.0000  0.1041  0.0522  0.0000  0.0000  0.0000  0.0000  0.0000 </r>
        <r>  0.0000  0.0000  0.1503  0.0060  0.0000  0.0000  0.0000  0.0000  0.0000 </r>
       </set>
       <set comment="band 8">
        <r>  0.3195  0.0286  0.0000  0.0000  0.0000  0.0000  0.0000  0.0000  0.0000 </r>
        <r>  0.3195  0.0286  0.0000  0.0000  0.0000  0.0000  0.0000  0.0000  0.0000 </r>
       </set>
       <set comment="band 9">
        <r>  0.0014  0.0009  0.0000  0.0000  0.0000  0.0000  0.0000  0.0000  0.0000 </r>
        <r>  0.0014  0.0009  0.0000  0.0000  0.0000  0.0000  0.0000  0.0000  0.0000 </r>
       </set>
       <set comment="band 10">
        <r>  0.0000  0.0000  0.0000  0.0000  0.0000  0.0000  0.0000  0.0000  0.0000 </r>
        <r>  0.0000  0.0000  0.0000  0.0000  0.0000  0.0000  0.0000  0.0000  0.0000 </r>
       </set>
       <set comment="band 11">
        <r>  0.0948  0.0102  0.0000  0.0000  0.0000  0.0000  0.0000  0.0000  0.0000 </r>
        <r>  0.0948  0.0102  0.0000  0.0000  0.0000  0.0000  0.0000  0.0000  0.0000 </r>
       </set>
       <set comment="band 12">
        <r>  0.0000  0.0001  0.0252  0.0142  0.0000  0.0000  0.0000  0.0000  0.0000 </r>
        <r>  0.0000  0.0001  0.0251  0.0142  0.0000  0.0000  0.0000  0.0000  0.0000 </r>
       </set>
      </set>
      <set comment="kpoint 42">
       <set comment="band 1">
        <r>  0.2130  0.0010  0.0000  0.0000  0.0000  0.0000  0.0000  0.0000  0.0000 </r>
        <r>  0.2130  0.0010  0.0000  0.0000  0.0000  0.0000  0.0000  0.0000  0.0000 </r>
       </set>
       <set comment="band 2">
        <r>  0.0510  0.1806  0.0000  0.0000  0.0000  0.0000  0.0000  0.0000  0.0000 </r>
        <r>  0.0510  0.1806  0.0000  0.0000  0.0000  0.0000  0.0000  0.0000  0.0000 </r>
       </set>
       <set comment="band 3">
        <r>  0.0000  0.0000  0.1415  0.0679  0.0000  0.0000  0.0000  0.0000  0.0000 </r>
        <r>  0.0000  0.0000  0.1977  0.0117  0.0000  0.0000  0.0000  0.0000  0.0000 </r>
       </set>
       <set comment="band 4">
        <r>  0.0000  0.0000  0.0679  0.1415  0.0000  0.0000  0.0000  0.0000  0.0000 </r>
        <r>  0.0000  0.0000  0.0117  0.1977  0.0000  0.0000  0.0000  0.0000  0.0000 </r>
       </set>
       <set comment="band 5">
        <r>  0.0085  0.1378  0.0000  0.0000  0.0000  0.0000  0.0000  0.0000  0.0000 </r>
        <r>  0.0085  0.1378  0.0000  0.0000  0.0000  0.0000  0.0000  0.0000  0.0000 </r>
       </set>
       <set comment="band 6">
        <r>  0.0000  0.0000  0.0490  0.1091  0.0000  0.0000  0.0000  0.0000  0.0000 </r>
        <r>  0.0000  0.0000  0.1475  0.0107  0.0000  0.0000  0.0000  0.0000  0.0000 </r>
       </set>
       <set comment="band 7">
        <r>  0.0000  0.0000  0.1091  0.0490  0.0000  0.0000  0.0000  0.0000  0.0000 </r>
        <r>  0.0000  0.0000  0.0107  0.1475  0.0000  0.0000  0.0000  0.0000  0.0000 </r>
       </set>
       <set comment="band 8">
        <r>  0.3033  0.0401  0.0000  0.0000  0.0000  0.0000  0.0000  0.0000  0.0000 </r>
        <r>  0.3033  0.0401  0.0000  0.0000  0.0000  0.0000  0.0000  0.0000  0.0000 </r>
       </set>
       <set comment="band 9">
        <r>  0.0033  0.0007  0.0000  0.0000  0.0000  0.0000  0.0000  0.0000  0.0000 </r>
        <r>  0.0033  0.0007  0.0000  0.0000  0.0000  0.0000  0.0000  0.0000  0.0000 </r>
       </set>
       <set comment="band 10">
        <r>  0.0000  0.0000  0.0000  0.0000  0.0000  0.0000  0.0000  0.0000  0.0000 </r>
        <r>  0.0000  0.0000  0.0000  0.0000  0.0000  0.0000  0.0000  0.0000  0.0000 </r>
       </set>
       <set comment="band 11">
        <r>  0.0914  0.0153  0.0000  0.0000  0.0000  0.0000  0.0000  0.0000  0.0000 </r>
        <r>  0.0914  0.0153  0.0000  0.0000  0.0000  0.0000  0.0000  0.0000  0.0000 </r>
       </set>
       <set comment="band 12">
        <r>  0.0000  0.0000  0.0324  0.0063  0.0000  0.0000  0.0000  0.0000  0.0000 </r>
        <r>  0.0000  0.0000  0.0360  0.0032  0.0000  0.0000  0.0000  0.0000  0.0000 </r>
       </set>
      </set>
      <set comment="kpoint 43">
       <set comment="band 1">
        <r>  0.2128  0.0014  0.0000  0.0000  0.0000  0.0000  0.0000  0.0000  0.0000 </r>
        <r>  0.2128  0.0014  0.0000  0.0000  0.0000  0.0000  0.0000  0.0000  0.0000 </r>
       </set>
       <set comment="band 2">
        <r>  0.0645  0.1710  0.0000  0.0000  0.0000  0.0000  0.0000  0.0000  0.0000 </r>
        <r>  0.0645  0.1710  0.0000  0.0000  0.0000  0.0000  0.0000  0.0000  0.0000 </r>
       </set>
       <set comment="band 3">
        <r>  0.0000  0.0000  0.2050  0.0027  0.0000  0.0000  0.0000  0.0000  0.0000 </r>
        <r>  0.0000  0.0000  0.0895  0.1182  0.0000  0.0000  0.0000  0.0000  0.0000 </r>
       </set>
       <set comment="band 4">
        <r>  0.0000  0.0000  0.0027  0.2050  0.0000  0.0000  0.0000  0.0000  0.0000 </r>
        <r>  0.0000  0.0000  0.1182  0.0895  0.0000  0.0000  0.0000  0.0000  0.0000 </r>
       </set>
       <set comment="band 5">
        <r>  0.0115  0.1329  0.0000  0.0000  0.0000  0.0000  0.0000  0.0000  0.0000 </r>
        <r>  0.0115  0.1329  0.0000  0.0000  0.0000  0.0000  0.0000  0.0000  0.0000 </r>
       </set>
       <set comment="band 6">
        <r>  0.0000  0.0000  0.0459  0.1139  0.0000  0.0000  0.0000  0.0000  0.0000 </r>
        <r>  0.0000  0.0000  0.0533  0.1065  0.0000  0.0000  0.0000  0.0000  0.0000 </r>
       </set>
       <set comment="band 7">
        <r>  0.0000  0.0000  0.1139  0.0459  0.0000  0.0000  0.0000  0.0000  0.0000 </r>
        <r>  0.0000  0.0000  0.1065  0.0533  0.0000  0.0000  0.0000  0.0000  0.0000 </r>
       </set>
       <set comment="band 8">
        <r>  0.2857  0.0514  0.0000  0.0000  0.0000  0.0000  0.0000  0.0000  0.0000 </r>
        <r>  0.2857  0.0514  0.0000  0.0000  0.0000  0.0000  0.0000  0.0000  0.0000 </r>
       </set>
       <set comment="band 9">
        <r>  0.0073  0.0003  0.0000  0.0000  0.0000  0.0000  0.0000  0.0000  0.0000 </r>
        <r>  0.0073  0.0003  0.0000  0.0000  0.0000  0.0000  0.0000  0.0000  0.0000 </r>
       </set>
       <set comment="band 10">
        <r>  0.0000  0.0000  0.0000  0.0000  0.0000  0.0000  0.0000  0.0000  0.0000 </r>
        <r>  0.0000  0.0000  0.0000  0.0000  0.0000  0.0000  0.0000  0.0000  0.0000 </r>
       </set>
       <set comment="band 11">
        <r>  0.0876  0.0210  0.0000  0.0000  0.0000  0.0000  0.0000  0.0000  0.0000 </r>
        <r>  0.0876  0.0210  0.0000  0.0000  0.0000  0.0000  0.0000  0.0000  0.0000 </r>
       </set>
       <set comment="band 12">
        <r>  0.0000  0.0001  0.0360  0.0023  0.0000  0.0000  0.0000  0.0000  0.0000 </r>
        <r>  0.0000  0.0001  0.0322  0.0060  0.0000  0.0000  0.0000  0.0000  0.0000 </r>
       </set>
      </set>
      <set comment="kpoint 44">
       <set comment="band 1">
        <r>  0.2125  0.0019  0.0000  0.0000  0.0000  0.0000  0.0000  0.0000  0.0000 </r>
        <r>  0.2125  0.0019  0.0000  0.0000  0.0000  0.0000  0.0000  0.0000  0.0000 </r>
       </set>
       <set comment="band 2">
        <r>  0.0770  0.1620  0.0000  0.0000  0.0000  0.0000  0.0000  0.0000  0.0000 </r>
        <r>  0.0770  0.1620  0.0000  0.0000  0.0000  0.0000  0.0000  0.0000  0.0000 </r>
       </set>
       <set comment="band 3">
        <r>  0.0000  0.0000  0.0876  0.1186  0.0000  0.0000  0.0000  0.0000  0.0000 </r>
        <r>  0.0000  0.0000  0.2023  0.0038  0.0000  0.0000  0.0000  0.0000  0.0000 </r>
       </set>
       <set comment="band 4">
        <r>  0.0000  0.0000  0.1186  0.0876  0.0000  0.0000  0.0000  0.0000  0.0000 </r>
        <r>  0.0000  0.0000  0.0038  0.2023  0.0000  0.0000  0.0000  0.0000  0.0000 </r>
       </set>
       <set comment="band 5">
        <r>  0.0147  0.1276  0.0000  0.0000  0.0000  0.0000  0.0000  0.0000  0.0000 </r>
        <r>  0.0147  0.1276  0.0000  0.0000  0.0000  0.0000  0.0000  0.0000  0.0000 </r>
       </set>
       <set comment="band 6">
        <r>  0.0000  0.0000  0.0367  0.1247  0.0000  0.0000  0.0000  0.0000  0.0000 </r>
        <r>  0.0000  0.0000  0.1373  0.0241  0.0000  0.0000  0.0000  0.0000  0.0000 </r>
       </set>
       <set comment="band 7">
        <r>  0.0000  0.0000  0.1247  0.0367  0.0000  0.0000  0.0000  0.0000  0.0000 </r>
        <r>  0.0000  0.0000  0.0241  0.1373  0.0000  0.0000  0.0000  0.0000  0.0000 </r>
       </set>
       <set comment="band 8">
        <r>  0.2658  0.0618  0.0000  0.0000  0.0000  0.0000  0.0000  0.0000  0.0000 </r>
        <r>  0.2658  0.0618  0.0000  0.0000  0.0000  0.0000  0.0000  0.0000  0.0000 </r>
       </set>
       <set comment="band 9">
        <r>  0.0146  0.0000  0.0000  0.0000  0.0000  0.0000  0.0000  0.0000  0.0000 </r>
        <r>  0.0146  0.0000  0.0000  0.0000  0.0000  0.0000  0.0000  0.0000  0.0000 </r>
       </set>
       <set comment="band 10">
        <r>  0.0000  0.0000  0.0000  0.0000  0.0000  0.0000  0.0000  0.0000  0.0000 </r>
        <r>  0.0000  0.0000  0.0000  0.0000  0.0000  0.0000  0.0000  0.0000  0.0000 </r>
       </set>
       <set comment="band 11">
        <r>  0.0834  0.0271  0.0000  0.0000  0.0000  0.0000  0.0000  0.0000  0.0000 </r>
        <r>  0.0834  0.0271  0.0000  0.0000  0.0000  0.0000  0.0000  0.0000  0.0000 </r>
       </set>
       <set comment="band 12">
        <r>  0.0000  0.0000  0.0173  0.0206  0.0000  0.0000  0.0000  0.0000  0.0000 </r>
        <r>  0.0000  0.0000  0.0138  0.0242  0.0000  0.0000  0.0000  0.0000  0.0000 </r>
       </set>
      </set>
      <set comment="kpoint 45">
       <set comment="band 1">
        <r>  0.2123  0.0025  0.0000  0.0000  0.0000  0.0000  0.0000  0.0000  0.0000 </r>
        <r>  0.2123  0.0025  0.0000  0.0000  0.0000  0.0000  0.0000  0.0000  0.0000 </r>
       </set>
       <set comment="band 2">
        <r>  0.0885  0.1537  0.0000  0.0000  0.0000  0.0000  0.0000  0.0000  0.0000 </r>
        <r>  0.0885  0.1537  0.0000  0.0000  0.0000  0.0000  0.0000  0.0000  0.0000 </r>
       </set>
       <set comment="band 3">
        <r>  0.0000  0.0000  0.0562  0.1486  0.0000  0.0000  0.0000  0.0000  0.0000 </r>
        <r>  0.0000  0.0000  0.1388  0.0660  0.0000  0.0000  0.0000  0.0000  0.0000 </r>
       </set>
       <set comment="band 4">
        <r>  0.0000  0.0000  0.1486  0.0562  0.0000  0.0000  0.0000  0.0000  0.0000 </r>
        <r>  0.0000  0.0000  0.0660  0.1388  0.0000  0.0000  0.0000  0.0000  0.0000 </r>
       </set>
       <set comment="band 5">
        <r>  0.0179  0.1223  0.0000  0.0000  0.0000  0.0000  0.0000  0.0000  0.0000 </r>
        <r>  0.0179  0.1223  0.0000  0.0000  0.0000  0.0000  0.0000  0.0000  0.0000 </r>
       </set>
       <set comment="band 6">
        <r>  0.0000  0.0000  0.0760  0.0867  0.0000  0.0000  0.0000  0.0000  0.0000 </r>
        <r>  0.0000  0.0000  0.1005  0.0623  0.0000  0.0000  0.0000  0.0000  0.0000 </r>
       </set>
       <set comment="band 7">
        <r>  0.0000  0.0000  0.0867  0.0760  0.0000  0.0000  0.0000  0.0000  0.0000 </r>
        <r>  0.0000  0.0000  0.0623  0.1005  0.0000  0.0000  0.0000  0.0000  0.0000 </r>
       </set>
       <set comment="band 8">
        <r>  0.2413  0.0702  0.0000  0.0000  0.0000  0.0000  0.0000  0.0000  0.0000 </r>
        <r>  0.2413  0.0702  0.0000  0.0000  0.0000  0.0000  0.0000  0.0000  0.0000 </r>
       </set>
       <set comment="band 9">
        <r>  0.0276  0.0010  0.0000  0.0000  0.0000  0.0000  0.0000  0.0000  0.0000 </r>
        <r>  0.0276  0.0010  0.0000  0.0000  0.0000  0.0000  0.0000  0.0000  0.0000 </r>
       </set>
       <set comment="band 10">
        <r>  0.0000  0.0000  0.0000  0.0000  0.0000  0.0000  0.0000  0.0000  0.0000 </r>
        <r>  0.0000  0.0000  0.0000  0.0000  0.0000  0.0000  0.0000  0.0000  0.0000 </r>
       </set>
       <set comment="band 11">
        <r>  0.0791  0.0336  0.0000  0.0000  0.0000  0.0000  0.0000  0.0000  0.0000 </r>
        <r>  0.0791  0.0336  0.0000  0.0000  0.0000  0.0000  0.0000  0.0000  0.0000 </r>
       </set>
       <set comment="band 12">
        <r>  0.0000  0.0000  0.0306  0.0066  0.0000  0.0000  0.0000  0.0000  0.0000 </r>
        <r>  0.0000  0.0000  0.0290  0.0083  0.0000  0.0000  0.0000  0.0000  0.0000 </r>
       </set>
      </set>
      <set comment="kpoint 46">
       <set comment="band 1">
        <r>  0.2119  0.0032  0.0000  0.0000  0.0000  0.0000  0.0000  0.0000  0.0000 </r>
        <r>  0.2119  0.0032  0.0000  0.0000  0.0000  0.0000  0.0000  0.0000  0.0000 </r>
       </set>
       <set comment="band 2">
        <r>  0.0989  0.1461  0.0000  0.0000  0.0000  0.0000  0.0000  0.0000  0.0000 </r>
        <r>  0.0989  0.1461  0.0000  0.0000  0.0000  0.0000  0.0000  0.0000  0.0000 </r>
       </set>
       <set comment="band 3">
        <r>  0.0000  0.0000  0.1307  0.0729  0.0000  0.0000  0.0000  0.0000  0.0000 </r>
        <r>  0.0000  0.0000  0.0564  0.1472  0.0000  0.0000  0.0000  0.0000  0.0000 </r>
       </set>
       <set comment="band 4">
        <r>  0.0000  0.0000  0.0729  0.1307  0.0000  0.0000  0.0000  0.0000  0.0000 </r>
        <r>  0.0000  0.0000  0.1472  0.0564  0.0000  0.0000  0.0000  0.0000  0.0000 </r>
       </set>
       <set comment="band 5">
        <r>  0.0212  0.1169  0.0000  0.0000  0.0000  0.0000  0.0000  0.0000  0.0000 </r>
        <r>  0.0212  0.1169  0.0000  0.0000  0.0000  0.0000  0.0000  0.0000  0.0000 </r>
       </set>
       <set comment="band 6">
        <r>  0.0000  0.0000  0.0673  0.0966  0.0000  0.0000  0.0000  0.0000  0.0000 </r>
        <r>  0.0000  0.0000  0.0685  0.0953  0.0000  0.0000  0.0000  0.0000  0.0000 </r>
       </set>
       <set comment="band 7">
        <r>  0.0000  0.0000  0.0966  0.0673  0.0000  0.0000  0.0000  0.0000  0.0000 </r>
        <r>  0.0000  0.0000  0.0953  0.0685  0.0000  0.0000  0.0000  0.0000  0.0000 </r>
       </set>
       <set comment="band 8">
        <r>  0.2102  0.0749  0.0000  0.0000  0.0000  0.0000  0.0000  0.0000  0.0000 </r>
        <r>  0.2102  0.0749  0.0000  0.0000  0.0000  0.0000  0.0000  0.0000  0.0000 </r>
       </set>
       <set comment="band 9">
        <r>  0.0484  0.0050  0.0000  0.0000  0.0000  0.0000  0.0000  0.0000  0.0000 </r>
        <r>  0.0484  0.0050  0.0000  0.0000  0.0000  0.0000  0.0000  0.0000  0.0000 </r>
       </set>
       <set comment="band 10">
        <r>  0.0000  0.0000  0.0000  0.0000  0.0000  0.0000  0.0000  0.0000  0.0000 </r>
        <r>  0.0000  0.0000  0.0000  0.0000  0.0000  0.0000  0.0000  0.0000  0.0000 </r>
       </set>
       <set comment="band 11">
        <r>  0.0746  0.0403  0.0000  0.0000  0.0000  0.0000  0.0000  0.0000  0.0000 </r>
        <r>  0.0746  0.0403  0.0000  0.0000  0.0000  0.0000  0.0000  0.0000  0.0000 </r>
       </set>
       <set comment="band 12">
        <r>  0.0000  0.0000  0.0150  0.0216  0.0000  0.0000  0.0000  0.0000  0.0000 </r>
        <r>  0.0000  0.0000  0.0063  0.0302  0.0000  0.0000  0.0000  0.0000  0.0000 </r>
       </set>
      </set>
      <set comment="kpoint 47">
       <set comment="band 1">
        <r>  0.2116  0.0039  0.0000  0.0000  0.0000  0.0000  0.0000  0.0000  0.0000 </r>
        <r>  0.2116  0.0039  0.0000  0.0000  0.0000  0.0000  0.0000  0.0000  0.0000 </r>
       </set>
       <set comment="band 2">
        <r>  0.1082  0.1391  0.0000  0.0000  0.0000  0.0000  0.0000  0.0000  0.0000 </r>
        <r>  0.1082  0.1391  0.0000  0.0000  0.0000  0.0000  0.0000  0.0000  0.0000 </r>
       </set>
       <set comment="band 3">
        <r>  0.0000  0.0000  0.0353  0.1673  0.0000  0.0000  0.0000  0.0000  0.0000 </r>
        <r>  0.0000  0.0000  0.1987  0.0040  0.0000  0.0000  0.0000  0.0000  0.0000 </r>
       </set>
       <set comment="band 4">
        <r>  0.0000  0.0000  0.1673  0.0353  0.0000  0.0000  0.0000  0.0000  0.0000 </r>
        <r>  0.0000  0.0000  0.0040  0.1987  0.0000  0.0000  0.0000  0.0000  0.0000 </r>
       </set>
       <set comment="band 5">
        <r>  0.0243  0.1115  0.0000  0.0000  0.0000  0.0000  0.0000  0.0000  0.0000 </r>
        <r>  0.0243  0.1115  0.0000  0.0000  0.0000  0.0000  0.0000  0.0000  0.0000 </r>
       </set>
       <set comment="band 6">
        <r>  0.0000  0.0000  0.0811  0.0837  0.0000  0.0000  0.0000  0.0000  0.0000 </r>
        <r>  0.0000  0.0000  0.0713  0.0934  0.0000  0.0000  0.0000  0.0000  0.0000 </r>
       </set>
       <set comment="band 7">
        <r>  0.0000  0.0000  0.0837  0.0811  0.0000  0.0000  0.0000  0.0000  0.0000 </r>
        <r>  0.0000  0.0000  0.0934  0.0713  0.0000  0.0000  0.0000  0.0000  0.0000 </r>
       </set>
       <set comment="band 8">
        <r>  0.1735  0.0743  0.0000  0.0000  0.0000  0.0000  0.0000  0.0000  0.0000 </r>
        <r>  0.1735  0.0743  0.0000  0.0000  0.0000  0.0000  0.0000  0.0000  0.0000 </r>
       </set>
       <set comment="band 9">
        <r>  0.0760  0.0136  0.0000  0.0000  0.0000  0.0000  0.0000  0.0000  0.0000 </r>
        <r>  0.0760  0.0136  0.0000  0.0000  0.0000  0.0000  0.0000  0.0000  0.0000 </r>
       </set>
       <set comment="band 10">
        <r>  0.0000  0.0000  0.0000  0.0000  0.0000  0.0000  0.0000  0.0000  0.0000 </r>
        <r>  0.0000  0.0000  0.0000  0.0000  0.0000  0.0000  0.0000  0.0000  0.0000 </r>
       </set>
       <set comment="band 11">
        <r>  0.0700  0.0472  0.0000  0.0000  0.0000  0.0000  0.0000  0.0000  0.0000 </r>
        <r>  0.0700  0.0472  0.0000  0.0000  0.0000  0.0000  0.0000  0.0000  0.0000 </r>
       </set>
       <set comment="band 12">
        <r>  0.0000  0.0000  0.0294  0.0065  0.0000  0.0000  0.0000  0.0000  0.0000 </r>
        <r>  0.0000  0.0000  0.0235  0.0122  0.0000  0.0000  0.0000  0.0000  0.0000 </r>
       </set>
      </set>
      <set comment="kpoint 48">
       <set comment="band 1">
        <r>  0.2112  0.0047  0.0000  0.0000  0.0000  0.0000  0.0000  0.0000  0.0000 </r>
        <r>  0.2112  0.0047  0.0000  0.0000  0.0000  0.0000  0.0000  0.0000  0.0000 </r>
       </set>
       <set comment="band 2">
        <r>  0.1167  0.1326  0.0000  0.0000  0.0000  0.0000  0.0000  0.0000  0.0000 </r>
        <r>  0.1167  0.1326  0.0000  0.0000  0.0000  0.0000  0.0000  0.0000  0.0000 </r>
       </set>
       <set comment="band 3">
        <r>  0.0000  0.0000  0.1001  0.1017  0.0000  0.0000  0.0000  0.0000  0.0000 </r>
        <r>  0.0000  0.0000  0.1196  0.0822  0.0000  0.0000  0.0000  0.0000  0.0000 </r>
       </set>
       <set comment="band 4">
        <r>  0.0000  0.0000  0.1017  0.1001  0.0000  0.0000  0.0000  0.0000  0.0000 </r>
        <r>  0.0000  0.0000  0.0822  0.1196  0.0000  0.0000  0.0000  0.0000  0.0000 </r>
       </set>
       <set comment="band 5">
        <r>  0.0273  0.1063  0.0000  0.0000  0.0000  0.0000  0.0000  0.0000  0.0000 </r>
        <r>  0.0273  0.1063  0.0000  0.0000  0.0000  0.0000  0.0000  0.0000  0.0000 </r>
       </set>
       <set comment="band 6">
        <r>  0.0000  0.0000  0.0408  0.1247  0.0000  0.0000  0.0000  0.0000  0.0000 </r>
        <r>  0.0000  0.0000  0.0980  0.0675  0.0000  0.0000  0.0000  0.0000  0.0000 </r>
       </set>
       <set comment="band 7">
        <r>  0.0000  0.0000  0.1247  0.0408  0.0000  0.0000  0.0000  0.0000  0.0000 </r>
        <r>  0.0000  0.0000  0.0675  0.0979  0.0000  0.0000  0.0000  0.0000  0.0000 </r>
       </set>
       <set comment="band 8">
        <r>  0.1371  0.0691  0.0000  0.0000  0.0000  0.0000  0.0000  0.0000  0.0000 </r>
        <r>  0.1371  0.0691  0.0000  0.0000  0.0000  0.0000  0.0000  0.0000  0.0000 </r>
       </set>
       <set comment="band 9">
        <r>  0.1041  0.0261  0.0000  0.0000  0.0000  0.0000  0.0000  0.0000  0.0000 </r>
        <r>  0.1041  0.0261  0.0000  0.0000  0.0000  0.0000  0.0000  0.0000  0.0000 </r>
       </set>
       <set comment="band 10">
        <r>  0.0000  0.0000  0.0000  0.0000  0.0000  0.0000  0.0000  0.0000  0.0000 </r>
        <r>  0.0000  0.0000  0.0000  0.0000  0.0000  0.0000  0.0000  0.0000  0.0000 </r>
       </set>
       <set comment="band 11">
        <r>  0.0654  0.0542  0.0000  0.0000  0.0000  0.0000  0.0000  0.0000  0.0000 </r>
        <r>  0.0654  0.0542  0.0000  0.0000  0.0000  0.0000  0.0000  0.0000  0.0000 </r>
       </set>
       <set comment="band 12">
        <r>  0.0000  0.0000  0.0226  0.0123  0.0000  0.0000  0.0000  0.0000  0.0000 </r>
        <r>  0.0000  0.0000  0.0257  0.0092  0.0000  0.0000  0.0000  0.0000  0.0000 </r>
       </set>
      </set>
      <set comment="kpoint 49">
       <set comment="band 1">
        <r>  0.2108  0.0056  0.0000  0.0000  0.0000  0.0000  0.0000  0.0000  0.0000 </r>
        <r>  0.2108  0.0056  0.0000  0.0000  0.0000  0.0000  0.0000  0.0000  0.0000 </r>
       </set>
       <set comment="band 2">
        <r>  0.1243  0.1267  0.0000  0.0000  0.0000  0.0000  0.0000  0.0000  0.0000 </r>
        <r>  0.1243  0.1267  0.0000  0.0000  0.0000  0.0000  0.0000  0.0000  0.0000 </r>
       </set>
       <set comment="band 3">
        <r>  0.0000  0.0000  0.0761  0.1249  0.0000  0.0000  0.0000  0.0000  0.0000 </r>
        <r>  0.0000  0.0000  0.1108  0.0902  0.0000  0.0000  0.0000  0.0000  0.0000 </r>
       </set>
       <set comment="band 4">
        <r>  0.0000  0.0000  0.1249  0.0761  0.0000  0.0000  0.0000  0.0000  0.0000 </r>
        <r>  0.0000  0.0000  0.0902  0.1108  0.0000  0.0000  0.0000  0.0000  0.0000 </r>
       </set>
       <set comment="band 5">
        <r>  0.0302  0.1013  0.0000  0.0000  0.0000  0.0000  0.0000  0.0000  0.0000 </r>
        <r>  0.0302  0.1013  0.0000  0.0000  0.0000  0.0000  0.0000  0.0000  0.0000 </r>
       </set>
       <set comment="band 6">
        <r>  0.1073  0.0621  0.0000  0.0000  0.0000  0.0000  0.0000  0.0000  0.0000 </r>
        <r>  0.1073  0.0621  0.0000  0.0000  0.0000  0.0000  0.0000  0.0000  0.0000 </r>
       </set>
       <set comment="band 7">
        <r>  0.0000  0.0000  0.0524  0.1137  0.0000  0.0000  0.0000  0.0000  0.0000 </r>
        <r>  0.0000  0.0000  0.1228  0.0433  0.0000  0.0000  0.0000  0.0000  0.0000 </r>
       </set>
       <set comment="band 8">
        <r>  0.0000  0.0000  0.1137  0.0524  0.0000  0.0000  0.0000  0.0000  0.0000 </r>
        <r>  0.0000  0.0000  0.0433  0.1228  0.0000  0.0000  0.0000  0.0000  0.0000 </r>
       </set>
       <set comment="band 9">
        <r>  0.1264  0.0401  0.0000  0.0000  0.0000  0.0000  0.0000  0.0000  0.0000 </r>
        <r>  0.1264  0.0401  0.0000  0.0000  0.0000  0.0000  0.0000  0.0000  0.0000 </r>
       </set>
       <set comment="band 10">
        <r>  0.0000  0.0000  0.0000  0.0000  0.0000  0.0000  0.0000  0.0000  0.0000 </r>
        <r>  0.0000  0.0000  0.0000  0.0000  0.0000  0.0000  0.0000  0.0000  0.0000 </r>
       </set>
       <set comment="band 11">
        <r>  0.0607  0.0613  0.0000  0.0000  0.0000  0.0000  0.0000  0.0000  0.0000 </r>
        <r>  0.0607  0.0613  0.0000  0.0000  0.0000  0.0000  0.0000  0.0000  0.0000 </r>
       </set>
       <set comment="band 12">
        <r>  0.0000  0.0000  0.0335  0.0006  0.0000  0.0000  0.0000  0.0000  0.0000 </r>
        <r>  0.0000  0.0000  0.0328  0.0012  0.0000  0.0000  0.0000  0.0000  0.0000 </r>
       </set>
      </set>
      <set comment="kpoint 50">
       <set comment="band 1">
        <r>  0.2103  0.0066  0.0000  0.0000  0.0000  0.0000  0.0000  0.0000  0.0000 </r>
        <r>  0.2103  0.0066  0.0000  0.0000  0.0000  0.0000  0.0000  0.0000  0.0000 </r>
       </set>
       <set comment="band 2">
        <r>  0.1311  0.1212  0.0000  0.0000  0.0000  0.0000  0.0000  0.0000  0.0000 </r>
        <r>  0.1311  0.1212  0.0000  0.0000  0.0000  0.0000  0.0000  0.0000  0.0000 </r>
       </set>
       <set comment="band 3">
        <r>  0.0000  0.0000  0.1353  0.0651  0.0000  0.0000  0.0000  0.0000  0.0000 </r>
        <r>  0.0000  0.0000  0.0477  0.1527  0.0000  0.0000  0.0000  0.0000  0.0000 </r>
       </set>
       <set comment="band 4">
        <r>  0.0000  0.0000  0.0651  0.1353  0.0000  0.0000  0.0000  0.0000  0.0000 </r>
        <r>  0.0000  0.0000  0.1527  0.0477  0.0000  0.0000  0.0000  0.0000  0.0000 </r>
       </set>
       <set comment="band 5">
        <r>  0.0329  0.0964  0.0000  0.0000  0.0000  0.0000  0.0000  0.0000  0.0000 </r>
        <r>  0.0329  0.0964  0.0000  0.0000  0.0000  0.0000  0.0000  0.0000  0.0000 </r>
       </set>
       <set comment="band 6">
        <r>  0.0859  0.0553  0.0000  0.0000  0.0000  0.0000  0.0000  0.0000  0.0000 </r>
        <r>  0.0859  0.0553  0.0000  0.0000  0.0000  0.0000  0.0000  0.0000  0.0000 </r>
       </set>
       <set comment="band 7">
        <r>  0.0000  0.0000  0.1441  0.0225  0.0000  0.0000  0.0000  0.0000  0.0000 </r>
        <r>  0.0000  0.0000  0.0331  0.1335  0.0000  0.0000  0.0000  0.0000  0.0000 </r>
       </set>
       <set comment="band 8">
        <r>  0.0000  0.0000  0.0224  0.1441  0.0000  0.0000  0.0000  0.0000  0.0000 </r>
        <r>  0.0000  0.0000  0.1335  0.0331  0.0000  0.0000  0.0000  0.0000  0.0000 </r>
       </set>
       <set comment="band 9">
        <r>  0.1411  0.0535  0.0000  0.0000  0.0000  0.0000  0.0000  0.0000  0.0000 </r>
        <r>  0.1411  0.0535  0.0000  0.0000  0.0000  0.0000  0.0000  0.0000  0.0000 </r>
       </set>
       <set comment="band 10">
        <r>  0.0000  0.0000  0.0000  0.0000  0.0000  0.0000  0.0000  0.0000  0.0000 </r>
        <r>  0.0000  0.0000  0.0000  0.0000  0.0000  0.0000  0.0000  0.0000  0.0000 </r>
       </set>
       <set comment="band 11">
        <r>  0.0560  0.0685  0.0000  0.0000  0.0000  0.0000  0.0000  0.0000  0.0000 </r>
        <r>  0.0560  0.0685  0.0000  0.0000  0.0000  0.0000  0.0000  0.0000  0.0000 </r>
       </set>
       <set comment="band 12">
        <r>  0.0000  0.0000  0.0101  0.0230  0.0000  0.0000  0.0000  0.0000  0.0000 </r>
        <r>  0.0000  0.0000  0.0025  0.0308  0.0000  0.0000  0.0000  0.0000  0.0000 </r>
       </set>
      </set>
      <set comment="kpoint 51">
       <set comment="band 1">
        <r>  0.2099  0.0076  0.0000  0.0000  0.0000  0.0000  0.0000  0.0000  0.0000 </r>
        <r>  0.2099  0.0076  0.0000  0.0000  0.0000  0.0000  0.0000  0.0000  0.0000 </r>
       </set>
       <set comment="band 2">
        <r>  0.1374  0.1160  0.0000  0.0000  0.0000  0.0000  0.0000  0.0000  0.0000 </r>
        <r>  0.1374  0.1160  0.0000  0.0000  0.0000  0.0000  0.0000  0.0000  0.0000 </r>
       </set>
       <set comment="band 3">
        <r>  0.0000  0.0000  0.0483  0.1516  0.0000  0.0000  0.0000  0.0000  0.0000 </r>
        <r>  0.0000  0.0000  0.1526  0.0473  0.0000  0.0000  0.0000  0.0000  0.0000 </r>
       </set>
       <set comment="band 4">
        <r>  0.0000  0.0000  0.1516  0.0483  0.0000  0.0000  0.0000  0.0000  0.0000 </r>
        <r>  0.0000  0.0000  0.0473  0.1526  0.0000  0.0000  0.0000  0.0000  0.0000 </r>
       </set>
       <set comment="band 5">
        <r>  0.0354  0.0917  0.0000  0.0000  0.0000  0.0000  0.0000  0.0000  0.0000 </r>
        <r>  0.0354  0.0917  0.0000  0.0000  0.0000  0.0000  0.0000  0.0000  0.0000 </r>
       </set>
       <set comment="band 6">
        <r>  0.0713  0.0497  0.0000  0.0000  0.0000  0.0000  0.0000  0.0000  0.0000 </r>
        <r>  0.0713  0.0497  0.0000  0.0000  0.0000  0.0000  0.0000  0.0000  0.0000 </r>
       </set>
       <set comment="band 7">
        <r>  0.0000  0.0000  0.0094  0.1574  0.0000  0.0000  0.0000  0.0000  0.0000 </r>
        <r>  0.0000  0.0000  0.1559  0.0110  0.0000  0.0000  0.0000  0.0000  0.0000 </r>
       </set>
       <set comment="band 8">
        <r>  0.0000  0.0000  0.1575  0.0094  0.0000  0.0000  0.0000  0.0000  0.0000 </r>
        <r>  0.0000  0.0000  0.0110  0.1559  0.0000  0.0000  0.0000  0.0000  0.0000 </r>
       </set>
       <set comment="band 9">
        <r>  0.1495  0.0654  0.0000  0.0000  0.0000  0.0000  0.0000  0.0000  0.0000 </r>
        <r>  0.1495  0.0654  0.0000  0.0000  0.0000  0.0000  0.0000  0.0000  0.0000 </r>
       </set>
       <set comment="band 10">
        <r>  0.0000  0.0000  0.0000  0.0000  0.0000  0.0000  0.0000  0.0000  0.0000 </r>
        <r>  0.0000  0.0000  0.0000  0.0000  0.0000  0.0000  0.0000  0.0000  0.0000 </r>
       </set>
       <set comment="band 11">
        <r>  0.0513  0.0759  0.0000  0.0000  0.0000  0.0000  0.0000  0.0000  0.0000 </r>
        <r>  0.0513  0.0759  0.0000  0.0000  0.0000  0.0000  0.0000  0.0000  0.0000 </r>
       </set>
       <set comment="band 12">
        <r>  0.0000  0.0000  0.0149  0.0175  0.0000  0.0000  0.0000  0.0000  0.0000 </r>
        <r>  0.0000  0.0000  0.0114  0.0207  0.0000  0.0000  0.0000  0.0000  0.0000 </r>
       </set>
      </set>
      <set comment="kpoint 52">
       <set comment="band 1">
        <r>  0.2093  0.0088  0.0000  0.0000  0.0000  0.0000  0.0000  0.0000  0.0000 </r>
        <r>  0.2093  0.0088  0.0000  0.0000  0.0000  0.0000  0.0000  0.0000  0.0000 </r>
       </set>
       <set comment="band 2">
        <r>  0.1430  0.1112  0.0000  0.0000  0.0000  0.0000  0.0000  0.0000  0.0000 </r>
        <r>  0.1430  0.1112  0.0000  0.0000  0.0000  0.0000  0.0000  0.0000  0.0000 </r>
       </set>
       <set comment="band 3">
        <r>  0.0000  0.0000  0.0558  0.1437  0.0000  0.0000  0.0000  0.0000  0.0000 </r>
        <r>  0.0000  0.0000  0.1526  0.0469  0.0000  0.0000  0.0000  0.0000  0.0000 </r>
       </set>
       <set comment="band 4">
        <r>  0.0000  0.0000  0.1437  0.0558  0.0000  0.0000  0.0000  0.0000  0.0000 </r>
        <r>  0.0000  0.0000  0.0469  0.1526  0.0000  0.0000  0.0000  0.0000  0.0000 </r>
       </set>
       <set comment="band 5">
        <r>  0.0378  0.0873  0.0000  0.0000  0.0000  0.0000  0.0000  0.0000  0.0000 </r>
        <r>  0.0378  0.0873  0.0000  0.0000  0.0000  0.0000  0.0000  0.0000  0.0000 </r>
       </set>
       <set comment="band 6">
        <r>  0.0615  0.0452  0.0000  0.0000  0.0000  0.0000  0.0000  0.0000  0.0000 </r>
        <r>  0.0615  0.0452  0.0000  0.0000  0.0000  0.0000  0.0000  0.0000  0.0000 </r>
       </set>
       <set comment="band 7">
        <r>  0.0000  0.0000  0.0600  0.1071  0.0000  0.0000  0.0000  0.0000  0.0000 </r>
        <r>  0.0000  0.0000  0.1070  0.0600  0.0000  0.0000  0.0000  0.0000  0.0000 </r>
       </set>
       <set comment="band 8">
        <r>  0.0000  0.0000  0.1070  0.0600  0.0000  0.0000  0.0000  0.0000  0.0000 </r>
        <r>  0.0000  0.0000  0.0601  0.1070  0.0000  0.0000  0.0000  0.0000  0.0000 </r>
       </set>
       <set comment="band 9">
        <r>  0.1537  0.0759  0.0000  0.0000  0.0000  0.0000  0.0000  0.0000  0.0000 </r>
        <r>  0.1537  0.0759  0.0000  0.0000  0.0000  0.0000  0.0000  0.0000  0.0000 </r>
       </set>
       <set comment="band 10">
        <r>  0.0000  0.0000  0.0000  0.0000  0.0000  0.0000  0.0000  0.0000  0.0000 </r>
        <r>  0.0000  0.0000  0.0000  0.0000  0.0000  0.0000  0.0000  0.0000  0.0000 </r>
       </set>
       <set comment="band 11">
        <r>  0.0466  0.0834  0.0000  0.0000  0.0000  0.0000  0.0000  0.0000  0.0000 </r>
        <r>  0.0466  0.0834  0.0000  0.0000  0.0000  0.0000  0.0000  0.0000  0.0000 </r>
       </set>
       <set comment="band 12">
        <r>  0.0000  0.0000  0.0138  0.0175  0.0000  0.0000  0.0000  0.0000  0.0000 </r>
        <r>  0.0000  0.0000  0.0144  0.0169  0.0000  0.0000  0.0000  0.0000  0.0000 </r>
       </set>
      </set>
      <set comment="kpoint 53">
       <set comment="band 1">
        <r>  0.2088  0.0099  0.0000  0.0000  0.0000  0.0000  0.0000  0.0000  0.0000 </r>
        <r>  0.2088  0.0099  0.0000  0.0000  0.0000  0.0000  0.0000  0.0000  0.0000 </r>
       </set>
       <set comment="band 2">
        <r>  0.1481  0.1067  0.0000  0.0000  0.0000  0.0000  0.0000  0.0000  0.0000 </r>
        <r>  0.1481  0.1067  0.0000  0.0000  0.0000  0.0000  0.0000  0.0000  0.0000 </r>
       </set>
       <set comment="band 3">
        <r>  0.0000  0.0000  0.1895  0.0096  0.0000  0.0000  0.0000  0.0000  0.0000 </r>
        <r>  0.0000  0.0000  0.0429  0.1562  0.0000  0.0000  0.0000  0.0000  0.0000 </r>
       </set>
       <set comment="band 4">
        <r>  0.0000  0.0000  0.0096  0.1895  0.0000  0.0000  0.0000  0.0000  0.0000 </r>
        <r>  0.0000  0.0000  0.1562  0.0429  0.0000  0.0000  0.0000  0.0000  0.0000 </r>
       </set>
       <set comment="band 5">
        <r>  0.0399  0.0830  0.0000  0.0000  0.0000  0.0000  0.0000  0.0000  0.0000 </r>
        <r>  0.0399  0.0830  0.0000  0.0000  0.0000  0.0000  0.0000  0.0000  0.0000 </r>
       </set>
       <set comment="band 6">
        <r>  0.0549  0.0417  0.0000  0.0000  0.0000  0.0000  0.0000  0.0000  0.0000 </r>
        <r>  0.0549  0.0417  0.0000  0.0000  0.0000  0.0000  0.0000  0.0000  0.0000 </r>
       </set>
       <set comment="band 7">
        <r>  0.0000  0.0000  0.1129  0.0542  0.0000  0.0000  0.0000  0.0000  0.0000 </r>
        <r>  0.0000  0.0000  0.0589  0.1082  0.0000  0.0000  0.0000  0.0000  0.0000 </r>
       </set>
       <set comment="band 8">
        <r>  0.0000  0.0000  0.0542  0.1129  0.0000  0.0000  0.0000  0.0000  0.0000 </r>
        <r>  0.0000  0.0000  0.1082  0.0589  0.0000  0.0000  0.0000  0.0000  0.0000 </r>
       </set>
       <set comment="band 9">
        <r>  0.1551  0.0854  0.0000  0.0000  0.0000  0.0000  0.0000  0.0000  0.0000 </r>
        <r>  0.1551  0.0854  0.0000  0.0000  0.0000  0.0000  0.0000  0.0000  0.0000 </r>
       </set>
       <set comment="band 10">
        <r>  0.0000  0.0000  0.0000  0.0000  0.0000  0.0000  0.0000  0.0000  0.0000 </r>
        <r>  0.0000  0.0000  0.0000  0.0000  0.0000  0.0000  0.0000  0.0000  0.0000 </r>
       </set>
       <set comment="band 11">
        <r>  0.0418  0.0912  0.0000  0.0000  0.0000  0.0000  0.0000  0.0000  0.0000 </r>
        <r>  0.0418  0.0913  0.0000  0.0000  0.0000  0.0000  0.0000  0.0000  0.0000 </r>
       </set>
       <set comment="band 12">
        <r>  0.0001  0.0000  0.0298  0.0003  0.0000  0.0000  0.0000  0.0000  0.0000 </r>
        <r>  0.0001  0.0000  0.0294  0.0009  0.0000  0.0000  0.0000  0.0000  0.0000 </r>
       </set>
      </set>
      <set comment="kpoint 54">
       <set comment="band 1">
        <r>  0.2082  0.0112  0.0000  0.0000  0.0000  0.0000  0.0000  0.0000  0.0000 </r>
        <r>  0.2082  0.0112  0.0000  0.0000  0.0000  0.0000  0.0000  0.0000  0.0000 </r>
       </set>
       <set comment="band 2">
        <r>  0.1528  0.1024  0.0000  0.0000  0.0000  0.0000  0.0000  0.0000  0.0000 </r>
        <r>  0.1528  0.1024  0.0000  0.0000  0.0000  0.0000  0.0000  0.0000  0.0000 </r>
       </set>
       <set comment="band 3">
        <r>  0.0000  0.0000  0.1111  0.0877  0.0000  0.0000  0.0000  0.0000  0.0000 </r>
        <r>  0.0000  0.0000  0.0977  0.1011  0.0000  0.0000  0.0000  0.0000  0.0000 </r>
       </set>
       <set comment="band 4">
        <r>  0.0000  0.0000  0.0877  0.1111  0.0000  0.0000  0.0000  0.0000  0.0000 </r>
        <r>  0.0000  0.0000  0.1011  0.0977  0.0000  0.0000  0.0000  0.0000  0.0000 </r>
       </set>
       <set comment="band 5">
        <r>  0.0419  0.0789  0.0000  0.0000  0.0000  0.0000  0.0000  0.0000  0.0000 </r>
        <r>  0.0419  0.0789  0.0000  0.0000  0.0000  0.0000  0.0000  0.0000  0.0000 </r>
       </set>
       <set comment="band 6">
        <r>  0.0504  0.0390  0.0000  0.0000  0.0000  0.0000  0.0000  0.0000  0.0000 </r>
        <r>  0.0504  0.0390  0.0000  0.0000  0.0000  0.0000  0.0000  0.0000  0.0000 </r>
       </set>
       <set comment="band 7">
        <r>  0.0000  0.0000  0.1378  0.0292  0.0000  0.0000  0.0000  0.0000  0.0000 </r>
        <r>  0.0000  0.0000  0.0265  0.1405  0.0000  0.0000  0.0000  0.0000  0.0000 </r>
       </set>
       <set comment="band 8">
        <r>  0.0000  0.0000  0.0292  0.1378  0.0000  0.0000  0.0000  0.0000  0.0000 </r>
        <r>  0.0000  0.0000  0.1405  0.0265  0.0000  0.0000  0.0000  0.0000  0.0000 </r>
       </set>
       <set comment="band 9">
        <r>  0.1547  0.0939  0.0000  0.0000  0.0000  0.0000  0.0000  0.0000  0.0000 </r>
        <r>  0.1547  0.0939  0.0000  0.0000  0.0000  0.0000  0.0000  0.0000  0.0000 </r>
       </set>
       <set comment="band 10">
        <r>  0.0000  0.0000  0.0000  0.0000  0.0000  0.0000  0.0000  0.0000  0.0000 </r>
        <r>  0.0000  0.0000  0.0000  0.0000  0.0000  0.0000  0.0000  0.0000  0.0000 </r>
       </set>
       <set comment="band 11">
        <r>  0.0369  0.0994  0.0000  0.0000  0.0000  0.0000  0.0000  0.0000  0.0000 </r>
        <r>  0.0370  0.0994  0.0000  0.0000  0.0000  0.0000  0.0000  0.0000  0.0000 </r>
       </set>
       <set comment="band 12">
        <r>  0.0000  0.0000  0.0077  0.0219  0.0000  0.0000  0.0000  0.0000  0.0000 </r>
        <r>  0.0000  0.0000  0.0108  0.0189  0.0000  0.0000  0.0000  0.0000  0.0000 </r>
       </set>
      </set>
      <set comment="kpoint 55">
       <set comment="band 1">
        <r>  0.2076  0.0125  0.0000  0.0000  0.0000  0.0000  0.0000  0.0000  0.0000 </r>
        <r>  0.2076  0.0125  0.0000  0.0000  0.0000  0.0000  0.0000  0.0000  0.0000 </r>
       </set>
       <set comment="band 2">
        <r>  0.1570  0.0983  0.0000  0.0000  0.0000  0.0000  0.0000  0.0000  0.0000 </r>
        <r>  0.1570  0.0983  0.0000  0.0000  0.0000  0.0000  0.0000  0.0000  0.0000 </r>
       </set>
       <set comment="band 3">
        <r>  0.0000  0.0000  0.1005  0.0981  0.0000  0.0000  0.0000  0.0000  0.0000 </r>
        <r>  0.0000  0.0000  0.1086  0.0899  0.0000  0.0000  0.0000  0.0000  0.0000 </r>
       </set>
       <set comment="band 4">
        <r>  0.0000  0.0000  0.0981  0.1005  0.0000  0.0000  0.0000  0.0000  0.0000 </r>
        <r>  0.0000  0.0000  0.0899  0.1086  0.0000  0.0000  0.0000  0.0000  0.0000 </r>
       </set>
       <set comment="band 5">
        <r>  0.0437  0.0751  0.0000  0.0000  0.0000  0.0000  0.0000  0.0000  0.0000 </r>
        <r>  0.0437  0.0751  0.0000  0.0000  0.0000  0.0000  0.0000  0.0000  0.0000 </r>
       </set>
       <set comment="band 6">
        <r>  0.0475  0.0368  0.0000  0.0000  0.0000  0.0000  0.0000  0.0000  0.0000 </r>
        <r>  0.0475  0.0368  0.0000  0.0000  0.0000  0.0000  0.0000  0.0000  0.0000 </r>
       </set>
       <set comment="band 7">
        <r>  0.0000  0.0000  0.0096  0.1572  0.0000  0.0000  0.0000  0.0000  0.0000 </r>
        <r>  0.0000  0.0000  0.1485  0.0183  0.0000  0.0000  0.0000  0.0000  0.0000 </r>
       </set>
       <set comment="band 8">
        <r>  0.0000  0.0000  0.1572  0.0096  0.0000  0.0000  0.0000  0.0000  0.0000 </r>
        <r>  0.0000  0.0000  0.0183  0.1485  0.0000  0.0000  0.0000  0.0000  0.0000 </r>
       </set>
       <set comment="band 9">
        <r>  0.1531  0.1019  0.0000  0.0000  0.0000  0.0000  0.0000  0.0000  0.0000 </r>
        <r>  0.1531  0.1019  0.0000  0.0000  0.0000  0.0000  0.0000  0.0000  0.0000 </r>
       </set>
       <set comment="band 10">
        <r>  0.0000  0.0000  0.0000  0.0000  0.0000  0.0000  0.0000  0.0000  0.0000 </r>
        <r>  0.0000  0.0000  0.0000  0.0000  0.0000  0.0000  0.0000  0.0000  0.0000 </r>
       </set>
       <set comment="band 11">
        <r>  0.0321  0.1079  0.0000  0.0000  0.0000  0.0000  0.0000  0.0000  0.0000 </r>
        <r>  0.0321  0.1080  0.0000  0.0000  0.0000  0.0000  0.0000  0.0000  0.0000 </r>
       </set>
       <set comment="band 12">
        <r>  0.0000  0.0000  0.0206  0.0084  0.0000  0.0000  0.0000  0.0000  0.0000 </r>
        <r>  0.0000  0.0000  0.0208  0.0082  0.0000  0.0000  0.0000  0.0000  0.0000 </r>
       </set>
      </set>
      <set comment="kpoint 56">
       <set comment="band 1">
        <r>  0.2070  0.0139  0.0000  0.0000  0.0000  0.0000  0.0000  0.0000  0.0000 </r>
        <r>  0.2070  0.0139  0.0000  0.0000  0.0000  0.0000  0.0000  0.0000  0.0000 </r>
       </set>
       <set comment="band 2">
        <r>  0.1609  0.0943  0.0000  0.0000  0.0000  0.0000  0.0000  0.0000  0.0000 </r>
        <r>  0.1609  0.0943  0.0000  0.0000  0.0000  0.0000  0.0000  0.0000  0.0000 </r>
       </set>
       <set comment="band 3">
        <r>  0.0000  0.0000  0.0341  0.1642  0.0000  0.0000  0.0000  0.0000  0.0000 </r>
        <r>  0.0000  0.0000  0.1380  0.0603  0.0000  0.0000  0.0000  0.0000  0.0000 </r>
       </set>
       <set comment="band 4">
        <r>  0.0000  0.0000  0.1642  0.0341  0.0000  0.0000  0.0000  0.0000  0.0000 </r>
        <r>  0.0000  0.0000  0.0603  0.1380  0.0000  0.0000  0.0000  0.0000  0.0000 </r>
       </set>
       <set comment="band 5">
        <r>  0.0454  0.0714  0.0000  0.0000  0.0000  0.0000  0.0000  0.0000  0.0000 </r>
        <r>  0.0454  0.0714  0.0000  0.0000  0.0000  0.0000  0.0000  0.0000  0.0000 </r>
       </set>
       <set comment="band 6">
        <r>  0.0455  0.0350  0.0000  0.0000  0.0000  0.0000  0.0000  0.0000  0.0000 </r>
        <r>  0.0455  0.0350  0.0000  0.0000  0.0000  0.0000  0.0000  0.0000  0.0000 </r>
       </set>
       <set comment="band 7">
        <r>  0.0000  0.0000  0.1238  0.0428  0.0000  0.0000  0.0000  0.0000  0.0000 </r>
        <r>  0.0000  0.0000  0.0462  0.1204  0.0000  0.0000  0.0000  0.0000  0.0000 </r>
       </set>
       <set comment="band 8">
        <r>  0.0000  0.0000  0.0428  0.1238  0.0000  0.0000  0.0000  0.0000  0.0000 </r>
        <r>  0.0000  0.0000  0.1205  0.0462  0.0000  0.0000  0.0000  0.0000  0.0000 </r>
       </set>
       <set comment="band 9">
        <r>  0.1506  0.1094  0.0000  0.0000  0.0000  0.0000  0.0000  0.0000  0.0000 </r>
        <r>  0.1506  0.1094  0.0000  0.0000  0.0000  0.0000  0.0000  0.0000  0.0000 </r>
       </set>
       <set comment="band 10">
        <r>  0.0000  0.0000  0.0000  0.0000  0.0000  0.0000  0.0000  0.0000  0.0000 </r>
        <r>  0.0000  0.0000  0.0000  0.0000  0.0000  0.0000  0.0000  0.0000  0.0000 </r>
       </set>
       <set comment="band 11">
        <r>  0.0272  0.1170  0.0000  0.0000  0.0000  0.0000  0.0000  0.0000  0.0000 </r>
        <r>  0.0272  0.1170  0.0000  0.0000  0.0000  0.0000  0.0000  0.0000  0.0000 </r>
       </set>
       <set comment="band 12">
        <r>  0.0000  0.0000  0.0072  0.0219  0.0000  0.0000  0.0000  0.0000  0.0000 </r>
        <r>  0.0000  0.0000  0.0079  0.0213  0.0000  0.0000  0.0000  0.0000  0.0000 </r>
       </set>
      </set>
      <set comment="kpoint 57">
       <set comment="band 1">
        <r>  0.2063  0.0154  0.0000  0.0000  0.0000  0.0000  0.0000  0.0000  0.0000 </r>
        <r>  0.2063  0.0154  0.0000  0.0000  0.0000  0.0000  0.0000  0.0000  0.0000 </r>
       </set>
       <set comment="band 2">
        <r>  0.1644  0.0906  0.0000  0.0000  0.0000  0.0000  0.0000  0.0000  0.0000 </r>
        <r>  0.1644  0.0906  0.0000  0.0000  0.0000  0.0000  0.0000  0.0000  0.0000 </r>
       </set>
       <set comment="band 3">
        <r>  0.0000  0.0000  0.1178  0.0804  0.0000  0.0000  0.0000  0.0000  0.0000 </r>
        <r>  0.0000  0.0000  0.0864  0.1118  0.0000  0.0000  0.0000  0.0000  0.0000 </r>
       </set>
       <set comment="band 4">
        <r>  0.0000  0.0000  0.0804  0.1178  0.0000  0.0000  0.0000  0.0000  0.0000 </r>
        <r>  0.0000  0.0000  0.1118  0.0864  0.0000  0.0000  0.0000  0.0000  0.0000 </r>
       </set>
       <set comment="band 5">
        <r>  0.0469  0.0679  0.0000  0.0000  0.0000  0.0000  0.0000  0.0000  0.0000 </r>
        <r>  0.0469  0.0679  0.0000  0.0000  0.0000  0.0000  0.0000  0.0000  0.0000 </r>
       </set>
       <set comment="band 6">
        <r>  0.0443  0.0336  0.0000  0.0000  0.0000  0.0000  0.0000  0.0000  0.0000 </r>
        <r>  0.0443  0.0336  0.0000  0.0000  0.0000  0.0000  0.0000  0.0000  0.0000 </r>
       </set>
       <set comment="band 7">
        <r>  0.0000  0.0000  0.1245  0.0418  0.0000  0.0000  0.0000  0.0000  0.0000 </r>
        <r>  0.0000  0.0000  0.0660  0.1003  0.0000  0.0000  0.0000  0.0000  0.0000 </r>
       </set>
       <set comment="band 8">
        <r>  0.0000  0.0000  0.0418  0.1246  0.0000  0.0000  0.0000  0.0000  0.0000 </r>
        <r>  0.0000  0.0000  0.1004  0.0660  0.0000  0.0000  0.0000  0.0000  0.0000 </r>
       </set>
       <set comment="band 9">
        <r>  0.1475  0.1165  0.0000  0.0000  0.0000  0.0000  0.0000  0.0000  0.0000 </r>
        <r>  0.1475  0.1165  0.0000  0.0000  0.0000  0.0000  0.0000  0.0000  0.0000 </r>
       </set>
       <set comment="band 10">
        <r>  0.0000  0.0000  0.0000  0.0000  0.0000  0.0000  0.0000  0.0000  0.0000 </r>
        <r>  0.0000  0.0000  0.0000  0.0000  0.0000  0.0000  0.0000  0.0000  0.0000 </r>
       </set>
       <set comment="band 11">
        <r>  0.0222  0.1269  0.0000  0.0000  0.0000  0.0000  0.0000  0.0000  0.0000 </r>
        <r>  0.0222  0.1269  0.0000  0.0000  0.0000  0.0000  0.0000  0.0000  0.0000 </r>
       </set>
       <set comment="band 12">
        <r>  0.0000  0.0000  0.0083  0.0217  0.0000  0.0000  0.0000  0.0000  0.0000 </r>
        <r>  0.0000  0.0000  0.0084  0.0217  0.0000  0.0000  0.0000  0.0000  0.0000 </r>
       </set>
      </set>
      <set comment="kpoint 58">
       <set comment="band 1">
        <r>  0.2056  0.0170  0.0000  0.0000  0.0000  0.0000  0.0000  0.0000  0.0000 </r>
        <r>  0.2056  0.0170  0.0000  0.0000  0.0000  0.0000  0.0000  0.0000  0.0000 </r>
       </set>
       <set comment="band 2">
        <r>  0.1676  0.0869  0.0000  0.0000  0.0000  0.0000  0.0000  0.0000  0.0000 </r>
        <r>  0.1676  0.0869  0.0000  0.0000  0.0000  0.0000  0.0000  0.0000  0.0000 </r>
       </set>
       <set comment="band 3">
        <r>  0.0000  0.0000  0.0812  0.1168  0.0000  0.0000  0.0000  0.0000  0.0000 </r>
        <r>  0.0000  0.0000  0.1218  0.0763  0.0000  0.0000  0.0000  0.0000  0.0000 </r>
       </set>
       <set comment="band 4">
        <r>  0.0000  0.0000  0.1168  0.0812  0.0000  0.0000  0.0000  0.0000  0.0000 </r>
        <r>  0.0000  0.0000  0.0763  0.1218  0.0000  0.0000  0.0000  0.0000  0.0000 </r>
       </set>
       <set comment="band 5">
        <r>  0.0482  0.0646  0.0000  0.0000  0.0000  0.0000  0.0000  0.0000  0.0000 </r>
        <r>  0.0482  0.0646  0.0000  0.0000  0.0000  0.0000  0.0000  0.0000  0.0000 </r>
       </set>
       <set comment="band 6">
        <r>  0.0437  0.0324  0.0000  0.0000  0.0000  0.0000  0.0000  0.0000  0.0000 </r>
        <r>  0.0437  0.0324  0.0000  0.0000  0.0000  0.0000  0.0000  0.0000  0.0000 </r>
       </set>
       <set comment="band 7">
        <r>  0.0000  0.0000  0.0918  0.0742  0.0000  0.0000  0.0000  0.0000  0.0000 </r>
        <r>  0.0000  0.0000  0.1041  0.0619  0.0000  0.0000  0.0000  0.0000  0.0000 </r>
       </set>
       <set comment="band 8">
        <r>  0.0000  0.0000  0.0741  0.0917  0.0000  0.0000  0.0000  0.0000  0.0000 </r>
        <r>  0.0000  0.0000  0.0619  0.1039  0.0000  0.0000  0.0000  0.0000  0.0000 </r>
       </set>
       <set comment="band 9">
        <r>  0.1440  0.1234  0.0000  0.0000  0.0000  0.0000  0.0000  0.0000  0.0000 </r>
        <r>  0.1440  0.1234  0.0000  0.0000  0.0000  0.0000  0.0000  0.0000  0.0000 </r>
       </set>
       <set comment="band 10">
        <r>  0.0000  0.0000  0.0000  0.0000  0.0000  0.0000  0.0000  0.0000  0.0000 </r>
        <r>  0.0000  0.0000  0.0000  0.0000  0.0000  0.0000  0.0000  0.0000  0.0000 </r>
       </set>
       <set comment="band 11">
        <r>  0.0173  0.1374  0.0000  0.0000  0.0000  0.0000  0.0000  0.0000  0.0000 </r>
        <r>  0.0173  0.1374  0.0000  0.0000  0.0000  0.0000  0.0000  0.0000  0.0000 </r>
       </set>
       <set comment="band 12">
        <r>  0.0000  0.0000  0.0192  0.0135  0.0000  0.0000  0.0000  0.0000  0.0000 </r>
        <r>  0.0000  0.0000  0.0303  0.0023  0.0000  0.0000  0.0000  0.0000  0.0000 </r>
       </set>
      </set>
      <set comment="kpoint 59">
       <set comment="band 1">
        <r>  0.2049  0.0186  0.0000  0.0000  0.0000  0.0000  0.0000  0.0000  0.0000 </r>
        <r>  0.2049  0.0186  0.0000  0.0000  0.0000  0.0000  0.0000  0.0000  0.0000 </r>
       </set>
       <set comment="band 2">
        <r>  0.1706  0.0834  0.0000  0.0000  0.0000  0.0000  0.0000  0.0000  0.0000 </r>
        <r>  0.1706  0.0834  0.0000  0.0000  0.0000  0.0000  0.0000  0.0000  0.0000 </r>
       </set>
       <set comment="band 3">
        <r>  0.0000  0.0000  0.0948  0.1031  0.0000  0.0000  0.0000  0.0000  0.0000 </r>
        <r>  0.0000  0.0000  0.1063  0.0916  0.0000  0.0000  0.0000  0.0000  0.0000 </r>
       </set>
       <set comment="band 4">
        <r>  0.0000  0.0000  0.1031  0.0948  0.0000  0.0000  0.0000  0.0000  0.0000 </r>
        <r>  0.0000  0.0000  0.0916  0.1063  0.0000  0.0000  0.0000  0.0000  0.0000 </r>
       </set>
       <set comment="band 5">
        <r>  0.0493  0.0615  0.0000  0.0000  0.0000  0.0000  0.0000  0.0000  0.0000 </r>
        <r>  0.0493  0.0615  0.0000  0.0000  0.0000  0.0000  0.0000  0.0000  0.0000 </r>
       </set>
       <set comment="band 6">
        <r>  0.0434  0.0315  0.0000  0.0000  0.0000  0.0000  0.0000  0.0000  0.0000 </r>
        <r>  0.0434  0.0315  0.0000  0.0000  0.0000  0.0000  0.0000  0.0000  0.0000 </r>
       </set>
       <set comment="band 7">
        <r>  0.0000  0.0000  0.1225  0.0431  0.0000  0.0000  0.0000  0.0000  0.0000 </r>
        <r>  0.0000  0.0000  0.0714  0.0942  0.0000  0.0000  0.0000  0.0000  0.0000 </r>
       </set>
       <set comment="band 8">
        <r>  0.0000  0.0000  0.0430  0.1225  0.0000  0.0000  0.0000  0.0000  0.0000 </r>
        <r>  0.0000  0.0000  0.0942  0.0713  0.0000  0.0000  0.0000  0.0000  0.0000 </r>
       </set>
       <set comment="band 9">
        <r>  0.1400  0.1301  0.0000  0.0000  0.0000  0.0000  0.0000  0.0000  0.0000 </r>
        <r>  0.1400  0.1301  0.0000  0.0000  0.0000  0.0000  0.0000  0.0000  0.0000 </r>
       </set>
       <set comment="band 10">
        <r>  0.0000  0.0000  0.0000  0.0000  0.0000  0.0000  0.0000  0.0000  0.0000 </r>
        <r>  0.0000  0.0000  0.0000  0.0000  0.0000  0.0000  0.0000  0.0000  0.0000 </r>
       </set>
       <set comment="band 11">
        <r>  0.0126  0.1486  0.0000  0.0000  0.0000  0.0000  0.0000  0.0000  0.0000 </r>
        <r>  0.0125  0.1489  0.0000  0.0000  0.0000  0.0000  0.0000  0.0000  0.0000 </r>
       </set>
       <set comment="band 12">
        <r>  0.0000  0.0000  0.0126  0.0246  0.0000  0.0000  0.0000  0.0000  0.0000 </r>
        <r>  0.0000  0.0000  0.0373  0.0001  0.0000  0.0000  0.0000  0.0000  0.0000 </r>
       </set>
      </set>
      <set comment="kpoint 60">
       <set comment="band 1">
        <r>  0.2042  0.0203  0.0000  0.0000  0.0000  0.0000  0.0000  0.0000  0.0000 </r>
        <r>  0.2042  0.0203  0.0000  0.0000  0.0000  0.0000  0.0000  0.0000  0.0000 </r>
       </set>
       <set comment="band 2">
        <r>  0.1732  0.0801  0.0000  0.0000  0.0000  0.0000  0.0000  0.0000  0.0000 </r>
        <r>  0.1732  0.0801  0.0000  0.0000  0.0000  0.0000  0.0000  0.0000  0.0000 </r>
       </set>
       <set comment="band 3">
        <r>  0.0000  0.0000  0.0491  0.1487  0.0000  0.0000  0.0000  0.0000  0.0000 </r>
        <r>  0.0000  0.0000  0.1450  0.0528  0.0000  0.0000  0.0000  0.0000  0.0000 </r>
       </set>
       <set comment="band 4">
        <r>  0.0000  0.0000  0.1487  0.0491  0.0000  0.0000  0.0000  0.0000  0.0000 </r>
        <r>  0.0000  0.0000  0.0528  0.1450  0.0000  0.0000  0.0000  0.0000  0.0000 </r>
       </set>
       <set comment="band 5">
        <r>  0.0503  0.0586  0.0000  0.0000  0.0000  0.0000  0.0000  0.0000  0.0000 </r>
        <r>  0.0503  0.0586  0.0000  0.0000  0.0000  0.0000  0.0000  0.0000  0.0000 </r>
       </set>
       <set comment="band 6">
        <r>  0.0435  0.0308  0.0000  0.0000  0.0000  0.0000  0.0000  0.0000  0.0000 </r>
        <r>  0.0435  0.0308  0.0000  0.0000  0.0000  0.0000  0.0000  0.0000  0.0000 </r>
       </set>
       <set comment="band 7">
        <r>  0.0000  0.0000  0.0803  0.0849  0.0000  0.0000  0.0000  0.0000  0.0000 </r>
        <r>  0.0000  0.0000  0.1118  0.0535  0.0000  0.0000  0.0000  0.0000  0.0000 </r>
       </set>
       <set comment="band 8">
        <r>  0.0000  0.0000  0.0850  0.0804  0.0000  0.0000  0.0000  0.0000  0.0000 </r>
        <r>  0.0000  0.0000  0.0535  0.1120  0.0000  0.0000  0.0000  0.0000  0.0000 </r>
       </set>
       <set comment="band 9">
        <r>  0.1357  0.1366  0.0000  0.0000  0.0000  0.0000  0.0000  0.0000  0.0000 </r>
        <r>  0.1357  0.1366  0.0000  0.0000  0.0000  0.0000  0.0000  0.0000  0.0000 </r>
       </set>
       <set comment="band 10">
        <r>  0.0000  0.0000  0.0000  0.0000  0.0000  0.0000  0.0000  0.0000  0.0000 </r>
        <r>  0.0000  0.0000  0.0000  0.0000  0.0000  0.0000  0.0000  0.0000  0.0000 </r>
       </set>
       <set comment="band 11">
        <r>  0.0081  0.1579  0.0004  0.0003  0.0000  0.0000  0.0000  0.0000  0.0000 </r>
        <r>  0.0080  0.1585  0.0001  0.0005  0.0000  0.0000  0.0000  0.0000  0.0000 </r>
       </set>
       <set comment="band 12">
        <r>  0.0000  0.0000  0.0190  0.0251  0.0000  0.0000  0.0000  0.0000  0.0000 </r>
        <r>  0.0000  0.0000  0.0352  0.0086  0.0000  0.0000  0.0000  0.0000  0.0000 </r>
       </set>
      </set>
      <set comment="kpoint 61">
       <set comment="band 1">
        <r>  0.2034  0.0220  0.0000  0.0000  0.0000  0.0000  0.0000  0.0000  0.0000 </r>
        <r>  0.2034  0.0220  0.0000  0.0000  0.0000  0.0000  0.0000  0.0000  0.0000 </r>
       </set>
       <set comment="band 2">
        <r>  0.1757  0.0768  0.0000  0.0000  0.0000  0.0000  0.0000  0.0000  0.0000 </r>
        <r>  0.1757  0.0768  0.0000  0.0000  0.0000  0.0000  0.0000  0.0000  0.0000 </r>
       </set>
       <set comment="band 3">
        <r>  0.0000  0.0000  0.1024  0.0954  0.0000  0.0000  0.0000  0.0000  0.0000 </r>
        <r>  0.0000  0.0000  0.0956  0.1022  0.0000  0.0000  0.0000  0.0000  0.0000 </r>
       </set>
       <set comment="band 4">
        <r>  0.0000  0.0000  0.0954  0.1024  0.0000  0.0000  0.0000  0.0000  0.0000 </r>
        <r>  0.0000  0.0000  0.1022  0.0956  0.0000  0.0000  0.0000  0.0000  0.0000 </r>
       </set>
       <set comment="band 5">
        <r>  0.0512  0.0558  0.0000  0.0000  0.0000  0.0000  0.0000  0.0000  0.0000 </r>
        <r>  0.0512  0.0558  0.0000  0.0000  0.0000  0.0000  0.0000  0.0000  0.0000 </r>
       </set>
       <set comment="band 6">
        <r>  0.0439  0.0304  0.0000  0.0000  0.0000  0.0000  0.0000  0.0000  0.0000 </r>
        <r>  0.0439  0.0304  0.0000  0.0000  0.0000  0.0000  0.0000  0.0000  0.0000 </r>
       </set>
       <set comment="band 7">
        <r>  0.0000  0.0000  0.0588  0.1061  0.0000  0.0000  0.0000  0.0000  0.0000 </r>
        <r>  0.0000  0.0000  0.0754  0.0895  0.0000  0.0000  0.0000  0.0000  0.0000 </r>
       </set>
       <set comment="band 8">
        <r>  0.0000  0.0000  0.1061  0.0588  0.0000  0.0000  0.0000  0.0000  0.0000 </r>
        <r>  0.0000  0.0000  0.0895  0.0754  0.0000  0.0000  0.0000  0.0000  0.0000 </r>
       </set>
       <set comment="band 9">
        <r>  0.0000  0.0000  0.0000  0.0000  0.0000  0.0000  0.0000  0.0000  0.0000 </r>
        <r>  0.0000  0.0000  0.0000  0.0000  0.0000  0.0000  0.0000  0.0000  0.0000 </r>
       </set>
       <set comment="band 10">
        <r>  0.1310  0.1430  0.0000  0.0000  0.0000  0.0000  0.0000  0.0000  0.0000 </r>
        <r>  0.1310  0.1430  0.0000  0.0000  0.0000  0.0000  0.0000  0.0000  0.0000 </r>
       </set>
       <set comment="band 11">
        <r>  0.0041  0.1523  0.0025  0.0025  0.0000  0.0000  0.0000  0.0000  0.0000 </r>
        <r>  0.0035  0.1557  0.0020  0.0035  0.0000  0.0000  0.0000  0.0000  0.0000 </r>
       </set>
       <set comment="band 12">
        <r>  0.0000  0.0000  0.0234  0.0286  0.0000  0.0000  0.0000  0.0000  0.0000 </r>
        <r>  0.0000  0.0000  0.0310  0.0210  0.0000  0.0000  0.0000  0.0000  0.0000 </r>
       </set>
      </set>
      <set comment="kpoint 62">
       <set comment="band 1">
        <r>  0.2027  0.0238  0.0000  0.0000  0.0000  0.0000  0.0000  0.0000  0.0000 </r>
        <r>  0.2027  0.0238  0.0000  0.0000  0.0000  0.0000  0.0000  0.0000  0.0000 </r>
       </set>
       <set comment="band 2">
        <r>  0.1780  0.0735  0.0000  0.0000  0.0000  0.0000  0.0000  0.0000  0.0000 </r>
        <r>  0.1780  0.0735  0.0000  0.0000  0.0000  0.0000  0.0000  0.0000  0.0000 </r>
       </set>
       <set comment="band 3">
        <r>  0.0000  0.0000  0.0982  0.0995  0.0000  0.0000  0.0000  0.0000  0.0000 </r>
        <r>  0.0000  0.0000  0.0997  0.0980  0.0000  0.0000  0.0000  0.0000  0.0000 </r>
       </set>
       <set comment="band 4">
        <r>  0.0000  0.0000  0.0995  0.0982  0.0000  0.0000  0.0000  0.0000  0.0000 </r>
        <r>  0.0000  0.0000  0.0980  0.0997  0.0000  0.0000  0.0000  0.0000  0.0000 </r>
       </set>
       <set comment="band 5">
        <r>  0.0519  0.0532  0.0000  0.0000  0.0000  0.0000  0.0000  0.0000  0.0000 </r>
        <r>  0.0519  0.0532  0.0000  0.0000  0.0000  0.0000  0.0000  0.0000  0.0000 </r>
       </set>
       <set comment="band 6">
        <r>  0.0444  0.0301  0.0000  0.0000  0.0000  0.0000  0.0000  0.0000  0.0000 </r>
        <r>  0.0444  0.0301  0.0000  0.0000  0.0000  0.0000  0.0000  0.0000  0.0000 </r>
       </set>
       <set comment="band 7">
        <r>  0.0000  0.0000  0.0345  0.1302  0.0000  0.0000  0.0000  0.0000  0.0000 </r>
        <r>  0.0000  0.0000  0.1418  0.0230  0.0000  0.0000  0.0000  0.0000  0.0000 </r>
       </set>
       <set comment="band 8">
        <r>  0.0000  0.0000  0.1302  0.0346  0.0000  0.0000  0.0000  0.0000  0.0000 </r>
        <r>  0.0000  0.0000  0.0230  0.1418  0.0000  0.0000  0.0000  0.0000  0.0000 </r>
       </set>
       <set comment="band 9">
        <r>  0.0000  0.0000  0.0000  0.0000  0.0000  0.0000  0.0000  0.0000  0.0000 </r>
        <r>  0.0000  0.0000  0.0000  0.0000  0.0000  0.0000  0.0000  0.0000  0.0000 </r>
       </set>
       <set comment="band 10">
        <r>  0.1260  0.1493  0.0000  0.0000  0.0000  0.0000  0.0000  0.0000  0.0000 </r>
        <r>  0.1260  0.1493  0.0000  0.0000  0.0000  0.0000  0.0000  0.0000  0.0000 </r>
       </set>
       <set comment="band 11">
        <r>  0.0000  0.0000  0.0408  0.0189  0.0000  0.0000  0.0000  0.0000  0.0000 </r>
        <r>  0.0000  0.0000  0.0234  0.0364  0.0000  0.0000  0.0000  0.0000  0.0000 </r>
       </set>
       <set comment="band 12">
        <r>  0.0000  0.0159  0.0181  0.0373  0.0000  0.0000  0.0000  0.0000  0.0000 </r>
        <r>  0.0001  0.0156  0.0343  0.0213  0.0000  0.0000  0.0000  0.0000  0.0000 </r>
       </set>
      </set>
      <set comment="kpoint 63">
       <set comment="band 1">
        <r>  0.2018  0.0257  0.0000  0.0000  0.0000  0.0000  0.0000  0.0000  0.0000 </r>
        <r>  0.2018  0.0257  0.0000  0.0000  0.0000  0.0000  0.0000  0.0000  0.0000 </r>
       </set>
       <set comment="band 2">
        <r>  0.1800  0.0704  0.0000  0.0000  0.0000  0.0000  0.0000  0.0000  0.0000 </r>
        <r>  0.1800  0.0704  0.0000  0.0000  0.0000  0.0000  0.0000  0.0000  0.0000 </r>
       </set>
       <set comment="band 3">
        <r>  0.0000  0.0000  0.0989  0.0988  0.0000  0.0000  0.0000  0.0000  0.0000 </r>
        <r>  0.0000  0.0000  0.0987  0.0990  0.0000  0.0000  0.0000  0.0000  0.0000 </r>
       </set>
       <set comment="band 4">
        <r>  0.0000  0.0000  0.0988  0.0989  0.0000  0.0000  0.0000  0.0000  0.0000 </r>
        <r>  0.0000  0.0000  0.0990  0.0987  0.0000  0.0000  0.0000  0.0000  0.0000 </r>
       </set>
       <set comment="band 5">
        <r>  0.0524  0.0507  0.0000  0.0000  0.0000  0.0000  0.0000  0.0000  0.0000 </r>
        <r>  0.0524  0.0507  0.0000  0.0000  0.0000  0.0000  0.0000  0.0000  0.0000 </r>
       </set>
       <set comment="band 6">
        <r>  0.0450  0.0299  0.0000  0.0000  0.0000  0.0000  0.0000  0.0000  0.0000 </r>
        <r>  0.0450  0.0299  0.0000  0.0000  0.0000  0.0000  0.0000  0.0000  0.0000 </r>
       </set>
       <set comment="band 7">
        <r>  0.0000  0.0000  0.1065  0.0583  0.0000  0.0000  0.0000  0.0000  0.0000 </r>
        <r>  0.0000  0.0000  0.0844  0.0805  0.0000  0.0000  0.0000  0.0000  0.0000 </r>
       </set>
       <set comment="band 8">
        <r>  0.0000  0.0000  0.0583  0.1065  0.0000  0.0000  0.0000  0.0000  0.0000 </r>
        <r>  0.0000  0.0000  0.0805  0.0844  0.0000  0.0000  0.0000  0.0000  0.0000 </r>
       </set>
       <set comment="band 9">
        <r>  0.0000  0.0000  0.0000  0.0000  0.0000  0.0000  0.0000  0.0000  0.0000 </r>
        <r>  0.0000  0.0000  0.0000  0.0000  0.0000  0.0000  0.0000  0.0000  0.0000 </r>
       </set>
       <set comment="band 10">
        <r>  0.1207  0.1556  0.0000  0.0000  0.0000  0.0000  0.0000  0.0000  0.0000 </r>
        <r>  0.1207  0.1554  0.0000  0.0000  0.0000  0.0000  0.0000  0.0000  0.0000 </r>
       </set>
       <set comment="band 11">
        <r>  0.0000  0.0000  0.0009  0.0654  0.0000  0.0000  0.0000  0.0000  0.0000 </r>
        <r>  0.0000  0.0000  0.0593  0.0070  0.0000  0.0000  0.0000  0.0000  0.0000 </r>
       </set>
       <set comment="band 12">
        <r>  0.0000  0.0067  0.0595  0.0012  0.0000  0.0000  0.0000  0.0000  0.0000 </r>
        <r>  0.0000  0.0064  0.0056  0.0575  0.0000  0.0000  0.0000  0.0000  0.0000 </r>
       </set>
      </set>
      <set comment="kpoint 64">
       <set comment="band 1">
        <r>  0.2010  0.0276  0.0000  0.0000  0.0000  0.0000  0.0000  0.0000  0.0000 </r>
        <r>  0.2010  0.0276  0.0000  0.0000  0.0000  0.0000  0.0000  0.0000  0.0000 </r>
       </set>
       <set comment="band 2">
        <r>  0.1819  0.0674  0.0000  0.0000  0.0000  0.0000  0.0000  0.0000  0.0000 </r>
        <r>  0.1819  0.0674  0.0000  0.0000  0.0000  0.0000  0.0000  0.0000  0.0000 </r>
       </set>
       <set comment="band 3">
        <r>  0.0000  0.0000  0.0989  0.0988  0.0000  0.0000  0.0000  0.0000  0.0000 </r>
        <r>  0.0000  0.0000  0.0988  0.0989  0.0000  0.0000  0.0000  0.0000  0.0000 </r>
       </set>
       <set comment="band 4">
        <r>  0.0000  0.0000  0.0988  0.0989  0.0000  0.0000  0.0000  0.0000  0.0000 </r>
        <r>  0.0000  0.0000  0.0989  0.0988  0.0000  0.0000  0.0000  0.0000  0.0000 </r>
       </set>
       <set comment="band 5">
        <r>  0.0528  0.0484  0.0000  0.0000  0.0000  0.0000  0.0000  0.0000  0.0000 </r>
        <r>  0.0528  0.0484  0.0000  0.0000  0.0000  0.0000  0.0000  0.0000  0.0000 </r>
       </set>
       <set comment="band 6">
        <r>  0.0458  0.0299  0.0000  0.0000  0.0000  0.0000  0.0000  0.0000  0.0000 </r>
        <r>  0.0458  0.0299  0.0000  0.0000  0.0000  0.0000  0.0000  0.0000  0.0000 </r>
       </set>
       <set comment="band 7">
        <r>  0.0000  0.0000  0.1140  0.0511  0.0000  0.0000  0.0000  0.0000  0.0000 </r>
        <r>  0.0000  0.0000  0.0903  0.0749  0.0000  0.0000  0.0000  0.0000  0.0000 </r>
       </set>
       <set comment="band 8">
        <r>  0.0000  0.0000  0.0511  0.1141  0.0000  0.0000  0.0000  0.0000  0.0000 </r>
        <r>  0.0000  0.0000  0.0749  0.0903  0.0000  0.0000  0.0000  0.0000  0.0000 </r>
       </set>
       <set comment="band 9">
        <r>  0.0000  0.0000  0.0000  0.0000  0.0000  0.0000  0.0000  0.0000  0.0000 </r>
        <r>  0.0000  0.0000  0.0000  0.0000  0.0000  0.0000  0.0000  0.0000  0.0000 </r>
       </set>
       <set comment="band 10">
        <r>  0.1151  0.1621  0.0000  0.0000  0.0000  0.0000  0.0000  0.0000  0.0000 </r>
        <r>  0.1150  0.1612  0.0000  0.0000  0.0000  0.0000  0.0000  0.0000  0.0000 </r>
       </set>
       <set comment="band 11">
        <r>  0.0000  0.0000  0.0312  0.0401  0.0000  0.0000  0.0000  0.0000  0.0000 </r>
        <r>  0.0000  0.0000  0.0301  0.0412  0.0000  0.0000  0.0000  0.0000  0.0000 </r>
       </set>
       <set comment="band 12">
        <r>  0.0000  0.0079  0.0392  0.0303  0.0000  0.0000  0.0000  0.0000  0.0000 </r>
        <r>  0.0000  0.0076  0.0399  0.0296  0.0000  0.0000  0.0000  0.0000  0.0000 </r>
       </set>
      </set>
      <set comment="kpoint 65">
       <set comment="band 1">
        <r>  0.2001  0.0296  0.0000  0.0000  0.0000  0.0000  0.0000  0.0000  0.0000 </r>
        <r>  0.2002  0.0296  0.0000  0.0000  0.0000  0.0000  0.0000  0.0000  0.0000 </r>
       </set>
       <set comment="band 2">
        <r>  0.1837  0.0644  0.0000  0.0000  0.0000  0.0000  0.0000  0.0000  0.0000 </r>
        <r>  0.1837  0.0644  0.0000  0.0000  0.0000  0.0000  0.0000  0.0000  0.0000 </r>
       </set>
       <set comment="band 3">
        <r>  0.0000  0.0000  0.1932  0.0044  0.0000  0.0000  0.0000  0.0000  0.0000 </r>
        <r>  0.0000  0.0000  0.0011  0.1965  0.0000  0.0000  0.0000  0.0000  0.0000 </r>
       </set>
       <set comment="band 4">
        <r>  0.0000  0.0000  0.0044  0.1932  0.0000  0.0000  0.0000  0.0000  0.0000 </r>
        <r>  0.0000  0.0000  0.1965  0.0011  0.0000  0.0000  0.0000  0.0000  0.0000 </r>
       </set>
       <set comment="band 5">
        <r>  0.0531  0.0462  0.0000  0.0000  0.0000  0.0000  0.0000  0.0000  0.0000 </r>
        <r>  0.0531  0.0462  0.0000  0.0000  0.0000  0.0000  0.0000  0.0000  0.0000 </r>
       </set>
       <set comment="band 6">
        <r>  0.0465  0.0300  0.0000  0.0000  0.0000  0.0000  0.0000  0.0000  0.0000 </r>
        <r>  0.0465  0.0300  0.0000  0.0000  0.0000  0.0000  0.0000  0.0000  0.0000 </r>
       </set>
       <set comment="band 7">
        <r>  0.0000  0.0000  0.0629  0.1030  0.0000  0.0000  0.0000  0.0000  0.0000 </r>
        <r>  0.0000  0.0000  0.1037  0.0622  0.0000  0.0000  0.0000  0.0000  0.0000 </r>
       </set>
       <set comment="band 8">
        <r>  0.0000  0.0000  0.1030  0.0630  0.0000  0.0000  0.0000  0.0000  0.0000 </r>
        <r>  0.0000  0.0000  0.0623  0.1036  0.0000  0.0000  0.0000  0.0000  0.0000 </r>
       </set>
       <set comment="band 9">
        <r>  0.0000  0.0000  0.0000  0.0000  0.0000  0.0000  0.0000  0.0000  0.0000 </r>
        <r>  0.0000  0.0000  0.0000  0.0000  0.0000  0.0000  0.0000  0.0000  0.0000 </r>
       </set>
       <set comment="band 10">
        <r>  0.1092  0.1666  0.0000  0.0000  0.0000  0.0000  0.0000  0.0000  0.0000 </r>
        <r>  0.1090  0.1689  0.0000  0.0000  0.0000  0.0000  0.0000  0.0000  0.0000 </r>
       </set>
       <set comment="band 11">
        <r>  0.0000  0.0000  0.0731  0.0016  0.0000  0.0000  0.0000  0.0000  0.0000 </r>
        <r>  0.0000  0.0000  0.0205  0.0543  0.0000  0.0000  0.0000  0.0000  0.0000 </r>
       </set>
       <set comment="band 12">
        <r>  0.0000  0.0009  0.0016  0.0725  0.0000  0.0000  0.0000  0.0000  0.0000 </r>
        <r>  0.0000  0.0009  0.0541  0.0203  0.0000  0.0000  0.0000  0.0000  0.0000 </r>
       </set>
      </set>
      <set comment="kpoint 66">
       <set comment="band 1">
        <r>  0.1993  0.0317  0.0000  0.0000  0.0000  0.0000  0.0000  0.0000  0.0000 </r>
        <r>  0.1993  0.0317  0.0000  0.0000  0.0000  0.0000  0.0000  0.0000  0.0000 </r>
       </set>
       <set comment="band 2">
        <r>  0.1853  0.0615  0.0000  0.0000  0.0000  0.0000  0.0000  0.0000  0.0000 </r>
        <r>  0.1853  0.0615  0.0000  0.0000  0.0000  0.0000  0.0000  0.0000  0.0000 </r>
       </set>
       <set comment="band 3">
        <r>  0.0000  0.0000  0.0995  0.0982  0.0000  0.0000  0.0000  0.0000  0.0000 </r>
        <r>  0.0000  0.0000  0.0980  0.0996  0.0000  0.0000  0.0000  0.0000  0.0000 </r>
       </set>
       <set comment="band 4">
        <r>  0.0000  0.0000  0.0982  0.0995  0.0000  0.0000  0.0000  0.0000  0.0000 </r>
        <r>  0.0000  0.0000  0.0996  0.0980  0.0000  0.0000  0.0000  0.0000  0.0000 </r>
       </set>
       <set comment="band 5">
        <r>  0.0533  0.0442  0.0000  0.0000  0.0000  0.0000  0.0000  0.0000  0.0000 </r>
        <r>  0.0533  0.0442  0.0000  0.0000  0.0000  0.0000  0.0000  0.0000  0.0000 </r>
       </set>
       <set comment="band 6">
        <r>  0.0474  0.0303  0.0000  0.0000  0.0000  0.0000  0.0000  0.0000  0.0000 </r>
        <r>  0.0474  0.0303  0.0000  0.0000  0.0000  0.0000  0.0000  0.0000  0.0000 </r>
       </set>
       <set comment="band 7">
        <r>  0.0000  0.0000  0.1585  0.0090  0.0000  0.0000  0.0000  0.0000  0.0000 </r>
        <r>  0.0000  0.0000  0.0316  0.1360  0.0000  0.0000  0.0000  0.0000  0.0000 </r>
       </set>
       <set comment="band 8">
        <r>  0.0000  0.0000  0.0091  0.1585  0.0000  0.0000  0.0000  0.0000  0.0000 </r>
        <r>  0.0000  0.0000  0.1359  0.0316  0.0000  0.0000  0.0000  0.0000  0.0000 </r>
       </set>
       <set comment="band 9">
        <r>  0.0000  0.0000  0.0000  0.0000  0.0000  0.0000  0.0000  0.0000  0.0000 </r>
        <r>  0.0000  0.0000  0.0000  0.0000  0.0000  0.0000  0.0000  0.0000  0.0000 </r>
       </set>
       <set comment="band 10">
        <r>  0.1028  0.1738  0.0000  0.0000  0.0000  0.0000  0.0000  0.0000  0.0000 </r>
        <r>  0.1028  0.1739  0.0000  0.0000  0.0000  0.0000  0.0000  0.0000  0.0000 </r>
       </set>
       <set comment="band 11">
        <r>  0.0000  0.0000  0.0089  0.0675  0.0000  0.0000  0.0000  0.0000  0.0000 </r>
        <r>  0.0000  0.0000  0.0440  0.0323  0.0000  0.0000  0.0000  0.0000  0.0000 </r>
       </set>
       <set comment="band 12">
        <r>  0.0000  0.0000  0.0676  0.0089  0.0000  0.0000  0.0000  0.0000  0.0000 </r>
        <r>  0.0000  0.0000  0.0324  0.0441  0.0000  0.0000  0.0000  0.0000  0.0000 </r>
       </set>
      </set>
      <set comment="kpoint 67">
       <set comment="band 1">
        <r>  0.1983  0.0339  0.0000  0.0000  0.0000  0.0000  0.0000  0.0000  0.0000 </r>
        <r>  0.1983  0.0339  0.0000  0.0000  0.0000  0.0000  0.0000  0.0000  0.0000 </r>
       </set>
       <set comment="band 2">
        <r>  0.1869  0.0587  0.0000  0.0000  0.0000  0.0000  0.0000  0.0000  0.0000 </r>
        <r>  0.1869  0.0587  0.0000  0.0000  0.0000  0.0000  0.0000  0.0000  0.0000 </r>
       </set>
       <set comment="band 3">
        <r>  0.0000  0.0000  0.0974  0.1002  0.0000  0.0000  0.0000  0.0000  0.0000 </r>
        <r>  0.0000  0.0000  0.1000  0.0976  0.0000  0.0000  0.0000  0.0000  0.0000 </r>
       </set>
       <set comment="band 4">
        <r>  0.0000  0.0000  0.1002  0.0974  0.0000  0.0000  0.0000  0.0000  0.0000 </r>
        <r>  0.0000  0.0000  0.0976  0.1000  0.0000  0.0000  0.0000  0.0000  0.0000 </r>
       </set>
       <set comment="band 5">
        <r>  0.0533  0.0423  0.0000  0.0000  0.0000  0.0000  0.0000  0.0000  0.0000 </r>
        <r>  0.0533  0.0423  0.0000  0.0000  0.0000  0.0000  0.0000  0.0000  0.0000 </r>
       </set>
       <set comment="band 6">
        <r>  0.0482  0.0308  0.0000  0.0000  0.0000  0.0000  0.0000  0.0000  0.0000 </r>
        <r>  0.0482  0.0308  0.0000  0.0000  0.0000  0.0000  0.0000  0.0000  0.0000 </r>
       </set>
       <set comment="band 7">
        <r>  0.0000  0.0000  0.1643  0.0060  0.0000  0.0000  0.0000  0.0000  0.0000 </r>
        <r>  0.0000  0.0000  0.0031  0.1672  0.0000  0.0000  0.0000  0.0000  0.0000 </r>
       </set>
       <set comment="band 8">
        <r>  0.0000  0.0000  0.0060  0.1644  0.0000  0.0000  0.0000  0.0000  0.0000 </r>
        <r>  0.0000  0.0000  0.1672  0.0031  0.0000  0.0000  0.0000  0.0000  0.0000 </r>
       </set>
       <set comment="band 9">
        <r>  0.0000  0.0000  0.0000  0.0000  0.0000  0.0000  0.0000  0.0000  0.0000 </r>
        <r>  0.0000  0.0000  0.0000  0.0000  0.0000  0.0000  0.0000  0.0000  0.0000 </r>
       </set>
       <set comment="band 10">
        <r>  0.0959  0.1813  0.0000  0.0000  0.0000  0.0000  0.0000  0.0000  0.0000 </r>
        <r>  0.0964  0.1785  0.0000  0.0000  0.0000  0.0000  0.0000  0.0000  0.0000 </r>
       </set>
       <set comment="band 11">
        <r>  0.0000  0.0001  0.0037  0.0725  0.0000  0.0000  0.0000  0.0000  0.0000 </r>
        <r>  0.0000  0.0001  0.0559  0.0200  0.0000  0.0000  0.0000  0.0000  0.0000 </r>
       </set>
       <set comment="band 12">
        <r>  0.0000  0.0002  0.0723  0.0036  0.0000  0.0000  0.0000  0.0000  0.0000 </r>
        <r>  0.0000  0.0002  0.0200  0.0561  0.0000  0.0000  0.0000  0.0000  0.0000 </r>
       </set>
      </set>
      <set comment="kpoint 68">
       <set comment="band 1">
        <r>  0.1974  0.0361  0.0000  0.0000  0.0000  0.0000  0.0000  0.0000  0.0000 </r>
        <r>  0.1974  0.0361  0.0000  0.0000  0.0000  0.0000  0.0000  0.0000  0.0000 </r>
       </set>
       <set comment="band 2">
        <r>  0.1883  0.0559  0.0000  0.0000  0.0000  0.0000  0.0000  0.0000  0.0000 </r>
        <r>  0.1883  0.0559  0.0000  0.0000  0.0000  0.0000  0.0000  0.0000  0.0000 </r>
       </set>
       <set comment="band 3">
        <r>  0.0000  0.0000  0.0988  0.0988  0.0000  0.0000  0.0000  0.0000  0.0000 </r>
        <r>  0.0000  0.0000  0.0988  0.0988  0.0000  0.0000  0.0000  0.0000  0.0000 </r>
       </set>
       <set comment="band 4">
        <r>  0.0000  0.0000  0.0988  0.0988  0.0000  0.0000  0.0000  0.0000  0.0000 </r>
        <r>  0.0000  0.0000  0.0988  0.0988  0.0000  0.0000  0.0000  0.0000  0.0000 </r>
       </set>
       <set comment="band 5">
        <r>  0.0532  0.0406  0.0000  0.0000  0.0000  0.0000  0.0000  0.0000  0.0000 </r>
        <r>  0.0532  0.0406  0.0000  0.0000  0.0000  0.0000  0.0000  0.0000  0.0000 </r>
       </set>
       <set comment="band 6">
        <r>  0.0490  0.0313  0.0000  0.0000  0.0000  0.0000  0.0000  0.0000  0.0000 </r>
        <r>  0.0490  0.0313  0.0000  0.0000  0.0000  0.0000  0.0000  0.0000  0.0000 </r>
       </set>
       <set comment="band 7">
        <r>  0.0000  0.0000  0.1173  0.0578  0.0000  0.0000  0.0000  0.0000  0.0000 </r>
        <r>  0.0000  0.0000  0.0954  0.0796  0.0000  0.0000  0.0000  0.0000  0.0000 </r>
       </set>
       <set comment="band 8">
        <r>  0.0000  0.0000  0.0577  0.1173  0.0000  0.0000  0.0000  0.0000  0.0000 </r>
        <r>  0.0000  0.0000  0.0796  0.0955  0.0000  0.0000  0.0000  0.0000  0.0000 </r>
       </set>
       <set comment="band 9">
        <r>  0.0000  0.0000  0.0000  0.0000  0.0000  0.0000  0.0000  0.0000  0.0000 </r>
        <r>  0.0000  0.0000  0.0000  0.0000  0.0000  0.0000  0.0000  0.0000  0.0000 </r>
       </set>
       <set comment="band 10">
        <r>  0.0000  0.0000  0.0086  0.0646  0.0000  0.0000  0.0000  0.0000  0.0000 </r>
        <r>  0.0000  0.0000  0.0278  0.0454  0.0000  0.0000  0.0000  0.0000  0.0000 </r>
       </set>
       <set comment="band 11">
        <r>  0.0000  0.0000  0.0647  0.0086  0.0000  0.0000  0.0000  0.0000  0.0000 </r>
        <r>  0.0000  0.0000  0.0456  0.0278  0.0000  0.0000  0.0000  0.0000  0.0000 </r>
       </set>
       <set comment="band 12">
        <r>  0.0892  0.1846  0.0000  0.0000  0.0000  0.0000  0.0000  0.0000  0.0000 </r>
        <r>  0.0891  0.1872  0.0000  0.0000  0.0000  0.0000  0.0000  0.0000  0.0000 </r>
       </set>
      </set>
      <set comment="kpoint 69">
       <set comment="band 1">
        <r>  0.1964  0.0383  0.0000  0.0000  0.0000  0.0000  0.0000  0.0000  0.0000 </r>
        <r>  0.1964  0.0383  0.0000  0.0000  0.0000  0.0000  0.0000  0.0000  0.0000 </r>
       </set>
       <set comment="band 2">
        <r>  0.1896  0.0532  0.0000  0.0000  0.0000  0.0000  0.0000  0.0000  0.0000 </r>
        <r>  0.1896  0.0532  0.0000  0.0000  0.0000  0.0000  0.0000  0.0000  0.0000 </r>
       </set>
       <set comment="band 3">
        <r>  0.0000  0.0000  0.0988  0.0987  0.0000  0.0000  0.0000  0.0000  0.0000 </r>
        <r>  0.0000  0.0000  0.0987  0.0988  0.0000  0.0000  0.0000  0.0000  0.0000 </r>
       </set>
       <set comment="band 4">
        <r>  0.0000  0.0000  0.0987  0.0988  0.0000  0.0000  0.0000  0.0000  0.0000 </r>
        <r>  0.0000  0.0000  0.0988  0.0987  0.0000  0.0000  0.0000  0.0000  0.0000 </r>
       </set>
       <set comment="band 5">
        <r>  0.0530  0.0390  0.0000  0.0000  0.0000  0.0000  0.0000  0.0000  0.0000 </r>
        <r>  0.0530  0.0390  0.0000  0.0000  0.0000  0.0000  0.0000  0.0000  0.0000 </r>
       </set>
       <set comment="band 6">
        <r>  0.0498  0.0320  0.0000  0.0000  0.0000  0.0000  0.0000  0.0000  0.0000 </r>
        <r>  0.0498  0.0320  0.0000  0.0000  0.0000  0.0000  0.0000  0.0000  0.0000 </r>
       </set>
       <set comment="band 7">
        <r>  0.0000  0.0000  0.0376  0.1457  0.0000  0.0000  0.0000  0.0000  0.0000 </r>
        <r>  0.0000  0.0000  0.1472  0.0361  0.0000  0.0000  0.0000  0.0000  0.0000 </r>
       </set>
       <set comment="band 8">
        <r>  0.0000  0.0000  0.1457  0.0376  0.0000  0.0000  0.0000  0.0000  0.0000 </r>
        <r>  0.0000  0.0000  0.0361  0.1472  0.0000  0.0000  0.0000  0.0000  0.0000 </r>
       </set>
       <set comment="band 9">
        <r>  0.0000  0.0000  0.0275  0.0388  0.0000  0.0000  0.0000  0.0000  0.0000 </r>
        <r>  0.0000  0.0000  0.0354  0.0309  0.0000  0.0000  0.0000  0.0000  0.0000 </r>
       </set>
       <set comment="band 10">
        <r>  0.0000  0.0000  0.0388  0.0275  0.0000  0.0000  0.0000  0.0000  0.0000 </r>
        <r>  0.0000  0.0000  0.0309  0.0354  0.0000  0.0000  0.0000  0.0000  0.0000 </r>
       </set>
       <set comment="band 11">
        <r>  0.0000  0.0000  0.0000  0.0000  0.0000  0.0000  0.0000  0.0000  0.0000 </r>
        <r>  0.0000  0.0000  0.0000  0.0000  0.0000  0.0000  0.0000  0.0000  0.0000 </r>
       </set>
       <set comment="band 12">
        <r>  0.0817  0.1932  0.0000  0.0000  0.0000  0.0000  0.0000  0.0000  0.0000 </r>
        <r>  0.0819  0.1908  0.0000  0.0000  0.0000  0.0000  0.0000  0.0000  0.0000 </r>
       </set>
      </set>
      <set comment="kpoint 70">
       <set comment="band 1">
        <r>  0.1954  0.0406  0.0000  0.0000  0.0000  0.0000  0.0000  0.0000  0.0000 </r>
        <r>  0.1954  0.0406  0.0000  0.0000  0.0000  0.0000  0.0000  0.0000  0.0000 </r>
       </set>
       <set comment="band 2">
        <r>  0.1909  0.0506  0.0000  0.0000  0.0000  0.0000  0.0000  0.0000  0.0000 </r>
        <r>  0.1909  0.0506  0.0000  0.0000  0.0000  0.0000  0.0000  0.0000  0.0000 </r>
       </set>
       <set comment="band 3">
        <r>  0.0000  0.0000  0.0986  0.0989  0.0000  0.0000  0.0000  0.0000  0.0000 </r>
        <r>  0.0000  0.0000  0.0990  0.0986  0.0000  0.0000  0.0000  0.0000  0.0000 </r>
       </set>
       <set comment="band 4">
        <r>  0.0000  0.0000  0.0989  0.0986  0.0000  0.0000  0.0000  0.0000  0.0000 </r>
        <r>  0.0000  0.0000  0.0986  0.0990  0.0000  0.0000  0.0000  0.0000  0.0000 </r>
       </set>
       <set comment="band 5">
        <r>  0.0527  0.0375  0.0000  0.0000  0.0000  0.0000  0.0000  0.0000  0.0000 </r>
        <r>  0.0527  0.0375  0.0000  0.0000  0.0000  0.0000  0.0000  0.0000  0.0000 </r>
       </set>
       <set comment="band 6">
        <r>  0.0505  0.0329  0.0000  0.0000  0.0000  0.0000  0.0000  0.0000  0.0000 </r>
        <r>  0.0505  0.0329  0.0000  0.0000  0.0000  0.0000  0.0000  0.0000  0.0000 </r>
       </set>
       <set comment="band 7">
        <r>  0.0000  0.0000  0.1216  0.0762  0.0000  0.0000  0.0000  0.0000  0.0000 </r>
        <r>  0.0000  0.0000  0.0603  0.1376  0.0000  0.0000  0.0000  0.0000  0.0000 </r>
       </set>
       <set comment="band 8">
        <r>  0.0000  0.0000  0.0762  0.1216  0.0000  0.0000  0.0000  0.0000  0.0000 </r>
        <r>  0.0000  0.0000  0.1376  0.0603  0.0000  0.0000  0.0000  0.0000  0.0000 </r>
       </set>
       <set comment="band 9">
        <r>  0.0000  0.0000  0.0276  0.0250  0.0000  0.0000  0.0000  0.0000  0.0000 </r>
        <r>  0.0000  0.0000  0.0153  0.0373  0.0000  0.0000  0.0000  0.0000  0.0000 </r>
       </set>
       <set comment="band 10">
        <r>  0.0000  0.0000  0.0250  0.0276  0.0000  0.0000  0.0000  0.0000  0.0000 </r>
        <r>  0.0000  0.0000  0.0372  0.0154  0.0000  0.0000  0.0000  0.0000  0.0000 </r>
       </set>
       <set comment="band 11">
        <r>  0.0000  0.0000  0.0000  0.0000  0.0000  0.0000  0.0000  0.0000  0.0000 </r>
        <r>  0.0000  0.0000  0.0000  0.0000  0.0000  0.0000  0.0000  0.0000  0.0000 </r>
       </set>
       <set comment="band 12">
        <r>  0.0745  0.1972  0.0000  0.0000  0.0000  0.0000  0.0000  0.0000  0.0000 </r>
        <r>  0.0739  0.1986  0.0000  0.0000  0.0000  0.0000  0.0000  0.0000  0.0000 </r>
       </set>
      </set>
      <set comment="kpoint 71">
       <set comment="band 1">
        <r>  0.1944  0.0430  0.0000  0.0000  0.0000  0.0000  0.0000  0.0000  0.0000 </r>
        <r>  0.1944  0.0430  0.0000  0.0000  0.0000  0.0000  0.0000  0.0000  0.0000 </r>
       </set>
       <set comment="band 2">
        <r>  0.1921  0.0480  0.0000  0.0000  0.0000  0.0000  0.0000  0.0000  0.0000 </r>
        <r>  0.1921  0.0480  0.0000  0.0000  0.0000  0.0000  0.0000  0.0000  0.0000 </r>
       </set>
       <set comment="band 3">
        <r>  0.0000  0.0000  0.0988  0.0988  0.0000  0.0000  0.0000  0.0000  0.0000 </r>
        <r>  0.0000  0.0000  0.0988  0.0988  0.0000  0.0000  0.0000  0.0000  0.0000 </r>
       </set>
       <set comment="band 4">
        <r>  0.0000  0.0000  0.0988  0.0988  0.0000  0.0000  0.0000  0.0000  0.0000 </r>
        <r>  0.0000  0.0000  0.0988  0.0988  0.0000  0.0000  0.0000  0.0000  0.0000 </r>
       </set>
       <set comment="band 5">
        <r>  0.0523  0.0361  0.0000  0.0000  0.0000  0.0000  0.0000  0.0000  0.0000 </r>
        <r>  0.0523  0.0361  0.0000  0.0000  0.0000  0.0000  0.0000  0.0000  0.0000 </r>
       </set>
       <set comment="band 6">
        <r>  0.0512  0.0338  0.0000  0.0000  0.0000  0.0000  0.0000  0.0000  0.0000 </r>
        <r>  0.0512  0.0338  0.0000  0.0000  0.0000  0.0000  0.0000  0.0000  0.0000 </r>
       </set>
       <set comment="band 7">
        <r>  0.0000  0.0000  0.1332  0.0885  0.0000  0.0000  0.0000  0.0000  0.0000 </r>
        <r>  0.0000  0.0000  0.1091  0.1126  0.0000  0.0000  0.0000  0.0000  0.0000 </r>
       </set>
       <set comment="band 8">
        <r>  0.0000  0.0000  0.0885  0.1332  0.0000  0.0000  0.0000  0.0000  0.0000 </r>
        <r>  0.0000  0.0000  0.1126  0.1092  0.0000  0.0000  0.0000  0.0000  0.0000 </r>
       </set>
       <set comment="band 9">
        <r>  0.0000  0.0000  0.0109  0.0184  0.0000  0.0000  0.0000  0.0000  0.0000 </r>
        <r>  0.0000  0.0000  0.0116  0.0177  0.0000  0.0000  0.0000  0.0000  0.0000 </r>
       </set>
       <set comment="band 10">
        <r>  0.0000  0.0000  0.0183  0.0109  0.0000  0.0000  0.0000  0.0000  0.0000 </r>
        <r>  0.0000  0.0000  0.0176  0.0116  0.0000  0.0000  0.0000  0.0000  0.0000 </r>
       </set>
       <set comment="band 11">
        <r>  0.0000  0.0001  0.0000  0.0000  0.0000  0.0000  0.0000  0.0000  0.0000 </r>
        <r>  0.0000  0.0001  0.0000  0.0000  0.0000  0.0000  0.0000  0.0000  0.0000 </r>
       </set>
       <set comment="band 12">
        <r>  0.0062  0.0205  0.0000  0.0000  0.0000  0.0000  0.0000  0.0000  0.0000 </r>
        <r>  0.0066  0.0190  0.0000  0.0000  0.0000  0.0000  0.0000  0.0000  0.0000 </r>
       </set>
      </set>
      <set comment="kpoint 72">
       <set comment="band 1">
        <r>  0.1957  0.0449  0.0000  0.0000  0.0000  0.0000  0.0000  0.0000  0.0000 </r>
        <r>  0.1908  0.0461  0.0000  0.0000  0.0000  0.0000  0.0000  0.0000  0.0000 </r>
       </set>
       <set comment="band 2">
        <r>  0.1908  0.0461  0.0000  0.0000  0.0000  0.0000  0.0000  0.0000  0.0000 </r>
        <r>  0.1957  0.0449  0.0000  0.0000  0.0000  0.0000  0.0000  0.0000  0.0000 </r>
       </set>
       <set comment="band 3">
        <r>  0.0000  0.0000  0.0988  0.0988  0.0000  0.0000  0.0000  0.0000  0.0000 </r>
        <r>  0.0000  0.0000  0.0988  0.0988  0.0000  0.0000  0.0000  0.0000  0.0000 </r>
       </set>
       <set comment="band 4">
        <r>  0.0000  0.0000  0.0988  0.0988  0.0000  0.0000  0.0000  0.0000  0.0000 </r>
        <r>  0.0000  0.0000  0.0988  0.0988  0.0000  0.0000  0.0000  0.0000  0.0000 </r>
       </set>
       <set comment="band 5">
        <r>  0.0554  0.0324  0.0000  0.0000  0.0000  0.0000  0.0000  0.0000  0.0000 </r>
        <r>  0.0481  0.0374  0.0000  0.0000  0.0000  0.0000  0.0000  0.0000  0.0000 </r>
       </set>
       <set comment="band 6">
        <r>  0.0481  0.0374  0.0000  0.0000  0.0000  0.0000  0.0000  0.0000  0.0000 </r>
        <r>  0.0554  0.0324  0.0000  0.0000  0.0000  0.0000  0.0000  0.0000  0.0000 </r>
       </set>
       <set comment="band 7">
        <r>  0.0000  0.0000  0.0947  0.1451  0.0000  0.0000  0.0000  0.0000  0.0000 </r>
        <r>  0.0000  0.0000  0.1451  0.0947  0.0000  0.0000  0.0000  0.0000  0.0000 </r>
       </set>
       <set comment="band 8">
        <r>  0.0000  0.0000  0.1451  0.0947  0.0000  0.0000  0.0000  0.0000  0.0000 </r>
        <r>  0.0000  0.0000  0.0947  0.1452  0.0000  0.0000  0.0000  0.0000  0.0000 </r>
       </set>
       <set comment="band 9">
        <r>  0.0000  0.0000  0.0096  0.0017  0.0000  0.0000  0.0000  0.0000  0.0000 </r>
        <r>  0.0000  0.0000  0.0017  0.0096  0.0000  0.0000  0.0000  0.0000  0.0000 </r>
       </set>
       <set comment="band 10">
        <r>  0.0000  0.0000  0.0017  0.0096  0.0000  0.0000  0.0000  0.0000  0.0000 </r>
        <r>  0.0000  0.0000  0.0096  0.0017  0.0000  0.0000  0.0000  0.0000  0.0000 </r>
       </set>
       <set comment="band 11">
        <r>  0.0000  0.0000  0.0000  0.0000  0.0000  0.0000  0.0000  0.0000  0.0000 </r>
        <r>  0.0000  0.0002  0.0000  0.0000  0.0000  0.0000  0.0000  0.0000  0.0000 </r>
       </set>
       <set comment="band 12">
        <r>  0.0000  0.0000  0.0000  0.0000  0.0000  0.0000  0.0000  0.0000  0.0000 </r>
        <r>  0.0000  0.0000  0.0000  0.0000  0.0000  0.0000  0.0000  0.0000  0.0000 </r>
       </set>
      </set>
      <set comment="kpoint 73">
       <set comment="band 1">
        <r>  0.1942  0.0453  0.0000  0.0000  0.0000  0.0000  0.0000  0.0000  0.0000 </r>
        <r>  0.1924  0.0457  0.0000  0.0000  0.0000  0.0000  0.0000  0.0000  0.0000 </r>
       </set>
       <set comment="band 2">
        <r>  0.1924  0.0457  0.0000  0.0000  0.0000  0.0000  0.0000  0.0000  0.0000 </r>
        <r>  0.1942  0.0453  0.0000  0.0000  0.0000  0.0000  0.0000  0.0000  0.0000 </r>
       </set>
       <set comment="band 3">
        <r>  0.0000  0.0000  0.0989  0.0987  0.0000  0.0000  0.0000  0.0000  0.0000 </r>
        <r>  0.0000  0.0000  0.0987  0.0989  0.0000  0.0000  0.0000  0.0000  0.0000 </r>
       </set>
       <set comment="band 4">
        <r>  0.0000  0.0000  0.0987  0.0989  0.0000  0.0000  0.0000  0.0000  0.0000 </r>
        <r>  0.0000  0.0000  0.0989  0.0987  0.0000  0.0000  0.0000  0.0000  0.0000 </r>
       </set>
       <set comment="band 5">
        <r>  0.0491  0.0367  0.0000  0.0000  0.0000  0.0000  0.0000  0.0000  0.0000 </r>
        <r>  0.0544  0.0331  0.0000  0.0000  0.0000  0.0000  0.0000  0.0000  0.0000 </r>
       </set>
       <set comment="band 6">
        <r>  0.0544  0.0331  0.0000  0.0000  0.0000  0.0000  0.0000  0.0000  0.0000 </r>
        <r>  0.0491  0.0367  0.0000  0.0000  0.0000  0.0000  0.0000  0.0000  0.0000 </r>
       </set>
       <set comment="band 7">
        <r>  0.0000  0.0000  0.1262  0.1136  0.0000  0.0000  0.0000  0.0000  0.0000 </r>
        <r>  0.0000  0.0000  0.1136  0.1262  0.0000  0.0000  0.0000  0.0000  0.0000 </r>
       </set>
       <set comment="band 8">
        <r>  0.0000  0.0000  0.1136  0.1262  0.0000  0.0000  0.0000  0.0000  0.0000 </r>
        <r>  0.0000  0.0000  0.1262  0.1136  0.0000  0.0000  0.0000  0.0000  0.0000 </r>
       </set>
       <set comment="band 9">
        <r>  0.0000  0.0000  0.0017  0.0096  0.0000  0.0000  0.0000  0.0000  0.0000 </r>
        <r>  0.0000  0.0000  0.0096  0.0017  0.0000  0.0000  0.0000  0.0000  0.0000 </r>
       </set>
       <set comment="band 10">
        <r>  0.0000  0.0000  0.0096  0.0017  0.0000  0.0000  0.0000  0.0000  0.0000 </r>
        <r>  0.0000  0.0000  0.0017  0.0096  0.0000  0.0000  0.0000  0.0000  0.0000 </r>
       </set>
       <set comment="band 11">
        <r>  0.0001  0.0002  0.0000  0.0000  0.0000  0.0000  0.0000  0.0000  0.0000 </r>
        <r>  0.0000  0.0002  0.0000  0.0000  0.0000  0.0000  0.0000  0.0000  0.0000 </r>
       </set>
       <set comment="band 12">
        <r>  0.0042  0.0133  0.0000  0.0000  0.0000  0.0000  0.0000  0.0000  0.0000 </r>
        <r>  0.0036  0.0150  0.0000  0.0000  0.0000  0.0000  0.0000  0.0000  0.0000 </r>
       </set>
      </set>
      <set comment="kpoint 74">
       <set comment="band 1">
        <r>  0.1946  0.0451  0.0000  0.0000  0.0000  0.0000  0.0000  0.0000  0.0000 </r>
        <r>  0.1919  0.0458  0.0000  0.0000  0.0000  0.0000  0.0000  0.0000  0.0000 </r>
       </set>
       <set comment="band 2">
        <r>  0.1919  0.0458  0.0000  0.0000  0.0000  0.0000  0.0000  0.0000  0.0000 </r>
        <r>  0.1946  0.0451  0.0000  0.0000  0.0000  0.0000  0.0000  0.0000  0.0000 </r>
       </set>
       <set comment="band 3">
        <r>  0.0000  0.0001  0.0986  0.0987  0.0000  0.0000  0.0000  0.0000  0.0000 </r>
        <r>  0.0000  0.0001  0.0987  0.0986  0.0000  0.0000  0.0000  0.0000  0.0000 </r>
       </set>
       <set comment="band 4">
        <r>  0.0000  0.0001  0.0987  0.0986  0.0000  0.0000  0.0000  0.0000  0.0000 </r>
        <r>  0.0000  0.0001  0.0986  0.0987  0.0000  0.0000  0.0000  0.0000  0.0000 </r>
       </set>
       <set comment="band 5">
        <r>  0.0591  0.0298  0.0001  0.0002  0.0000  0.0000  0.0000  0.0000  0.0000 </r>
        <r>  0.0442  0.0399  0.0001  0.0001  0.0000  0.0000  0.0000  0.0000  0.0000 </r>
       </set>
       <set comment="band 6">
        <r>  0.0442  0.0399  0.0001  0.0001  0.0000  0.0000  0.0000  0.0000  0.0000 </r>
        <r>  0.0591  0.0298  0.0001  0.0002  0.0000  0.0000  0.0000  0.0000  0.0000 </r>
       </set>
       <set comment="band 7">
        <r>  0.0002  0.0001  0.0501  0.1895  0.0000  0.0000  0.0000  0.0000  0.0000 </r>
        <r>  0.0001  0.0002  0.1878  0.0506  0.0000  0.0000  0.0000  0.0000  0.0000 </r>
       </set>
       <set comment="band 8">
        <r>  0.0001  0.0002  0.1878  0.0506  0.0000  0.0000  0.0000  0.0000  0.0000 </r>
        <r>  0.0002  0.0001  0.0502  0.1895  0.0000  0.0000  0.0000  0.0000  0.0000 </r>
       </set>
       <set comment="band 9">
        <r>  0.0003  0.0005  0.0043  0.0065  0.0000  0.0000  0.0000  0.0000  0.0000 </r>
        <r>  0.0002  0.0011  0.0085  0.0033  0.0000  0.0000  0.0000  0.0000  0.0000 </r>
       </set>
       <set comment="band 10">
        <r>  0.0002  0.0011  0.0085  0.0033  0.0000  0.0000  0.0000  0.0000  0.0000 </r>
        <r>  0.0003  0.0006  0.0043  0.0065  0.0000  0.0000  0.0000  0.0000  0.0000 </r>
       </set>
       <set comment="band 11">
        <r>  0.0000  0.0000  0.0003  0.0001  0.0000  0.0000  0.0000  0.0000  0.0000 </r>
        <r>  0.0000  0.0000  0.0001  0.0006  0.0000  0.0000  0.0000  0.0000  0.0000 </r>
       </set>
       <set comment="band 12">
        <r>  0.0004  0.0001  0.0001  0.0005  0.0000  0.0000  0.0000  0.0000  0.0000 </r>
        <r>  0.0000  0.0014  0.0003  0.0001  0.0000  0.0000  0.0000  0.0000  0.0000 </r>
       </set>
      </set>
      <set comment="kpoint 75">
       <set comment="band 1">
        <r>  0.1956  0.0449  0.0001  0.0000  0.0000  0.0000  0.0000  0.0000  0.0000 </r>
        <r>  0.1911  0.0459  0.0001  0.0000  0.0000  0.0000  0.0000  0.0000  0.0000 </r>
       </set>
       <set comment="band 2">
        <r>  0.1911  0.0459  0.0001  0.0000  0.0000  0.0000  0.0000  0.0000  0.0000 </r>
        <r>  0.1956  0.0449  0.0001  0.0000  0.0000  0.0000  0.0000  0.0000  0.0000 </r>
       </set>
       <set comment="band 3">
        <r>  0.0001  0.0003  0.0983  0.0983  0.0000  0.0000  0.0000  0.0000  0.0000 </r>
        <r>  0.0001  0.0003  0.0983  0.0983  0.0000  0.0000  0.0000  0.0000  0.0000 </r>
       </set>
       <set comment="band 4">
        <r>  0.0001  0.0003  0.0983  0.0983  0.0000  0.0000  0.0000  0.0000  0.0000 </r>
        <r>  0.0001  0.0003  0.0983  0.0983  0.0000  0.0000  0.0000  0.0000  0.0000 </r>
       </set>
       <set comment="band 5">
        <r>  0.0518  0.0344  0.0004  0.0006  0.0000  0.0000  0.0000  0.0000  0.0000 </r>
        <r>  0.0512  0.0349  0.0004  0.0006  0.0000  0.0000  0.0000  0.0000  0.0000 </r>
       </set>
       <set comment="band 6">
        <r>  0.0512  0.0349  0.0004  0.0006  0.0000  0.0000  0.0000  0.0000  0.0000 </r>
        <r>  0.0518  0.0344  0.0004  0.0006  0.0000  0.0000  0.0000  0.0000  0.0000 </r>
       </set>
       <set comment="band 7">
        <r>  0.0003  0.0009  0.1755  0.0586  0.0000  0.0000  0.0000  0.0000  0.0000 </r>
        <r>  0.0008  0.0003  0.0566  0.1817  0.0000  0.0000  0.0000  0.0000  0.0000 </r>
       </set>
       <set comment="band 8">
        <r>  0.0008  0.0003  0.0567  0.1818  0.0000  0.0000  0.0000  0.0000  0.0000 </r>
        <r>  0.0003  0.0009  0.1755  0.0585  0.0000  0.0000  0.0000  0.0000  0.0000 </r>
       </set>
       <set comment="band 9">
        <r>  0.0009  0.0025  0.0077  0.0034  0.0000  0.0000  0.0000  0.0000  0.0000 </r>
        <r>  0.0007  0.0033  0.0099  0.0026  0.0000  0.0000  0.0000  0.0000  0.0000 </r>
       </set>
       <set comment="band 10">
        <r>  0.0007  0.0032  0.0100  0.0026  0.0000  0.0000  0.0000  0.0000  0.0000 </r>
        <r>  0.0009  0.0026  0.0077  0.0034  0.0000  0.0000  0.0000  0.0000  0.0000 </r>
       </set>
       <set comment="band 11">
        <r>  0.0000  0.0033  0.0014  0.0000  0.0000  0.0000  0.0000  0.0000  0.0000 </r>
        <r>  0.0010  0.0000  0.0000  0.0022  0.0000  0.0000  0.0000  0.0000  0.0000 </r>
       </set>
       <set comment="band 12">
        <r>  0.0004  0.0014  0.0000  0.0025  0.0000  0.0000  0.0000  0.0000  0.0000 </r>
        <r>  0.0004  0.0012  0.0014  0.0000  0.0000  0.0000  0.0000  0.0000  0.0000 </r>
       </set>
      </set>
      <set comment="kpoint 76">
       <set comment="band 1">
        <r>  0.1934  0.0453  0.0001  0.0000  0.0000  0.0000  0.0000  0.0000  0.0000 </r>
        <r>  0.1934  0.0453  0.0001  0.0000  0.0000  0.0000  0.0000  0.0000  0.0000 </r>
       </set>
       <set comment="band 2">
        <r>  0.1934  0.0453  0.0001  0.0000  0.0000  0.0000  0.0000  0.0000  0.0000 </r>
        <r>  0.1934  0.0453  0.0001  0.0000  0.0000  0.0000  0.0000  0.0000  0.0000 </r>
       </set>
       <set comment="band 3">
        <r>  0.0003  0.0007  0.0977  0.0977  0.0000  0.0000  0.0000  0.0000  0.0000 </r>
        <r>  0.0003  0.0007  0.0977  0.0977  0.0000  0.0000  0.0000  0.0000  0.0000 </r>
       </set>
       <set comment="band 4">
        <r>  0.0003  0.0007  0.0977  0.0977  0.0000  0.0000  0.0000  0.0000  0.0000 </r>
        <r>  0.0003  0.0007  0.0977  0.0977  0.0000  0.0000  0.0000  0.0000  0.0000 </r>
       </set>
       <set comment="band 5">
        <r>  0.0512  0.0344  0.0009  0.0013  0.0000  0.0000  0.0000  0.0000  0.0000 </r>
        <r>  0.0512  0.0344  0.0009  0.0013  0.0000  0.0000  0.0000  0.0000  0.0000 </r>
       </set>
       <set comment="band 6">
        <r>  0.0512  0.0344  0.0009  0.0013  0.0000  0.0000  0.0000  0.0000  0.0000 </r>
        <r>  0.0512  0.0344  0.0009  0.0013  0.0000  0.0000  0.0000  0.0000  0.0000 </r>
       </set>
       <set comment="band 7">
        <r>  0.0014  0.0012  0.0902  0.1419  0.0000  0.0000  0.0000  0.0000  0.0000 </r>
        <r>  0.0010  0.0018  0.1314  0.0975  0.0000  0.0000  0.0000  0.0000  0.0000 </r>
       </set>
       <set comment="band 8">
        <r>  0.0010  0.0018  0.1314  0.0975  0.0000  0.0000  0.0000  0.0000  0.0000 </r>
        <r>  0.0014  0.0013  0.0903  0.1419  0.0000  0.0000  0.0000  0.0000  0.0000 </r>
       </set>
       <set comment="band 9">
        <r>  0.0022  0.0028  0.0066  0.0015  0.0000  0.0000  0.0000  0.0000  0.0000 </r>
        <r>  0.0007  0.0083  0.0197  0.0005  0.0000  0.0000  0.0000  0.0000  0.0000 </r>
       </set>
       <set comment="band 10">
        <r>  0.0007  0.0083  0.0197  0.0005  0.0000  0.0000  0.0000  0.0000  0.0000 </r>
        <r>  0.0022  0.0028  0.0066  0.0015  0.0000  0.0000  0.0000  0.0000  0.0000 </r>
       </set>
       <set comment="band 11">
        <r>  0.0034  0.0012  0.0002  0.0032  0.0000  0.0000  0.0000  0.0000  0.0000 </r>
        <r>  0.0003  0.0116  0.0026  0.0004  0.0000  0.0000  0.0000  0.0000  0.0000 </r>
       </set>
       <set comment="band 12">
        <r>  0.0000  0.0111  0.0028  0.0004  0.0000  0.0000  0.0000  0.0000  0.0000 </r>
        <r>  0.0032  0.0001  0.0003  0.0033  0.0000  0.0000  0.0000  0.0000  0.0000 </r>
       </set>
      </set>
      <set comment="kpoint 77">
       <set comment="band 1">
        <r>  0.1943  0.0450  0.0002  0.0000  0.0000  0.0000  0.0000  0.0000  0.0000 </r>
        <r>  0.1928  0.0453  0.0002  0.0000  0.0000  0.0000  0.0000  0.0000  0.0000 </r>
       </set>
       <set comment="band 2">
        <r>  0.1928  0.0453  0.0002  0.0000  0.0000  0.0000  0.0000  0.0000  0.0000 </r>
        <r>  0.1943  0.0450  0.0002  0.0000  0.0000  0.0000  0.0000  0.0000  0.0000 </r>
       </set>
       <set comment="band 3">
        <r>  0.0005  0.0013  0.0969  0.0968  0.0000  0.0000  0.0000  0.0000  0.0000 </r>
        <r>  0.0005  0.0013  0.0969  0.0968  0.0000  0.0000  0.0000  0.0000  0.0000 </r>
       </set>
       <set comment="band 4">
        <r>  0.0005  0.0013  0.0969  0.0968  0.0000  0.0000  0.0000  0.0000  0.0000 </r>
        <r>  0.0005  0.0013  0.0969  0.0968  0.0000  0.0000  0.0000  0.0000  0.0000 </r>
       </set>
       <set comment="band 5">
        <r>  0.0509  0.0339  0.0016  0.0022  0.0000  0.0000  0.0000  0.0000  0.0000 </r>
        <r>  0.0507  0.0341  0.0016  0.0022  0.0000  0.0000  0.0000  0.0000  0.0000 </r>
       </set>
       <set comment="band 6">
        <r>  0.0507  0.0341  0.0016  0.0022  0.0000  0.0000  0.0000  0.0000  0.0000 </r>
        <r>  0.0509  0.0339  0.0016  0.0022  0.0000  0.0000  0.0000  0.0000  0.0000 </r>
       </set>
       <set comment="band 7">
        <r>  0.0042  0.0004  0.0140  0.2199  0.0000  0.0000  0.0000  0.0000  0.0000 </r>
        <r>  0.0003  0.0055  0.1926  0.0159  0.0000  0.0000  0.0000  0.0000  0.0000 </r>
       </set>
       <set comment="band 8">
        <r>  0.0003  0.0057  0.1925  0.0160  0.0000  0.0000  0.0000  0.0000  0.0000 </r>
        <r>  0.0043  0.0004  0.0140  0.2198  0.0000  0.0000  0.0000  0.0000  0.0000 </r>
       </set>
       <set comment="band 9">
        <r>  0.0003  0.0147  0.0361  0.0000  0.0000  0.0000  0.0000  0.0000  0.0000 </r>
        <r>  0.0036  0.0013  0.0032  0.0000  0.0000  0.0000  0.0000  0.0000  0.0000 </r>
       </set>
       <set comment="band 10">
        <r>  0.0036  0.0013  0.0032  0.0000  0.0000  0.0000  0.0000  0.0000  0.0000 </r>
        <r>  0.0003  0.0146  0.0361  0.0000  0.0000  0.0000  0.0000  0.0000  0.0000 </r>
       </set>
       <set comment="band 11">
        <r>  0.0018  0.0268  0.0034  0.0009  0.0000  0.0000  0.0000  0.0000  0.0000 </r>
        <r>  0.0080  0.0061  0.0009  0.0032  0.0000  0.0000  0.0000  0.0000  0.0000 </r>
       </set>
       <set comment="band 12">
        <r>  0.0074  0.0068  0.0009  0.0033  0.0000  0.0000  0.0000  0.0000  0.0000 </r>
        <r>  0.0020  0.0254  0.0035  0.0009  0.0000  0.0000  0.0000  0.0000  0.0000 </r>
       </set>
      </set>
      <set comment="kpoint 78">
       <set comment="band 1">
        <r>  0.1964  0.0444  0.0004  0.0000  0.0000  0.0000  0.0000  0.0000  0.0000 </r>
        <r>  0.1911  0.0456  0.0004  0.0000  0.0000  0.0000  0.0000  0.0000  0.0000 </r>
       </set>
       <set comment="band 2">
        <r>  0.1911  0.0456  0.0004  0.0000  0.0000  0.0000  0.0000  0.0000  0.0000 </r>
        <r>  0.1964  0.0444  0.0004  0.0000  0.0000  0.0000  0.0000  0.0000  0.0000 </r>
       </set>
       <set comment="band 3">
        <r>  0.0007  0.0019  0.0958  0.0959  0.0000  0.0000  0.0000  0.0000  0.0000 </r>
        <r>  0.0007  0.0019  0.0959  0.0958  0.0000  0.0000  0.0000  0.0000  0.0000 </r>
       </set>
       <set comment="band 4">
        <r>  0.0007  0.0019  0.0959  0.0958  0.0000  0.0000  0.0000  0.0000  0.0000 </r>
        <r>  0.0007  0.0019  0.0958  0.0959  0.0000  0.0000  0.0000  0.0000  0.0000 </r>
       </set>
       <set comment="band 5">
        <r>  0.0510  0.0331  0.0024  0.0035  0.0000  0.0000  0.0000  0.0000  0.0000 </r>
        <r>  0.0495  0.0340  0.0025  0.0034  0.0000  0.0000  0.0000  0.0000  0.0000 </r>
       </set>
       <set comment="band 6">
        <r>  0.0495  0.0340  0.0025  0.0034  0.0000  0.0000  0.0000  0.0000  0.0000 </r>
        <r>  0.0510  0.0331  0.0024  0.0035  0.0000  0.0000  0.0000  0.0000  0.0000 </r>
       </set>
       <set comment="band 7">
        <r>  0.0050  0.0030  0.0569  0.1594  0.0000  0.0000  0.0000  0.0000  0.0000 </r>
        <r>  0.0022  0.0070  0.1310  0.0692  0.0000  0.0000  0.0000  0.0000  0.0000 </r>
       </set>
       <set comment="band 8">
        <r>  0.0022  0.0070  0.1310  0.0691  0.0000  0.0000  0.0000  0.0000  0.0000 </r>
        <r>  0.0050  0.0031  0.0569  0.1594  0.0000  0.0000  0.0000  0.0000  0.0000 </r>
       </set>
       <set comment="band 9">
        <r>  0.0041  0.0013  0.0036  0.0015  0.0000  0.0000  0.0000  0.0000  0.0000 </r>
        <r>  0.0003  0.0185  0.0521  0.0001  0.0000  0.0000  0.0000  0.0000  0.0000 </r>
       </set>
       <set comment="band 10">
        <r>  0.0003  0.0185  0.0521  0.0001  0.0000  0.0000  0.0000  0.0000  0.0000 </r>
        <r>  0.0041  0.0013  0.0036  0.0015  0.0000  0.0000  0.0000  0.0000  0.0000 </r>
       </set>
       <set comment="band 11">
        <r>  0.0152  0.0024  0.0003  0.0038  0.0000  0.0000  0.0000  0.0000  0.0000 </r>
        <r>  0.0007  0.0509  0.0055  0.0002  0.0000  0.0000  0.0000  0.0000  0.0000 </r>
       </set>
       <set comment="band 12">
        <r>  0.0014  0.0431  0.0058  0.0001  0.0000  0.0000  0.0000  0.0000  0.0000 </r>
        <r>  0.0131  0.0052  0.0003  0.0043  0.0000  0.0000  0.0000  0.0000  0.0000 </r>
       </set>
      </set>
      <set comment="kpoint 79">
       <set comment="band 1">
        <r>  0.1972  0.0440  0.0005  0.0000  0.0000  0.0000  0.0000  0.0000  0.0000 </r>
        <r>  0.1907  0.0455  0.0005  0.0000  0.0000  0.0000  0.0000  0.0000  0.0000 </r>
       </set>
       <set comment="band 2">
        <r>  0.1907  0.0455  0.0005  0.0000  0.0000  0.0000  0.0000  0.0000  0.0000 </r>
        <r>  0.1972  0.0440  0.0005  0.0000  0.0000  0.0000  0.0000  0.0000  0.0000 </r>
       </set>
       <set comment="band 3">
        <r>  0.0010  0.0027  0.0947  0.0946  0.0000  0.0000  0.0000  0.0000  0.0000 </r>
        <r>  0.0010  0.0027  0.0947  0.0947  0.0000  0.0000  0.0000  0.0000  0.0000 </r>
       </set>
       <set comment="band 4">
        <r>  0.0010  0.0027  0.0947  0.0947  0.0000  0.0000  0.0000  0.0000  0.0000 </r>
        <r>  0.0010  0.0027  0.0947  0.0946  0.0000  0.0000  0.0000  0.0000  0.0000 </r>
       </set>
       <set comment="band 5">
        <r>  0.0498  0.0328  0.0033  0.0048  0.0000  0.0000  0.0000  0.0000  0.0000 </r>
        <r>  0.0494  0.0331  0.0034  0.0047  0.0000  0.0000  0.0000  0.0000  0.0000 </r>
       </set>
       <set comment="band 6">
        <r>  0.0494  0.0331  0.0034  0.0047  0.0000  0.0000  0.0000  0.0000  0.0000 </r>
        <r>  0.0498  0.0328  0.0033  0.0048  0.0000  0.0000  0.0000  0.0000  0.0000 </r>
       </set>
       <set comment="band 7">
        <r>  0.0079  0.0036  0.0402  0.1661  0.0000  0.0000  0.0000  0.0000  0.0000 </r>
        <r>  0.0025  0.0113  0.1278  0.0522  0.0000  0.0000  0.0000  0.0000  0.0000 </r>
       </set>
       <set comment="band 8">
        <r>  0.0025  0.0114  0.1277  0.0522  0.0000  0.0000  0.0000  0.0000  0.0000 </r>
        <r>  0.0079  0.0036  0.0402  0.1660  0.0000  0.0000  0.0000  0.0000  0.0000 </r>
       </set>
       <set comment="band 9">
        <r>  0.0041  0.0012  0.0039  0.0064  0.0000  0.0000  0.0000  0.0000  0.0000 </r>
        <r>  0.0002  0.0211  0.0694  0.0004  0.0000  0.0000  0.0000  0.0000  0.0000 </r>
       </set>
       <set comment="band 10">
        <r>  0.0002  0.0211  0.0694  0.0004  0.0000  0.0000  0.0000  0.0000  0.0000 </r>
        <r>  0.0041  0.0012  0.0039  0.0064  0.0000  0.0000  0.0000  0.0000  0.0000 </r>
       </set>
       <set comment="band 11">
        <r>  0.0080  0.0498  0.0045  0.0013  0.0000  0.0000  0.0000  0.0000  0.0000 </r>
        <r>  0.0147  0.0268  0.0025  0.0021  0.0000  0.0000  0.0000  0.0000  0.0000 </r>
       </set>
       <set comment="band 12">
        <r>  0.0114  0.0365  0.0022  0.0028  0.0000  0.0000  0.0000  0.0000  0.0000 </r>
        <r>  0.0109  0.0385  0.0048  0.0008  0.0000  0.0000  0.0000  0.0000  0.0000 </r>
       </set>
      </set>
      <set comment="kpoint 80">
       <set comment="band 1">
        <r>  0.1939  0.0446  0.0007  0.0000  0.0000  0.0000  0.0000  0.0000  0.0000 </r>
        <r>  0.1944  0.0445  0.0007  0.0000  0.0000  0.0000  0.0000  0.0000  0.0000 </r>
       </set>
       <set comment="band 2">
        <r>  0.1944  0.0445  0.0007  0.0000  0.0000  0.0000  0.0000  0.0000  0.0000 </r>
        <r>  0.1939  0.0446  0.0007  0.0000  0.0000  0.0000  0.0000  0.0000  0.0000 </r>
       </set>
       <set comment="band 3">
        <r>  0.0013  0.0036  0.0936  0.0931  0.0000  0.0000  0.0000  0.0000  0.0000 </r>
        <r>  0.0013  0.0036  0.0931  0.0936  0.0000  0.0000  0.0000  0.0000  0.0000 </r>
       </set>
       <set comment="band 4">
        <r>  0.0013  0.0036  0.0931  0.0936  0.0000  0.0000  0.0000  0.0000  0.0000 </r>
        <r>  0.0013  0.0036  0.0936  0.0931  0.0000  0.0000  0.0000  0.0000  0.0000 </r>
       </set>
       <set comment="band 5">
        <r>  0.0493  0.0322  0.0044  0.0063  0.0000  0.0000  0.0000  0.0000  0.0000 </r>
        <r>  0.0486  0.0326  0.0044  0.0062  0.0000  0.0000  0.0000  0.0000  0.0000 </r>
       </set>
       <set comment="band 6">
        <r>  0.0486  0.0326  0.0044  0.0062  0.0000  0.0000  0.0000  0.0000  0.0000 </r>
        <r>  0.0493  0.0322  0.0044  0.0063  0.0000  0.0000  0.0000  0.0000  0.0000 </r>
       </set>
       <set comment="band 7">
        <r>  0.0079  0.0086  0.0632  0.1186  0.0000  0.0000  0.0000  0.0000  0.0000 </r>
        <r>  0.0058  0.0117  0.0857  0.0874  0.0000  0.0000  0.0000  0.0000  0.0000 </r>
       </set>
       <set comment="band 8">
        <r>  0.0058  0.0118  0.0856  0.0874  0.0000  0.0000  0.0000  0.0000  0.0000 </r>
        <r>  0.0079  0.0086  0.0632  0.1186  0.0000  0.0000  0.0000  0.0000  0.0000 </r>
       </set>
       <set comment="band 9">
        <r>  0.0023  0.0100  0.0377  0.0082  0.0000  0.0000  0.0000  0.0000  0.0000 </r>
        <r>  0.0016  0.0139  0.0522  0.0059  0.0000  0.0000  0.0000  0.0000  0.0000 </r>
       </set>
       <set comment="band 10">
        <r>  0.0017  0.0139  0.0522  0.0059  0.0000  0.0000  0.0000  0.0000  0.0000 </r>
        <r>  0.0023  0.0100  0.0377  0.0082  0.0000  0.0000  0.0000  0.0000  0.0000 </r>
       </set>
       <set comment="band 11">
        <r>  0.0059  0.0756  0.0067  0.0006  0.0000  0.0000  0.0000  0.0000  0.0000 </r>
        <r>  0.0223  0.0199  0.0018  0.0022  0.0000  0.0000  0.0000  0.0000  0.0000 </r>
       </set>
       <set comment="band 12">
        <r>  0.0221  0.0191  0.0018  0.0023  0.0000  0.0000  0.0000  0.0000  0.0000 </r>
        <r>  0.0058  0.0740  0.0067  0.0006  0.0000  0.0000  0.0000  0.0000  0.0000 </r>
       </set>
      </set>
      <set comment="kpoint 81">
       <set comment="band 1">
        <r>  0.2072  0.0413  0.0009  0.0000  0.0000  0.0000  0.0000  0.0000  0.0000 </r>
        <r>  0.1816  0.0471  0.0010  0.0000  0.0000  0.0000  0.0000  0.0000  0.0000 </r>
       </set>
       <set comment="band 2">
        <r>  0.1816  0.0471  0.0010  0.0000  0.0000  0.0000  0.0000  0.0000  0.0000 </r>
        <r>  0.2072  0.0413  0.0009  0.0000  0.0000  0.0000  0.0000  0.0000  0.0000 </r>
       </set>
       <set comment="band 3">
        <r>  0.0015  0.0046  0.0920  0.0919  0.0000  0.0000  0.0000  0.0000  0.0000 </r>
        <r>  0.0015  0.0046  0.0919  0.0921  0.0000  0.0000  0.0000  0.0000  0.0000 </r>
       </set>
       <set comment="band 4">
        <r>  0.0015  0.0046  0.0919  0.0921  0.0000  0.0000  0.0000  0.0000  0.0000 </r>
        <r>  0.0015  0.0046  0.0920  0.0919  0.0000  0.0000  0.0000  0.0000  0.0000 </r>
       </set>
       <set comment="band 5">
        <r>  0.0487  0.0314  0.0054  0.0080  0.0000  0.0000  0.0000  0.0000  0.0000 </r>
        <r>  0.0478  0.0320  0.0055  0.0078  0.0000  0.0000  0.0000  0.0000  0.0000 </r>
       </set>
       <set comment="band 6">
        <r>  0.0478  0.0320  0.0055  0.0078  0.0000  0.0000  0.0000  0.0000  0.0000 </r>
        <r>  0.0487  0.0314  0.0054  0.0080  0.0000  0.0000  0.0000  0.0000  0.0000 </r>
       </set>
       <set comment="band 7">
        <r>  0.0165  0.0006  0.0034  0.1887  0.0000  0.0000  0.0000  0.0000  0.0000 </r>
        <r>  0.0004  0.0248  0.1287  0.0050  0.0000  0.0000  0.0000  0.0000  0.0000 </r>
       </set>
       <set comment="band 8">
        <r>  0.0004  0.0249  0.1287  0.0050  0.0000  0.0000  0.0000  0.0000  0.0000 </r>
        <r>  0.0166  0.0007  0.0034  0.1886  0.0000  0.0000  0.0000  0.0000  0.0000 </r>
       </set>
       <set comment="band 9">
        <r>  0.0031  0.0023  0.0095  0.0201  0.0000  0.0000  0.0000  0.0000  0.0000 </r>
        <r>  0.0003  0.0228  0.0948  0.0020  0.0000  0.0000  0.0000  0.0000  0.0000 </r>
       </set>
       <set comment="band 10">
        <r>  0.0003  0.0228  0.0948  0.0020  0.0000  0.0000  0.0000  0.0000  0.0000 </r>
        <r>  0.0031  0.0023  0.0095  0.0201  0.0000  0.0000  0.0000  0.0000  0.0000 </r>
       </set>
       <set comment="band 11">
        <r>  0.0086  0.0825  0.0073  0.0006  0.0000  0.0000  0.0000  0.0000  0.0000 </r>
        <r>  0.0245  0.0291  0.0025  0.0017  0.0000  0.0000  0.0000  0.0000  0.0000 </r>
       </set>
       <set comment="band 12">
        <r>  0.0241  0.0285  0.0026  0.0017  0.0000  0.0000  0.0000  0.0000  0.0000 </r>
        <r>  0.0085  0.0813  0.0074  0.0006  0.0000  0.0000  0.0000  0.0000  0.0000 </r>
       </set>
      </set>
      <set comment="kpoint 82">
       <set comment="band 1">
        <r>  0.1958  0.0437  0.0012  0.0000  0.0000  0.0000  0.0000  0.0000  0.0000 </r>
        <r>  0.1937  0.0441  0.0012  0.0000  0.0000  0.0000  0.0000  0.0000  0.0000 </r>
       </set>
       <set comment="band 2">
        <r>  0.1937  0.0441  0.0012  0.0000  0.0000  0.0000  0.0000  0.0000  0.0000 </r>
        <r>  0.1958  0.0437  0.0012  0.0000  0.0000  0.0000  0.0000  0.0000  0.0000 </r>
       </set>
       <set comment="band 3">
        <r>  0.0018  0.0057  0.0905  0.0905  0.0000  0.0000  0.0000  0.0000  0.0000 </r>
        <r>  0.0018  0.0057  0.0904  0.0906  0.0000  0.0000  0.0000  0.0000  0.0000 </r>
       </set>
       <set comment="band 4">
        <r>  0.0018  0.0057  0.0904  0.0906  0.0000  0.0000  0.0000  0.0000  0.0000 </r>
        <r>  0.0018  0.0057  0.0905  0.0905  0.0000  0.0000  0.0000  0.0000  0.0000 </r>
       </set>
       <set comment="band 5">
        <r>  0.0474  0.0310  0.0066  0.0097  0.0000  0.0000  0.0000  0.0000  0.0000 </r>
        <r>  0.0474  0.0310  0.0066  0.0096  0.0000  0.0000  0.0000  0.0000  0.0000 </r>
       </set>
       <set comment="band 6">
        <r>  0.0474  0.0310  0.0066  0.0096  0.0000  0.0000  0.0000  0.0000  0.0000 </r>
        <r>  0.0474  0.0310  0.0066  0.0097  0.0000  0.0000  0.0000  0.0000  0.0000 </r>
       </set>
       <set comment="band 7">
        <r>  0.0073  0.0195  0.0755  0.0657  0.0000  0.0000  0.0000  0.0000  0.0000 </r>
        <r>  0.0129  0.0110  0.0426  0.1163  0.0000  0.0000  0.0000  0.0000  0.0000 </r>
       </set>
       <set comment="band 8">
        <r>  0.0129  0.0110  0.0426  0.1162  0.0000  0.0000  0.0000  0.0000  0.0000 </r>
        <r>  0.0073  0.0196  0.0755  0.0656  0.0000  0.0000  0.0000  0.0000  0.0000 </r>
       </set>
       <set comment="band 9">
        <r>  0.0016  0.0123  0.0550  0.0157  0.0000  0.0000  0.0000  0.0000  0.0000 </r>
        <r>  0.0014  0.0136  0.0607  0.0142  0.0000  0.0000  0.0000  0.0000  0.0000 </r>
       </set>
       <set comment="band 10">
        <r>  0.0014  0.0136  0.0607  0.0142  0.0000  0.0000  0.0000  0.0000  0.0000 </r>
        <r>  0.0016  0.0124  0.0550  0.0157  0.0000  0.0000  0.0000  0.0000  0.0000 </r>
       </set>
       <set comment="band 11">
        <r>  0.0283  0.0288  0.0026  0.0013  0.0000  0.0000  0.0000  0.0000  0.0000 </r>
        <r>  0.0085  0.0954  0.0087  0.0004  0.0000  0.0000  0.0000  0.0000  0.0000 </r>
       </set>
       <set comment="band 12">
        <r>  0.0089  0.0936  0.0087  0.0003  0.0000  0.0000  0.0000  0.0000  0.0000 </r>
        <r>  0.0283  0.0302  0.0025  0.0015  0.0000  0.0000  0.0000  0.0000  0.0000 </r>
       </set>
      </set>
      <set comment="kpoint 83">
       <set comment="band 1">
        <r>  0.2075  0.0407  0.0014  0.0000  0.0000  0.0000  0.0000  0.0000  0.0000 </r>
        <r>  0.1827  0.0463  0.0016  0.0000  0.0000  0.0000  0.0000  0.0000  0.0000 </r>
       </set>
       <set comment="band 2">
        <r>  0.1827  0.0463  0.0016  0.0000  0.0000  0.0000  0.0000  0.0000  0.0000 </r>
        <r>  0.2075  0.0407  0.0014  0.0000  0.0000  0.0000  0.0000  0.0000  0.0000 </r>
       </set>
       <set comment="band 3">
        <r>  0.0020  0.0068  0.0891  0.0889  0.0000  0.0000  0.0000  0.0000  0.0000 </r>
        <r>  0.0021  0.0068  0.0887  0.0893  0.0000  0.0000  0.0000  0.0000  0.0000 </r>
       </set>
       <set comment="band 4">
        <r>  0.0021  0.0068  0.0887  0.0893  0.0000  0.0000  0.0000  0.0000  0.0000 </r>
        <r>  0.0020  0.0068  0.0891  0.0889  0.0000  0.0000  0.0000  0.0000  0.0000 </r>
       </set>
       <set comment="band 5">
        <r>  0.0435  0.0323  0.0083  0.0107  0.0000  0.0000  0.0000  0.0000  0.0000 </r>
        <r>  0.0496  0.0283  0.0073  0.0122  0.0000  0.0000  0.0000  0.0000  0.0000 </r>
       </set>
       <set comment="band 6">
        <r>  0.0496  0.0283  0.0073  0.0122  0.0000  0.0000  0.0000  0.0000  0.0000 </r>
        <r>  0.0435  0.0323  0.0083  0.0107  0.0000  0.0000  0.0000  0.0000  0.0000 </r>
       </set>
       <set comment="band 7">
        <r>  0.0201  0.0046  0.0139  0.1490  0.0000  0.0000  0.0000  0.0000  0.0000 </r>
        <r>  0.0030  0.0304  0.0928  0.0223  0.0000  0.0000  0.0000  0.0000  0.0000 </r>
       </set>
       <set comment="band 8">
        <r>  0.0030  0.0305  0.0928  0.0223  0.0000  0.0000  0.0000  0.0000  0.0000 </r>
        <r>  0.0202  0.0045  0.0139  0.1490  0.0000  0.0000  0.0000  0.0000  0.0000 </r>
       </set>
       <set comment="band 9">
        <r>  0.0019  0.0070  0.0323  0.0272  0.0000  0.0000  0.0000  0.0000  0.0000 </r>
        <r>  0.0007  0.0200  0.0923  0.0095  0.0000  0.0000  0.0000  0.0000  0.0000 </r>
       </set>
       <set comment="band 10">
        <r>  0.0007  0.0200  0.0923  0.0095  0.0000  0.0000  0.0000  0.0000  0.0000 </r>
        <r>  0.0019  0.0070  0.0323  0.0272  0.0000  0.0000  0.0000  0.0000  0.0000 </r>
       </set>
       <set comment="band 11">
        <r>  0.0387  0.0035  0.0003  0.0013  0.0000  0.0000  0.0000  0.0000  0.0000 </r>
        <r>  0.0011  0.1299  0.0127  0.0000  0.0000  0.0000  0.0000  0.0000  0.0000 </r>
       </set>
       <set comment="band 12">
        <r>  0.0011  0.1317  0.0125  0.0000  0.0000  0.0000  0.0000  0.0000  0.0000 </r>
        <r>  0.0392  0.0038  0.0003  0.0013  0.0000  0.0000  0.0000  0.0000  0.0000 </r>
       </set>
      </set>
      <set comment="kpoint 84">
       <set comment="band 1">
        <r>  0.2832  0.0237  0.0010  0.0000  0.0000  0.0000  0.0000  0.0000  0.0000 </r>
        <r>  0.1076  0.0624  0.0026  0.0000  0.0000  0.0000  0.0000  0.0000  0.0000 </r>
       </set>
       <set comment="band 2">
        <r>  0.1076  0.0624  0.0026  0.0000  0.0000  0.0000  0.0000  0.0000  0.0000 </r>
        <r>  0.2832  0.0237  0.0010  0.0000  0.0000  0.0000  0.0000  0.0000  0.0000 </r>
       </set>
       <set comment="band 3">
        <r>  0.0022  0.0083  0.0909  0.0840  0.0000  0.0000  0.0000  0.0000  0.0000 </r>
        <r>  0.0024  0.0076  0.0837  0.0913  0.0000  0.0000  0.0000  0.0000  0.0000 </r>
       </set>
       <set comment="band 4">
        <r>  0.0024  0.0076  0.0837  0.0913  0.0000  0.0000  0.0000  0.0000  0.0000 </r>
        <r>  0.0022  0.0083  0.0909  0.0840  0.0000  0.0000  0.0000  0.0000  0.0000 </r>
       </set>
       <set comment="band 5">
        <r>  0.0631  0.0184  0.0055  0.0183  0.0000  0.0000  0.0000  0.0000  0.0000 </r>
        <r>  0.0284  0.0408  0.0123  0.0083  0.0000  0.0000  0.0000  0.0000  0.0000 </r>
       </set>
       <set comment="band 6">
        <r>  0.0284  0.0408  0.0123  0.0083  0.0000  0.0000  0.0000  0.0000  0.0000 </r>
        <r>  0.0631  0.0184  0.0055  0.0183  0.0000  0.0000  0.0000  0.0000  0.0000 </r>
       </set>
       <set comment="band 7">
        <r>  0.0112  0.0222  0.0553  0.0701  0.0000  0.0000  0.0000  0.0000  0.0000 </r>
        <r>  0.0147  0.0169  0.0423  0.0918  0.0000  0.0000  0.0000  0.0000  0.0000 </r>
       </set>
       <set comment="band 8">
        <r>  0.0147  0.0169  0.0423  0.0918  0.0000  0.0000  0.0000  0.0000  0.0000 </r>
        <r>  0.0112  0.0221  0.0553  0.0701  0.0000  0.0000  0.0000  0.0000  0.0000 </r>
       </set>
       <set comment="band 9">
        <r>  0.0018  0.0045  0.0209  0.0359  0.0000  0.0000  0.0000  0.0000  0.0000 </r>
        <r>  0.0003  0.0236  0.1102  0.0068  0.0000  0.0000  0.0000  0.0000  0.0000 </r>
       </set>
       <set comment="band 10">
        <r>  0.0003  0.0236  0.1102  0.0068  0.0000  0.0000  0.0000  0.0000  0.0000 </r>
        <r>  0.0018  0.0045  0.0209  0.0359  0.0000  0.0000  0.0000  0.0000  0.0000 </r>
       </set>
       <set comment="band 11">
        <r>  0.0104  0.1061  0.0113  0.0003  0.0000  0.0000  0.0000  0.0000  0.0000 </r>
        <r>  0.0317  0.0343  0.0037  0.0008  0.0000  0.0000  0.0000  0.0000  0.0000 </r>
       </set>
       <set comment="band 12">
        <r>  0.0319  0.0357  0.0036  0.0007  0.0000  0.0000  0.0000  0.0000  0.0000 </r>
        <r>  0.0106  0.1074  0.0112  0.0002  0.0000  0.0000  0.0000  0.0000  0.0000 </r>
       </set>
      </set>
      <set comment="kpoint 85">
       <set comment="band 1">
        <r>  0.2788  0.0246  0.0012  0.0000  0.0000  0.0000  0.0000  0.0000  0.0000 </r>
        <r>  0.1129  0.0607  0.0030  0.0000  0.0000  0.0000  0.0000  0.0000  0.0000 </r>
       </set>
       <set comment="band 2">
        <r>  0.1129  0.0607  0.0030  0.0000  0.0000  0.0000  0.0000  0.0000  0.0000 </r>
        <r>  0.2788  0.0246  0.0012  0.0000  0.0000  0.0000  0.0000  0.0000  0.0000 </r>
       </set>
       <set comment="band 3">
        <r>  0.0025  0.0091  0.0846  0.0873  0.0000  0.0000  0.0000  0.0000  0.0000 </r>
        <r>  0.0024  0.0093  0.0867  0.0852  0.0000  0.0000  0.0000  0.0000  0.0000 </r>
       </set>
       <set comment="band 4">
        <r>  0.0024  0.0093  0.0867  0.0852  0.0000  0.0000  0.0000  0.0000  0.0000 </r>
        <r>  0.0025  0.0091  0.0846  0.0873  0.0000  0.0000  0.0000  0.0000  0.0000 </r>
       </set>
       <set comment="band 5">
        <r>  0.0468  0.0276  0.0096  0.0158  0.0000  0.0000  0.0000  0.0000  0.0000 </r>
        <r>  0.0429  0.0301  0.0105  0.0145  0.0000  0.0000  0.0000  0.0000  0.0000 </r>
       </set>
       <set comment="band 6">
        <r>  0.0429  0.0301  0.0105  0.0145  0.0000  0.0000  0.0000  0.0000  0.0000 </r>
        <r>  0.0468  0.0276  0.0096  0.0158  0.0000  0.0000  0.0000  0.0000  0.0000 </r>
       </set>
       <set comment="band 7">
        <r>  0.0258  0.0043  0.0091  0.1381  0.0000  0.0000  0.0000  0.0000  0.0000 </r>
        <r>  0.0029  0.0384  0.0811  0.0154  0.0000  0.0000  0.0000  0.0000  0.0000 </r>
       </set>
       <set comment="band 8">
        <r>  0.0029  0.0386  0.0810  0.0155  0.0000  0.0000  0.0000  0.0000  0.0000 </r>
        <r>  0.0259  0.0042  0.0091  0.1380  0.0000  0.0000  0.0000  0.0000  0.0000 </r>
       </set>
       <set comment="band 9">
        <r>  0.0010  0.0134  0.0619  0.0260  0.0000  0.0000  0.0000  0.0000  0.0000 </r>
        <r>  0.0008  0.0160  0.0741  0.0217  0.0000  0.0000  0.0000  0.0000  0.0000 </r>
       </set>
       <set comment="band 10">
        <r>  0.0008  0.0160  0.0741  0.0217  0.0000  0.0000  0.0000  0.0000  0.0000 </r>
        <r>  0.0010  0.0133  0.0619  0.0260  0.0000  0.0000  0.0000  0.0000  0.0000 </r>
       </set>
       <set comment="band 11">
        <r>  0.0136  0.1004  0.0116  0.0003  0.0000  0.0000  0.0000  0.0000  0.0000 </r>
        <r>  0.0302  0.0451  0.0052  0.0006  0.0000  0.0000  0.0000  0.0000  0.0000 </r>
       </set>
       <set comment="band 12">
        <r>  0.0318  0.0448  0.0052  0.0004  0.0000  0.0000  0.0000  0.0000  0.0000 </r>
        <r>  0.0135  0.1066  0.0111  0.0003  0.0000  0.0000  0.0000  0.0000  0.0000 </r>
       </set>
      </set>
      <set comment="kpoint 86">
       <set comment="band 1">
        <r>  0.2139  0.0383  0.0023  0.0000  0.0000  0.0000  0.0000  0.0000  0.0000 </r>
        <r>  0.1786  0.0459  0.0028  0.0000  0.0000  0.0000  0.0000  0.0000  0.0000 </r>
       </set>
       <set comment="band 2">
        <r>  0.1786  0.0459  0.0028  0.0000  0.0000  0.0000  0.0000  0.0000  0.0000 </r>
        <r>  0.2139  0.0383  0.0023  0.0000  0.0000  0.0000  0.0000  0.0000  0.0000 </r>
       </set>
       <set comment="band 3">
        <r>  0.0026  0.0105  0.0841  0.0847  0.0000  0.0000  0.0000  0.0000  0.0000 </r>
        <r>  0.0026  0.0105  0.0839  0.0849  0.0000  0.0000  0.0000  0.0000  0.0000 </r>
       </set>
       <set comment="band 4">
        <r>  0.0026  0.0105  0.0839  0.0849  0.0000  0.0000  0.0000  0.0000  0.0000 </r>
        <r>  0.0026  0.0105  0.0841  0.0847  0.0000  0.0000  0.0000  0.0000  0.0000 </r>
       </set>
       <set comment="band 5">
        <r>  0.0453  0.0273  0.0108  0.0176  0.0000  0.0000  0.0000  0.0000  0.0000 </r>
        <r>  0.0425  0.0290  0.0115  0.0165  0.0000  0.0000  0.0000  0.0000  0.0000 </r>
       </set>
       <set comment="band 6">
        <r>  0.0425  0.0290  0.0115  0.0165  0.0000  0.0000  0.0000  0.0000  0.0000 </r>
        <r>  0.0453  0.0273  0.0108  0.0176  0.0000  0.0000  0.0000  0.0000  0.0000 </r>
       </set>
       <set comment="band 7">
        <r>  0.0249  0.0092  0.0169  0.1169  0.0000  0.0000  0.0000  0.0000  0.0000 </r>
        <r>  0.0063  0.0366  0.0673  0.0294  0.0000  0.0000  0.0000  0.0000  0.0000 </r>
       </set>
       <set comment="band 8">
        <r>  0.0063  0.0365  0.0673  0.0294  0.0000  0.0000  0.0000  0.0000  0.0000 </r>
        <r>  0.0249  0.0092  0.0169  0.1169  0.0000  0.0000  0.0000  0.0000  0.0000 </r>
       </set>
       <set comment="band 9">
        <r>  0.0005  0.0212  0.0960  0.0161  0.0000  0.0000  0.0000  0.0000  0.0000 </r>
        <r>  0.0011  0.0096  0.0433  0.0358  0.0000  0.0000  0.0000  0.0000  0.0000 </r>
       </set>
       <set comment="band 10">
        <r>  0.0011  0.0096  0.0433  0.0358  0.0000  0.0000  0.0000  0.0000  0.0000 </r>
        <r>  0.0005  0.0212  0.0960  0.0161  0.0000  0.0000  0.0000  0.0000  0.0000 </r>
       </set>
       <set comment="band 11">
        <r>  0.0056  0.1304  0.0167  0.0001  0.0000  0.0000  0.0000  0.0000  0.0000 </r>
        <r>  0.0395  0.0185  0.0024  0.0006  0.0000  0.0000  0.0000  0.0000  0.0000 </r>
       </set>
       <set comment="band 12">
        <r>  0.0397  0.0184  0.0024  0.0006  0.0000  0.0000  0.0000  0.0000  0.0000 </r>
        <r>  0.0056  0.1310  0.0167  0.0001  0.0000  0.0000  0.0000  0.0000  0.0000 </r>
       </set>
      </set>
      <set comment="kpoint 87">
       <set comment="band 1">
        <r>  0.2146  0.0378  0.0027  0.0000  0.0000  0.0000  0.0000  0.0000  0.0000 </r>
        <r>  0.1788  0.0453  0.0032  0.0000  0.0000  0.0000  0.0000  0.0000  0.0000 </r>
       </set>
       <set comment="band 2">
        <r>  0.1788  0.0453  0.0032  0.0000  0.0000  0.0000  0.0000  0.0000  0.0000 </r>
        <r>  0.2146  0.0378  0.0027  0.0000  0.0000  0.0000  0.0000  0.0000  0.0000 </r>
       </set>
       <set comment="band 3">
        <r>  0.0027  0.0118  0.0821  0.0836  0.0000  0.0000  0.0000  0.0000  0.0000 </r>
        <r>  0.0027  0.0118  0.0825  0.0832  0.0000  0.0000  0.0000  0.0000  0.0000 </r>
       </set>
       <set comment="band 4">
        <r>  0.0027  0.0118  0.0825  0.0832  0.0000  0.0000  0.0000  0.0000  0.0000 </r>
        <r>  0.0027  0.0118  0.0821  0.0836  0.0000  0.0000  0.0000  0.0000  0.0000 </r>
       </set>
       <set comment="band 5">
        <r>  0.0427  0.0276  0.0122  0.0188  0.0000  0.0000  0.0000  0.0000  0.0000 </r>
        <r>  0.0433  0.0272  0.0121  0.0191  0.0000  0.0000  0.0000  0.0000  0.0000 </r>
       </set>
       <set comment="band 6">
        <r>  0.0433  0.0272  0.0121  0.0191  0.0000  0.0000  0.0000  0.0000  0.0000 </r>
        <r>  0.0427  0.0276  0.0122  0.0188  0.0000  0.0000  0.0000  0.0000  0.0000 </r>
       </set>
       <set comment="band 7">
        <r>  0.0177  0.0231  0.0376  0.0735  0.0000  0.0000  0.0000  0.0000  0.0000 </r>
        <r>  0.0160  0.0255  0.0417  0.0664  0.0000  0.0000  0.0000  0.0000  0.0000 </r>
       </set>
       <set comment="band 8">
        <r>  0.0160  0.0255  0.0417  0.0664  0.0000  0.0000  0.0000  0.0000  0.0000 </r>
        <r>  0.0177  0.0230  0.0376  0.0735  0.0000  0.0000  0.0000  0.0000  0.0000 </r>
       </set>
       <set comment="band 9">
        <r>  0.0009  0.0094  0.0409  0.0395  0.0000  0.0000  0.0000  0.0000  0.0000 </r>
        <r>  0.0004  0.0231  0.1006  0.0161  0.0000  0.0000  0.0000  0.0000  0.0000 </r>
       </set>
       <set comment="band 10">
        <r>  0.0004  0.0231  0.1006  0.0161  0.0000  0.0000  0.0000  0.0000  0.0000 </r>
        <r>  0.0009  0.0094  0.0409  0.0395  0.0000  0.0000  0.0000  0.0000  0.0000 </r>
       </set>
       <set comment="band 11">
        <r>  0.0397  0.0215  0.0030  0.0005  0.0000  0.0000  0.0000  0.0000  0.0000 </r>
        <r>  0.0066  0.1302  0.0184  0.0001  0.0000  0.0000  0.0000  0.0000  0.0000 </r>
       </set>
       <set comment="band 12">
        <r>  0.0065  0.1298  0.0186  0.0001  0.0000  0.0000  0.0000  0.0000  0.0000 </r>
        <r>  0.0396  0.0213  0.0031  0.0005  0.0000  0.0000  0.0000  0.0000  0.0000 </r>
       </set>
      </set>
      <set comment="kpoint 88">
       <set comment="band 1">
        <r>  0.2142  0.0374  0.0031  0.0000  0.0000  0.0000  0.0000  0.0000  0.0000 </r>
        <r>  0.1801  0.0445  0.0037  0.0000  0.0000  0.0000  0.0000  0.0000  0.0000 </r>
       </set>
       <set comment="band 2">
        <r>  0.1801  0.0445  0.0037  0.0000  0.0000  0.0000  0.0000  0.0000  0.0000 </r>
        <r>  0.2142  0.0374  0.0031  0.0000  0.0000  0.0000  0.0000  0.0000  0.0000 </r>
       </set>
       <set comment="band 3">
        <r>  0.0027  0.0132  0.0809  0.0819  0.0000  0.0000  0.0000  0.0000  0.0000 </r>
        <r>  0.0027  0.0131  0.0804  0.0823  0.0000  0.0000  0.0000  0.0000  0.0000 </r>
       </set>
       <set comment="band 4">
        <r>  0.0027  0.0131  0.0804  0.0823  0.0000  0.0000  0.0000  0.0000  0.0000 </r>
        <r>  0.0027  0.0132  0.0809  0.0819  0.0000  0.0000  0.0000  0.0000  0.0000 </r>
       </set>
       <set comment="band 5">
        <r>  0.0421  0.0267  0.0131  0.0209  0.0000  0.0000  0.0000  0.0000  0.0000 </r>
        <r>  0.0420  0.0268  0.0132  0.0208  0.0000  0.0000  0.0000  0.0000  0.0000 </r>
       </set>
       <set comment="band 6">
        <r>  0.0420  0.0268  0.0132  0.0208  0.0000  0.0000  0.0000  0.0000  0.0000 </r>
        <r>  0.0421  0.0267  0.0131  0.0209  0.0000  0.0000  0.0000  0.0000  0.0000 </r>
       </set>
       <set comment="band 7">
        <r>  0.0265  0.0136  0.0201  0.0984  0.0000  0.0000  0.0000  0.0000  0.0000 </r>
        <r>  0.0096  0.0375  0.0553  0.0357  0.0000  0.0000  0.0000  0.0000  0.0000 </r>
       </set>
       <set comment="band 8">
        <r>  0.0096  0.0375  0.0553  0.0357  0.0000  0.0000  0.0000  0.0000  0.0000 </r>
        <r>  0.0265  0.0136  0.0201  0.0984  0.0000  0.0000  0.0000  0.0000  0.0000 </r>
       </set>
       <set comment="band 9">
        <r>  0.0005  0.0203  0.0842  0.0240  0.0000  0.0000  0.0000  0.0000  0.0000 </r>
        <r>  0.0007  0.0141  0.0584  0.0346  0.0000  0.0000  0.0000  0.0000  0.0000 </r>
       </set>
       <set comment="band 10">
        <r>  0.0007  0.0141  0.0584  0.0346  0.0000  0.0000  0.0000  0.0000  0.0000 </r>
        <r>  0.0005  0.0203  0.0842  0.0240  0.0000  0.0000  0.0000  0.0000  0.0000 </r>
       </set>
       <set comment="band 11">
        <r>  0.0222  0.0812  0.0127  0.0002  0.0000  0.0000  0.0000  0.0000  0.0000 </r>
        <r>  0.0250  0.0722  0.0113  0.0002  0.0000  0.0000  0.0000  0.0000  0.0000 </r>
       </set>
       <set comment="band 12">
        <r>  0.0249  0.0724  0.0113  0.0002  0.0000  0.0000  0.0000  0.0000  0.0000 </r>
        <r>  0.0222  0.0811  0.0128  0.0002  0.0000  0.0000  0.0000  0.0000  0.0000 </r>
       </set>
      </set>
      <set comment="kpoint 89">
       <set comment="band 1">
        <r>  0.2051  0.0388  0.0038  0.0000  0.0000  0.0000  0.0000  0.0000  0.0000 </r>
        <r>  0.1902  0.0418  0.0041  0.0000  0.0000  0.0000  0.0000  0.0000  0.0000 </r>
       </set>
       <set comment="band 2">
        <r>  0.1902  0.0418  0.0041  0.0000  0.0000  0.0000  0.0000  0.0000  0.0000 </r>
        <r>  0.2051  0.0388  0.0038  0.0000  0.0000  0.0000  0.0000  0.0000  0.0000 </r>
       </set>
       <set comment="band 3">
        <r>  0.0028  0.0144  0.0784  0.0814  0.0000  0.0000  0.0000  0.0000  0.0000 </r>
        <r>  0.0027  0.0146  0.0795  0.0802  0.0000  0.0000  0.0000  0.0000  0.0000 </r>
       </set>
       <set comment="band 4">
        <r>  0.0027  0.0146  0.0795  0.0802  0.0000  0.0000  0.0000  0.0000  0.0000 </r>
        <r>  0.0028  0.0144  0.0784  0.0814  0.0000  0.0000  0.0000  0.0000  0.0000 </r>
       </set>
       <set comment="band 5">
        <r>  0.0406  0.0263  0.0142  0.0225  0.0000  0.0000  0.0000  0.0000  0.0000 </r>
        <r>  0.0416  0.0257  0.0139  0.0231  0.0000  0.0000  0.0000  0.0000  0.0000 </r>
       </set>
       <set comment="band 6">
        <r>  0.0416  0.0257  0.0139  0.0231  0.0000  0.0000  0.0000  0.0000  0.0000 </r>
        <r>  0.0406  0.0263  0.0142  0.0225  0.0000  0.0000  0.0000  0.0000  0.0000 </r>
       </set>
       <set comment="band 7">
        <r>  0.0379  0.0006  0.0008  0.1274  0.0000  0.0000  0.0000  0.0000  0.0000 </r>
        <r>  0.0004  0.0527  0.0713  0.0014  0.0000  0.0000  0.0000  0.0000  0.0000 </r>
       </set>
       <set comment="band 8">
        <r>  0.0004  0.0527  0.0713  0.0014  0.0000  0.0000  0.0000  0.0000  0.0000 </r>
        <r>  0.0379  0.0006  0.0008  0.1273  0.0000  0.0000  0.0000  0.0000  0.0000 </r>
       </set>
       <set comment="band 9">
        <r>  0.0004  0.0199  0.0781  0.0278  0.0000  0.0000  0.0000  0.0000  0.0000 </r>
        <r>  0.0005  0.0165  0.0650  0.0334  0.0000  0.0000  0.0000  0.0000  0.0000 </r>
       </set>
       <set comment="band 10">
        <r>  0.0005  0.0165  0.0650  0.0334  0.0000  0.0000  0.0000  0.0000  0.0000 </r>
        <r>  0.0004  0.0199  0.0781  0.0278  0.0000  0.0000  0.0000  0.0000  0.0000 </r>
       </set>
       <set comment="band 11">
        <r>  0.0117  0.1166  0.0202  0.0001  0.0000  0.0000  0.0000  0.0000  0.0000 </r>
        <r>  0.0362  0.0377  0.0065  0.0003  0.0000  0.0000  0.0000  0.0000  0.0000 </r>
       </set>
       <set comment="band 12">
        <r>  0.0362  0.0375  0.0066  0.0003  0.0000  0.0000  0.0000  0.0000  0.0000 </r>
        <r>  0.0117  0.1166  0.0203  0.0001  0.0000  0.0000  0.0000  0.0000  0.0000 </r>
       </set>
      </set>
      <set comment="kpoint 90">
       <set comment="band 1">
        <r>  0.2583  0.0276  0.0031  0.0001  0.0000  0.0000  0.0000  0.0000  0.0000 </r>
        <r>  0.1379  0.0517  0.0058  0.0000  0.0000  0.0000  0.0000  0.0000  0.0000 </r>
       </set>
       <set comment="band 2">
        <r>  0.1379  0.0517  0.0058  0.0000  0.0000  0.0000  0.0000  0.0000  0.0000 </r>
        <r>  0.2583  0.0276  0.0031  0.0001  0.0000  0.0000  0.0000  0.0000  0.0000 </r>
       </set>
       <set comment="band 3">
        <r>  0.0027  0.0158  0.0769  0.0800  0.0000  0.0000  0.0000  0.0000  0.0000 </r>
        <r>  0.0027  0.0160  0.0777  0.0792  0.0000  0.0000  0.0000  0.0000  0.0000 </r>
       </set>
       <set comment="band 4">
        <r>  0.0027  0.0160  0.0777  0.0792  0.0000  0.0000  0.0000  0.0000  0.0000 </r>
        <r>  0.0027  0.0158  0.0769  0.0800  0.0000  0.0000  0.0000  0.0000  0.0000 </r>
       </set>
       <set comment="band 5">
        <r>  0.0407  0.0250  0.0147  0.0250  0.0000  0.0000  0.0000  0.0000  0.0000 </r>
        <r>  0.0396  0.0257  0.0151  0.0243  0.0000  0.0000  0.0000  0.0000  0.0000 </r>
       </set>
       <set comment="band 6">
        <r>  0.0396  0.0257  0.0151  0.0243  0.0000  0.0000  0.0000  0.0000  0.0000 </r>
        <r>  0.0407  0.0250  0.0147  0.0250  0.0000  0.0000  0.0000  0.0000  0.0000 </r>
       </set>
       <set comment="band 7">
        <r>  0.0030  0.0512  0.0643  0.0092  0.0000  0.0000  0.0000  0.0000  0.0000 </r>
        <r>  0.0376  0.0041  0.0052  0.1146  0.0000  0.0000  0.0000  0.0000  0.0000 </r>
       </set>
       <set comment="band 8">
        <r>  0.0376  0.0041  0.0052  0.1147  0.0000  0.0000  0.0000  0.0000  0.0000 </r>
        <r>  0.0030  0.0511  0.0643  0.0092  0.0000  0.0000  0.0000  0.0000  0.0000 </r>
       </set>
       <set comment="band 9">
        <r>  0.0001  0.0347  0.1287  0.0063  0.0000  0.0000  0.0000  0.0000  0.0000 </r>
        <r>  0.0008  0.0038  0.0143  0.0571  0.0000  0.0000  0.0000  0.0000  0.0000 </r>
       </set>
       <set comment="band 10">
        <r>  0.0008  0.0038  0.0143  0.0571  0.0000  0.0000  0.0000  0.0000  0.0000 </r>
        <r>  0.0001  0.0347  0.1287  0.0063  0.0000  0.0000  0.0000  0.0000  0.0000 </r>
       </set>
       <set comment="band 11">
        <r>  0.0189  0.0946  0.0181  0.0001  0.0000  0.0000  0.0000  0.0000  0.0000 </r>
        <r>  0.0297  0.0602  0.0116  0.0002  0.0000  0.0000  0.0000  0.0000  0.0000 </r>
       </set>
       <set comment="band 12">
        <r>  0.0296  0.0601  0.0116  0.0002  0.0000  0.0000  0.0000  0.0000  0.0000 </r>
        <r>  0.0189  0.0941  0.0182  0.0001  0.0000  0.0000  0.0000  0.0000  0.0000 </r>
       </set>
      </set>
      <set comment="kpoint 91">
       <set comment="band 1">
        <r>  0.3686  0.0056  0.0007  0.0001  0.0000  0.0000  0.0000  0.0000  0.0000 </r>
        <r>  0.0287  0.0722  0.0094  0.0000  0.0000  0.0000  0.0000  0.0000  0.0000 </r>
       </set>
       <set comment="band 2">
        <r>  0.0287  0.0722  0.0094  0.0000  0.0000  0.0000  0.0000  0.0000  0.0000 </r>
        <r>  0.3686  0.0056  0.0007  0.0001  0.0000  0.0000  0.0000  0.0000  0.0000 </r>
       </set>
       <set comment="band 3">
        <r>  0.0021  0.0212  0.0921  0.0613  0.0000  0.0000  0.0000  0.0000  0.0000 </r>
        <r>  0.0032  0.0136  0.0591  0.0956  0.0000  0.0000  0.0000  0.0000  0.0000 </r>
       </set>
       <set comment="band 4">
        <r>  0.0032  0.0136  0.0591  0.0956  0.0000  0.0000  0.0000  0.0000  0.0000 </r>
        <r>  0.0021  0.0212  0.0921  0.0613  0.0000  0.0000  0.0000  0.0000  0.0000 </r>
       </set>
       <set comment="band 5">
        <r>  0.0507  0.0174  0.0111  0.0344  0.0000  0.0000  0.0000  0.0000  0.0000 </r>
        <r>  0.0276  0.0319  0.0204  0.0187  0.0000  0.0000  0.0000  0.0000  0.0000 </r>
       </set>
       <set comment="band 6">
        <r>  0.0276  0.0319  0.0204  0.0187  0.0000  0.0000  0.0000  0.0000  0.0000 </r>
        <r>  0.0507  0.0174  0.0111  0.0344  0.0000  0.0000  0.0000  0.0000  0.0000 </r>
       </set>
       <set comment="band 7">
        <r>  0.0012  0.0556  0.0654  0.0033  0.0000  0.0000  0.0000  0.0000  0.0000 </r>
        <r>  0.0417  0.0016  0.0019  0.1160  0.0000  0.0000  0.0000  0.0000  0.0000 </r>
       </set>
       <set comment="band 8">
        <r>  0.0417  0.0016  0.0019  0.1160  0.0000  0.0000  0.0000  0.0000  0.0000 </r>
        <r>  0.0012  0.0556  0.0654  0.0033  0.0000  0.0000  0.0000  0.0000  0.0000 </r>
       </set>
       <set comment="band 9">
        <r>  0.0003  0.0214  0.0743  0.0312  0.0000  0.0000  0.0000  0.0000  0.0000 </r>
        <r>  0.0004  0.0195  0.0680  0.0341  0.0000  0.0000  0.0000  0.0000  0.0000 </r>
       </set>
       <set comment="band 10">
        <r>  0.0004  0.0195  0.0680  0.0341  0.0000  0.0000  0.0000  0.0000  0.0000 </r>
        <r>  0.0003  0.0214  0.0743  0.0312  0.0000  0.0000  0.0000  0.0000  0.0000 </r>
       </set>
       <set comment="band 11">
        <r>  0.0384  0.0337  0.0072  0.0002  0.0000  0.0000  0.0000  0.0000  0.0000 </r>
        <r>  0.0107  0.1209  0.0257  0.0000  0.0000  0.0000  0.0000  0.0000  0.0000 </r>
       </set>
       <set comment="band 12">
        <r>  0.0107  0.1208  0.0257  0.0000  0.0000  0.0000  0.0000  0.0000  0.0000 </r>
        <r>  0.0384  0.0336  0.0072  0.0002  0.0000  0.0000  0.0000  0.0000  0.0000 </r>
       </set>
      </set>
      <set comment="kpoint 92">
       <set comment="band 1">
        <r>  0.1866  0.0406  0.0060  0.0000  0.0000  0.0000  0.0000  0.0000  0.0000 </r>
        <r>  0.2118  0.0357  0.0053  0.0000  0.0000  0.0000  0.0000  0.0000  0.0000 </r>
       </set>
       <set comment="band 2">
        <r>  0.2118  0.0357  0.0053  0.0000  0.0000  0.0000  0.0000  0.0000  0.0000 </r>
        <r>  0.1866  0.0406  0.0060  0.0000  0.0000  0.0000  0.0000  0.0000  0.0000 </r>
       </set>
       <set comment="band 3">
        <r>  0.0025  0.0192  0.0753  0.0760  0.0000  0.0000  0.0000  0.0000  0.0000 </r>
        <r>  0.0026  0.0185  0.0725  0.0788  0.0000  0.0000  0.0000  0.0000  0.0000 </r>
       </set>
       <set comment="band 4">
        <r>  0.0026  0.0185  0.0725  0.0788  0.0000  0.0000  0.0000  0.0000  0.0000 </r>
        <r>  0.0025  0.0192  0.0753  0.0760  0.0000  0.0000  0.0000  0.0000  0.0000 </r>
       </set>
       <set comment="band 5">
        <r>  0.0011  0.0472  0.0324  0.0008  0.0000  0.0000  0.0000  0.0000  0.0000 </r>
        <r>  0.0751  0.0007  0.0005  0.0560  0.0000  0.0000  0.0000  0.0000  0.0000 </r>
       </set>
       <set comment="band 6">
        <r>  0.0751  0.0007  0.0005  0.0560  0.0000  0.0000  0.0000  0.0000  0.0000 </r>
        <r>  0.0011  0.0472  0.0324  0.0008  0.0000  0.0000  0.0000  0.0000  0.0000 </r>
       </set>
       <set comment="band 7">
        <r>  0.0445  0.0009  0.0009  0.1134  0.0000  0.0000  0.0000  0.0000  0.0000 </r>
        <r>  0.0007  0.0580  0.0646  0.0017  0.0000  0.0000  0.0000  0.0000  0.0000 </r>
       </set>
       <set comment="band 8">
        <r>  0.0007  0.0579  0.0646  0.0017  0.0000  0.0000  0.0000  0.0000  0.0000 </r>
        <r>  0.0445  0.0009  0.0009  0.1134  0.0000  0.0000  0.0000  0.0000  0.0000 </r>
       </set>
       <set comment="band 9">
        <r>  0.0005  0.0081  0.0264  0.0545  0.0000  0.0000  0.0000  0.0000  0.0000 </r>
        <r>  0.0001  0.0353  0.1148  0.0125  0.0000  0.0000  0.0000  0.0000  0.0000 </r>
       </set>
       <set comment="band 10">
        <r>  0.0001  0.0353  0.1148  0.0125  0.0000  0.0000  0.0000  0.0000  0.0000 </r>
        <r>  0.0005  0.0081  0.0264  0.0545  0.0000  0.0000  0.0000  0.0000  0.0000 </r>
       </set>
       <set comment="band 11">
        <r>  0.0396  0.0308  0.0072  0.0001  0.0000  0.0000  0.0000  0.0000  0.0000 </r>
        <r>  0.0099  0.1232  0.0289  0.0000  0.0000  0.0000  0.0000  0.0000  0.0000 </r>
       </set>
       <set comment="band 12">
        <r>  0.0100  0.1238  0.0287  0.0000  0.0000  0.0000  0.0000  0.0000  0.0000 </r>
        <r>  0.0397  0.0311  0.0071  0.0001  0.0000  0.0000  0.0000  0.0000  0.0000 </r>
       </set>
      </set>
      <set comment="kpoint 93">
       <set comment="band 1">
        <r>  0.2936  0.0198  0.0034  0.0001  0.0000  0.0000  0.0000  0.0000  0.0000 </r>
        <r>  0.1058  0.0549  0.0093  0.0000  0.0000  0.0000  0.0000  0.0000  0.0000 </r>
       </set>
       <set comment="band 2">
        <r>  0.1058  0.0549  0.0093  0.0000  0.0000  0.0000  0.0000  0.0000  0.0000 </r>
        <r>  0.2936  0.0198  0.0034  0.0001  0.0000  0.0000  0.0000  0.0000  0.0000 </r>
       </set>
       <set comment="band 3">
        <r>  0.0030  0.0154  0.0547  0.0949  0.0000  0.0000  0.0000  0.0000  0.0000 </r>
        <r>  0.0018  0.0253  0.0897  0.0579  0.0000  0.0000  0.0000  0.0000  0.0000 </r>
       </set>
       <set comment="band 4">
        <r>  0.0018  0.0253  0.0897  0.0579  0.0000  0.0000  0.0000  0.0000  0.0000 </r>
        <r>  0.0030  0.0154  0.0547  0.0949  0.0000  0.0000  0.0000  0.0000  0.0000 </r>
       </set>
       <set comment="band 5">
        <r>  0.0430  0.0196  0.0144  0.0351  0.0000  0.0000  0.0000  0.0000  0.0000 </r>
        <r>  0.0312  0.0270  0.0198  0.0255  0.0000  0.0000  0.0000  0.0000  0.0000 </r>
       </set>
       <set comment="band 6">
        <r>  0.0312  0.0270  0.0197  0.0255  0.0000  0.0000  0.0000  0.0000  0.0000 </r>
        <r>  0.0430  0.0196  0.0144  0.0351  0.0000  0.0000  0.0000  0.0000  0.0000 </r>
       </set>
       <set comment="band 7">
        <r>  0.0048  0.0543  0.0576  0.0112  0.0000  0.0000  0.0000  0.0000  0.0000 </r>
        <r>  0.0426  0.0061  0.0065  0.0997  0.0000  0.0000  0.0000  0.0000  0.0000 </r>
       </set>
       <set comment="band 8">
        <r>  0.0426  0.0061  0.0065  0.0997  0.0000  0.0000  0.0000  0.0000  0.0000 </r>
        <r>  0.0048  0.0543  0.0576  0.0112  0.0000  0.0000  0.0000  0.0000  0.0000 </r>
       </set>
       <set comment="band 9">
        <r>  0.0004  0.0068  0.0208  0.0583  0.0000  0.0000  0.0000  0.0000  0.0000 </r>
        <r>  0.0001  0.0392  0.1189  0.0102  0.0000  0.0000  0.0000  0.0000  0.0000 </r>
       </set>
       <set comment="band 10">
        <r>  0.0001  0.0392  0.1189  0.0102  0.0000  0.0000  0.0000  0.0000  0.0000 </r>
        <r>  0.0005  0.0068  0.0208  0.0583  0.0000  0.0000  0.0000  0.0000  0.0000 </r>
       </set>
       <set comment="band 11">
        <r>  0.0283  0.0661  0.0171  0.0001  0.0000  0.0000  0.0000  0.0000  0.0000 </r>
        <r>  0.0216  0.0869  0.0225  0.0001  0.0000  0.0000  0.0000  0.0000  0.0000 </r>
       </set>
       <set comment="band 12">
        <r>  0.0216  0.0859  0.0227  0.0001  0.0000  0.0000  0.0000  0.0000  0.0000 </r>
        <r>  0.0282  0.0663  0.0171  0.0001  0.0000  0.0000  0.0000  0.0000  0.0000 </r>
       </set>
      </set>
      <set comment="kpoint 94">
       <set comment="band 1">
        <r>  0.3820  0.0034  0.0006  0.0001  0.0000  0.0000  0.0000  0.0000  0.0000 </r>
        <r>  0.0184  0.0696  0.0135  0.0000  0.0000  0.0000  0.0000  0.0000  0.0000 </r>
       </set>
       <set comment="band 2">
        <r>  0.0184  0.0696  0.0135  0.0000  0.0000  0.0000  0.0000  0.0000  0.0000 </r>
        <r>  0.3820  0.0034  0.0006  0.0001  0.0000  0.0000  0.0000  0.0000  0.0000 </r>
       </set>
       <set comment="band 3">
        <r>  0.0021  0.0232  0.0749  0.0708  0.0000  0.0000  0.0000  0.0000  0.0000 </r>
        <r>  0.0024  0.0205  0.0662  0.0801  0.0000  0.0000  0.0000  0.0000  0.0000 </r>
       </set>
       <set comment="band 4">
        <r>  0.0024  0.0205  0.0662  0.0801  0.0000  0.0000  0.0000  0.0000  0.0000 </r>
        <r>  0.0021  0.0232  0.0749  0.0708  0.0000  0.0000  0.0000  0.0000  0.0000 </r>
       </set>
       <set comment="band 5">
        <r>  0.0296  0.0266  0.0207  0.0265  0.0000  0.0000  0.0000  0.0000  0.0000 </r>
        <r>  0.0424  0.0186  0.0145  0.0380  0.0000  0.0000  0.0000  0.0000  0.0000 </r>
       </set>
       <set comment="band 6">
        <r>  0.0424  0.0186  0.0145  0.0380  0.0000  0.0000  0.0000  0.0000  0.0000 </r>
        <r>  0.0296  0.0266  0.0207  0.0265  0.0000  0.0000  0.0000  0.0000  0.0000 </r>
       </set>
       <set comment="band 7">
        <r>  0.0487  0.0013  0.0014  0.1046  0.0000  0.0000  0.0000  0.0000  0.0000 </r>
        <r>  0.0011  0.0605  0.0617  0.0023  0.0000  0.0000  0.0000  0.0000  0.0000 </r>
       </set>
       <set comment="band 8">
        <r>  0.0011  0.0605  0.0617  0.0023  0.0000  0.0000  0.0000  0.0000  0.0000 </r>
        <r>  0.0487  0.0013  0.0014  0.1046  0.0000  0.0000  0.0000  0.0000  0.0000 </r>
       </set>
       <set comment="band 9">
        <r>  0.0004  0.0039  0.0111  0.0642  0.0000  0.0000  0.0000  0.0000  0.0000 </r>
        <r>  0.0000  0.0448  0.1268  0.0056  0.0000  0.0000  0.0000  0.0000  0.0000 </r>
       </set>
       <set comment="band 10">
        <r>  0.0000  0.0448  0.1269  0.0056  0.0000  0.0000  0.0000  0.0000  0.0000 </r>
        <r>  0.0004  0.0039  0.0111  0.0642  0.0000  0.0000  0.0000  0.0000  0.0000 </r>
       </set>
       <set comment="band 11">
        <r>  0.0500  0.0006  0.0002  0.0001  0.0000  0.0000  0.0000  0.0000  0.0000 </r>
        <r>  0.0002  0.1513  0.0430  0.0000  0.0000  0.0000  0.0000  0.0000  0.0000 </r>
       </set>
       <set comment="band 12">
        <r>  0.0002  0.1518  0.0427  0.0000  0.0000  0.0000  0.0000  0.0000  0.0000 </r>
        <r>  0.0500  0.0007  0.0002  0.0001  0.0000  0.0000  0.0000  0.0000  0.0000 </r>
       </set>
      </set>
      <set comment="kpoint 95">
       <set comment="band 1">
        <r>  0.3681  0.0059  0.0013  0.0001  0.0000  0.0000  0.0000  0.0000  0.0000 </r>
        <r>  0.0334  0.0652  0.0144  0.0000  0.0000  0.0000  0.0000  0.0000  0.0000 </r>
       </set>
       <set comment="band 2">
        <r>  0.0334  0.0652  0.0144  0.0000  0.0000  0.0000  0.0000  0.0000  0.0000 </r>
        <r>  0.3681  0.0059  0.0013  0.0001  0.0000  0.0000  0.0000  0.0000  0.0000 </r>
       </set>
       <set comment="band 3">
        <r>  0.0027  0.0157  0.0460  0.0994  0.0000  0.0000  0.0000  0.0000  0.0000 </r>
        <r>  0.0014  0.0312  0.0917  0.0499  0.0000  0.0000  0.0000  0.0000  0.0000 </r>
       </set>
       <set comment="band 4">
        <r>  0.0014  0.0312  0.0917  0.0499  0.0000  0.0000  0.0000  0.0000  0.0000 </r>
        <r>  0.0027  0.0157  0.0460  0.0994  0.0000  0.0000  0.0000  0.0000  0.0000 </r>
       </set>
       <set comment="band 5">
        <r>  0.0666  0.0021  0.0017  0.0652  0.0000  0.0000  0.0000  0.0000  0.0000 </r>
        <r>  0.0033  0.0418  0.0344  0.0032  0.0000  0.0000  0.0000  0.0000  0.0000 </r>
       </set>
       <set comment="band 6">
        <r>  0.0033  0.0418  0.0344  0.0032  0.0000  0.0000  0.0000  0.0000  0.0000 </r>
        <r>  0.0666  0.0021  0.0017  0.0652  0.0000  0.0000  0.0000  0.0000  0.0000 </r>
       </set>
       <set comment="band 7">
        <r>  0.0024  0.0603  0.0594  0.0048  0.0000  0.0000  0.0000  0.0000  0.0000 </r>
        <r>  0.0497  0.0029  0.0029  0.0981  0.0000  0.0000  0.0000  0.0000  0.0000 </r>
       </set>
       <set comment="band 8">
        <r>  0.0497  0.0030  0.0029  0.0981  0.0000  0.0000  0.0000  0.0000  0.0000 </r>
        <r>  0.0024  0.0603  0.0593  0.0048  0.0000  0.0000  0.0000  0.0000  0.0000 </r>
       </set>
       <set comment="band 9">
        <r>  0.0004  0.0030  0.0079  0.0668  0.0000  0.0000  0.0000  0.0000  0.0000 </r>
        <r>  0.0000  0.0486  0.1279  0.0041  0.0000  0.0000  0.0000  0.0000  0.0000 </r>
       </set>
       <set comment="band 10">
        <r>  0.0000  0.0486  0.1279  0.0041  0.0000  0.0000  0.0000  0.0000  0.0000 </r>
        <r>  0.0004  0.0030  0.0079  0.0668  0.0000  0.0000  0.0000  0.0000  0.0000 </r>
       </set>
       <set comment="band 11">
        <r>  0.0102  0.1199  0.0374  0.0000  0.0000  0.0000  0.0000  0.0000  0.0000 </r>
        <r>  0.0403  0.0303  0.0095  0.0001  0.0000  0.0000  0.0000  0.0000  0.0000 </r>
       </set>
       <set comment="band 12">
        <r>  0.0403  0.0302  0.0095  0.0001  0.0000  0.0000  0.0000  0.0000  0.0000 </r>
        <r>  0.0102  0.1202  0.0374  0.0000  0.0000  0.0000  0.0000  0.0000  0.0000 </r>
       </set>
      </set>
      <set comment="kpoint 96">
       <set comment="band 1">
        <r>  0.3349  0.0116  0.0029  0.0001  0.0000  0.0000  0.0000  0.0000  0.0000 </r>
        <r>  0.0676  0.0576  0.0144  0.0000  0.0000  0.0000  0.0000  0.0000  0.0000 </r>
       </set>
       <set comment="band 2">
        <r>  0.0676  0.0576  0.0144  0.0000  0.0000  0.0000  0.0000  0.0000  0.0000 </r>
        <r>  0.3349  0.0116  0.0029  0.0001  0.0000  0.0000  0.0000  0.0000  0.0000 </r>
       </set>
       <set comment="band 3">
        <r>  0.0021  0.0219  0.0587  0.0831  0.0000  0.0000  0.0000  0.0000  0.0000 </r>
        <r>  0.0016  0.0282  0.0756  0.0646  0.0000  0.0000  0.0000  0.0000  0.0000 </r>
       </set>
       <set comment="band 4">
        <r>  0.0016  0.0282  0.0756  0.0646  0.0000  0.0000  0.0000  0.0000  0.0000 </r>
        <r>  0.0021  0.0219  0.0587  0.0831  0.0000  0.0000  0.0000  0.0000  0.0000 </r>
       </set>
       <set comment="band 5">
        <r>  0.0586  0.0056  0.0049  0.0628  0.0000  0.0000  0.0000  0.0000  0.0000 </r>
        <r>  0.0089  0.0369  0.0320  0.0096  0.0000  0.0000  0.0000  0.0000  0.0000 </r>
       </set>
       <set comment="band 6">
        <r>  0.0089  0.0369  0.0320  0.0096  0.0000  0.0000  0.0000  0.0000  0.0000 </r>
        <r>  0.0586  0.0056  0.0049  0.0628  0.0000  0.0000  0.0000  0.0000  0.0000 </r>
       </set>
       <set comment="band 7">
        <r>  0.0144  0.0475  0.0454  0.0262  0.0000  0.0000  0.0000  0.0000  0.0000 </r>
        <r>  0.0401  0.0171  0.0163  0.0728  0.0000  0.0000  0.0000  0.0000  0.0000 </r>
       </set>
       <set comment="band 8">
        <r>  0.0401  0.0171  0.0163  0.0728  0.0000  0.0000  0.0000  0.0000  0.0000 </r>
        <r>  0.0144  0.0475  0.0454  0.0262  0.0000  0.0000  0.0000  0.0000  0.0000 </r>
       </set>
       <set comment="band 9">
        <r>  0.0003  0.0021  0.0052  0.0691  0.0000  0.0000  0.0000  0.0000  0.0000 </r>
        <r>  0.0000  0.0524  0.1283  0.0028  0.0000  0.0000  0.0000  0.0000  0.0000 </r>
       </set>
       <set comment="band 10">
        <r>  0.0000  0.0524  0.1283  0.0028  0.0000  0.0000  0.0000  0.0000  0.0000 </r>
        <r>  0.0003  0.0021  0.0052  0.0690  0.0000  0.0000  0.0000  0.0000  0.0000 </r>
       </set>
       <set comment="band 11">
        <r>  0.0226  0.0822  0.0282  0.0000  0.0000  0.0000  0.0000  0.0000  0.0000 </r>
        <r>  0.0281  0.0662  0.0226  0.0000  0.0000  0.0000  0.0000  0.0000  0.0000 </r>
       </set>
       <set comment="band 12">
        <r>  0.0280  0.0657  0.0227  0.0000  0.0000  0.0000  0.0000  0.0000  0.0000 </r>
        <r>  0.0225  0.0814  0.0284  0.0000  0.0000  0.0000  0.0000  0.0000  0.0000 </r>
       </set>
      </set>
      <set comment="kpoint 97">
       <set comment="band 1">
        <r>  0.3887  0.0025  0.0007  0.0001  0.0000  0.0000  0.0000  0.0000  0.0000 </r>
        <r>  0.0148  0.0648  0.0182  0.0000  0.0000  0.0000  0.0000  0.0000  0.0000 </r>
       </set>
       <set comment="band 2">
        <r>  0.0148  0.0648  0.0182  0.0000  0.0000  0.0000  0.0000  0.0000  0.0000 </r>
        <r>  0.3887  0.0025  0.0007  0.0001  0.0000  0.0000  0.0000  0.0000  0.0000 </r>
       </set>
       <set comment="band 3">
        <r>  0.0032  0.0022  0.0054  0.1401  0.0000  0.0000  0.0000  0.0000  0.0000 </r>
        <r>  0.0001  0.0511  0.1254  0.0061  0.0000  0.0000  0.0000  0.0000  0.0000 </r>
       </set>
       <set comment="band 4">
        <r>  0.0001  0.0511  0.1254  0.0061  0.0000  0.0000  0.0000  0.0000  0.0000 </r>
        <r>  0.0032  0.0022  0.0054  0.1401  0.0000  0.0000  0.0000  0.0000  0.0000 </r>
       </set>
       <set comment="band 5">
        <r>  0.0083  0.0358  0.0326  0.0098  0.0000  0.0000  0.0000  0.0000  0.0000 </r>
        <r>  0.0567  0.0053  0.0048  0.0667  0.0000  0.0000  0.0000  0.0000  0.0000 </r>
       </set>
       <set comment="band 6">
        <r>  0.0567  0.0053  0.0048  0.0667  0.0000  0.0000  0.0000  0.0000  0.0000 </r>
        <r>  0.0083  0.0358  0.0326  0.0098  0.0000  0.0000  0.0000  0.0000  0.0000 </r>
       </set>
       <set comment="band 7">
        <r>  0.0454  0.0136  0.0127  0.0754  0.0000  0.0000  0.0000  0.0000  0.0000 </r>
        <r>  0.0118  0.0523  0.0489  0.0195  0.0000  0.0000  0.0000  0.0000  0.0000 </r>
       </set>
       <set comment="band 8">
        <r>  0.0118  0.0523  0.0489  0.0195  0.0000  0.0000  0.0000  0.0000  0.0000 </r>
        <r>  0.0454  0.0136  0.0127  0.0754  0.0000  0.0000  0.0000  0.0000  0.0000 </r>
       </set>
       <set comment="band 9">
        <r>  0.0001  0.0335  0.0761  0.0305  0.0000  0.0000  0.0000  0.0000  0.0000 </r>
        <r>  0.0002  0.0241  0.0548  0.0423  0.0000  0.0000  0.0000  0.0000  0.0000 </r>
       </set>
       <set comment="band 10">
        <r>  0.0002  0.0241  0.0548  0.0423  0.0000  0.0000  0.0000  0.0000  0.0000 </r>
        <r>  0.0001  0.0335  0.0761  0.0305  0.0000  0.0000  0.0000  0.0000  0.0000 </r>
       </set>
       <set comment="band 11">
        <r>  0.0330  0.0513  0.0194  0.0000  0.0000  0.0000  0.0000  0.0000  0.0000 </r>
        <r>  0.0179  0.0945  0.0356  0.0000  0.0000  0.0000  0.0000  0.0000  0.0000 </r>
       </set>
       <set comment="band 12">
        <r>  0.0179  0.0944  0.0357  0.0000  0.0000  0.0000  0.0000  0.0000  0.0000 </r>
        <r>  0.0330  0.0514  0.0193  0.0000  0.0000  0.0000  0.0000  0.0000  0.0000 </r>
       </set>
      </set>
      <set comment="kpoint 98">
       <set comment="band 1">
        <r>  0.3813  0.0037  0.0012  0.0001  0.0000  0.0000  0.0000  0.0000  0.0000 </r>
        <r>  0.0231  0.0615  0.0195  0.0000  0.0000  0.0000  0.0000  0.0000  0.0000 </r>
       </set>
       <set comment="band 2">
        <r>  0.0231  0.0615  0.0195  0.0000  0.0000  0.0000  0.0000  0.0000  0.0000 </r>
        <r>  0.3813  0.0037  0.0012  0.0001  0.0000  0.0000  0.0000  0.0000  0.0000 </r>
       </set>
       <set comment="band 3">
        <r>  0.0015  0.0265  0.0597  0.0771  0.0000  0.0000  0.0000  0.0000  0.0000 </r>
        <r>  0.0013  0.0301  0.0678  0.0678  0.0000  0.0000  0.0000  0.0000  0.0000 </r>
       </set>
       <set comment="band 4">
        <r>  0.0013  0.0301  0.0678  0.0678  0.0000  0.0000  0.0000  0.0000  0.0000 </r>
        <r>  0.0015  0.0265  0.0597  0.0771  0.0000  0.0000  0.0000  0.0000  0.0000 </r>
       </set>
       <set comment="band 5">
        <r>  0.0431  0.0123  0.0117  0.0557  0.0000  0.0000  0.0000  0.0000  0.0000 </r>
        <r>  0.0194  0.0273  0.0259  0.0251  0.0000  0.0000  0.0000  0.0000  0.0000 </r>
       </set>
       <set comment="band 6">
        <r>  0.0194  0.0273  0.0259  0.0251  0.0000  0.0000  0.0000  0.0000  0.0000 </r>
        <r>  0.0431  0.0123  0.0117  0.0557  0.0000  0.0000  0.0000  0.0000  0.0000 </r>
       </set>
       <set comment="band 7">
        <r>  0.0226  0.0419  0.0384  0.0342  0.0000  0.0000  0.0000  0.0000  0.0000 </r>
        <r>  0.0373  0.0254  0.0233  0.0565  0.0000  0.0000  0.0000  0.0000  0.0000 </r>
       </set>
       <set comment="band 8">
        <r>  0.0373  0.0254  0.0232  0.0565  0.0000  0.0000  0.0000  0.0000  0.0000 </r>
        <r>  0.0226  0.0419  0.0384  0.0342  0.0000  0.0000  0.0000  0.0000  0.0000 </r>
       </set>
       <set comment="band 9">
        <r>  0.0001  0.0245  0.0517  0.0439  0.0000  0.0000  0.0000  0.0000  0.0000 </r>
        <r>  0.0001  0.0363  0.0767  0.0296  0.0000  0.0000  0.0000  0.0000  0.0000 </r>
       </set>
       <set comment="band 10">
        <r>  0.0001  0.0363  0.0767  0.0296  0.0000  0.0000  0.0000  0.0000  0.0000 </r>
        <r>  0.0001  0.0245  0.0517  0.0439  0.0000  0.0000  0.0000  0.0000  0.0000 </r>
       </set>
       <set comment="band 11">
        <r>  0.0298  0.0598  0.0247  0.0000  0.0000  0.0000  0.0000  0.0000  0.0000 </r>
        <r>  0.0213  0.0838  0.0343  0.0000  0.0000  0.0000  0.0000  0.0000  0.0000 </r>
       </set>
       <set comment="band 12">
        <r>  0.0214  0.0832  0.0347  0.0000  0.0000  0.0000  0.0000  0.0000  0.0000 </r>
        <r>  0.0298  0.0600  0.0247  0.0000  0.0000  0.0000  0.0000  0.0000  0.0000 </r>
       </set>
      </set>
      <set comment="kpoint 99">
       <set comment="band 1">
        <r>  0.3961  0.0014  0.0005  0.0001  0.0000  0.0000  0.0000  0.0000  0.0000 </r>
        <r>  0.0093  0.0617  0.0221  0.0000  0.0000  0.0000  0.0000  0.0000  0.0000 </r>
       </set>
       <set comment="band 2">
        <r>  0.0093  0.0617  0.0221  0.0000  0.0000  0.0000  0.0000  0.0000  0.0000 </r>
        <r>  0.3961  0.0014  0.0005  0.0001  0.0000  0.0000  0.0000  0.0000  0.0000 </r>
       </set>
       <set comment="band 3">
        <r>  0.0022  0.0056  0.0116  0.1303  0.0000  0.0000  0.0000  0.0000  0.0000 </r>
        <r>  0.0002  0.0544  0.1124  0.0134  0.0000  0.0000  0.0000  0.0000  0.0000 </r>
       </set>
       <set comment="band 4">
        <r>  0.0002  0.0544  0.1124  0.0134  0.0000  0.0000  0.0000  0.0000  0.0000 </r>
        <r>  0.0022  0.0056  0.0116  0.1303  0.0000  0.0000  0.0000  0.0000  0.0000 </r>
       </set>
       <set comment="band 5">
        <r>  0.0555  0.0026  0.0026  0.0795  0.0000  0.0000  0.0000  0.0000  0.0000 </r>
        <r>  0.0041  0.0353  0.0350  0.0058  0.0000  0.0000  0.0000  0.0000  0.0000 </r>
       </set>
       <set comment="band 6">
        <r>  0.0041  0.0353  0.0350  0.0058  0.0000  0.0000  0.0000  0.0000  0.0000 </r>
        <r>  0.0555  0.0026  0.0026  0.0795  0.0000  0.0000  0.0000  0.0000  0.0000 </r>
       </set>
       <set comment="band 7">
        <r>  0.0599  0.0031  0.0028  0.0823  0.0000  0.0000  0.0000  0.0000  0.0000 </r>
        <r>  0.0029  0.0656  0.0592  0.0039  0.0000  0.0000  0.0000  0.0000  0.0000 </r>
       </set>
       <set comment="band 8">
        <r>  0.0029  0.0656  0.0592  0.0039  0.0000  0.0000  0.0000  0.0000  0.0000 </r>
        <r>  0.0599  0.0031  0.0028  0.0823  0.0000  0.0000  0.0000  0.0000  0.0000 </r>
       </set>
       <set comment="band 9">
        <r>  0.0001  0.0193  0.0377  0.0519  0.0000  0.0000  0.0000  0.0000  0.0000 </r>
        <r>  0.0001  0.0447  0.0877  0.0223  0.0000  0.0000  0.0000  0.0000  0.0000 </r>
       </set>
       <set comment="band 10">
        <r>  0.0001  0.0448  0.0877  0.0223  0.0000  0.0000  0.0000  0.0000  0.0000 </r>
        <r>  0.0001  0.0193  0.0377  0.0519  0.0000  0.0000  0.0000  0.0000  0.0000 </r>
       </set>
       <set comment="band 11">
        <r>  0.0450  0.0172  0.0078  0.0000  0.0000  0.0000  0.0000  0.0000  0.0000 </r>
        <r>  0.0063  0.1234  0.0558  0.0000  0.0000  0.0000  0.0000  0.0000  0.0000 </r>
       </set>
       <set comment="band 12">
        <r>  0.0063  0.1238  0.0556  0.0000  0.0000  0.0000  0.0000  0.0000  0.0000 </r>
        <r>  0.0450  0.0171  0.0078  0.0000  0.0000  0.0000  0.0000  0.0000  0.0000 </r>
       </set>
      </set>
      <set comment="kpoint 100">
       <set comment="band 1">
        <r>  0.3087  0.0146  0.0059  0.0000  0.0000  0.0000  0.0000  0.0000  0.0000 </r>
        <r>  0.0975  0.0463  0.0186  0.0000  0.0000  0.0000  0.0000  0.0000  0.0000 </r>
       </set>
       <set comment="band 2">
        <r>  0.0975  0.0463  0.0186  0.0000  0.0000  0.0000  0.0000  0.0000  0.0000 </r>
        <r>  0.3087  0.0146  0.0059  0.0000  0.0000  0.0000  0.0000  0.0000  0.0000 </r>
       </set>
       <set comment="band 3">
        <r>  0.0009  0.0343  0.0653  0.0654  0.0000  0.0000  0.0000  0.0000  0.0000 </r>
        <r>  0.0011  0.0291  0.0552  0.0773  0.0000  0.0000  0.0000  0.0000  0.0000 </r>
       </set>
       <set comment="band 4">
        <r>  0.0011  0.0291  0.0552  0.0773  0.0000  0.0000  0.0000  0.0000  0.0000 </r>
        <r>  0.0009  0.0343  0.0653  0.0654  0.0000  0.0000  0.0000  0.0000  0.0000 </r>
       </set>
       <set comment="band 5">
        <r>  0.0517  0.0030  0.0031  0.0827  0.0000  0.0000  0.0000  0.0000  0.0000 </r>
        <r>  0.0048  0.0330  0.0341  0.0076  0.0000  0.0000  0.0000  0.0000  0.0000 </r>
       </set>
       <set comment="band 6">
        <r>  0.0048  0.0330  0.0341  0.0076  0.0000  0.0000  0.0000  0.0000  0.0000 </r>
        <r>  0.0517  0.0030  0.0031  0.0827  0.0000  0.0000  0.0000  0.0000  0.0000 </r>
       </set>
       <set comment="band 7">
        <r>  0.0359  0.0321  0.0286  0.0443  0.0000  0.0000  0.0000  0.0000  0.0000 </r>
        <r>  0.0301  0.0383  0.0342  0.0371  0.0000  0.0000  0.0000  0.0000  0.0000 </r>
       </set>
       <set comment="band 8">
        <r>  0.0301  0.0383  0.0342  0.0371  0.0000  0.0000  0.0000  0.0000  0.0000 </r>
        <r>  0.0359  0.0321  0.0286  0.0443  0.0000  0.0000  0.0000  0.0000  0.0000 </r>
       </set>
       <set comment="band 9">
        <r>  0.0000  0.0617  0.1123  0.0062  0.0000  0.0000  0.0000  0.0000  0.0000 </r>
        <r>  0.0001  0.0056  0.0102  0.0685  0.0000  0.0000  0.0000  0.0000  0.0000 </r>
       </set>
       <set comment="band 10">
        <r>  0.0001  0.0056  0.0102  0.0685  0.0000  0.0000  0.0000  0.0000  0.0000 </r>
        <r>  0.0000  0.0617  0.1123  0.0062  0.0000  0.0000  0.0000  0.0000  0.0000 </r>
       </set>
       <set comment="band 11">
        <r>  0.0441  0.0196  0.0096  0.0000  0.0000  0.0000  0.0000  0.0000  0.0000 </r>
        <r>  0.0073  0.1180  0.0583  0.0000  0.0000  0.0000  0.0000  0.0000  0.0000 </r>
       </set>
       <set comment="band 12">
        <r>  0.0073  0.1178  0.0583  0.0000  0.0000  0.0000  0.0000  0.0000  0.0000 </r>
        <r>  0.0441  0.0196  0.0097  0.0000  0.0000  0.0000  0.0000  0.0000  0.0000 </r>
       </set>
      </set>
      <set comment="kpoint 101">
       <set comment="band 1">
        <r>  0.3447  0.0090  0.0041  0.0000  0.0000  0.0000  0.0000  0.0000  0.0000 </r>
        <r>  0.0622  0.0498  0.0225  0.0000  0.0000  0.0000  0.0000  0.0000  0.0000 </r>
       </set>
       <set comment="band 2">
        <r>  0.0622  0.0498  0.0225  0.0000  0.0000  0.0000  0.0000  0.0000  0.0000 </r>
        <r>  0.3447  0.0090  0.0041  0.0000  0.0000  0.0000  0.0000  0.0000  0.0000 </r>
       </set>
       <set comment="band 3">
        <r>  0.0002  0.0583  0.1021  0.0180  0.0000  0.0000  0.0000  0.0000  0.0000 </r>
        <r>  0.0014  0.0085  0.0149  0.1237  0.0000  0.0000  0.0000  0.0000  0.0000 </r>
       </set>
       <set comment="band 4">
        <r>  0.0014  0.0085  0.0149  0.1237  0.0000  0.0000  0.0000  0.0000  0.0000 </r>
        <r>  0.0002  0.0583  0.1021  0.0180  0.0000  0.0000  0.0000  0.0000  0.0000 </r>
       </set>
       <set comment="band 5">
        <r>  0.0370  0.0102  0.0109  0.0670  0.0000  0.0000  0.0000  0.0000  0.0000 </r>
        <r>  0.0159  0.0236  0.0254  0.0289  0.0000  0.0000  0.0000  0.0000  0.0000 </r>
       </set>
       <set comment="band 6">
        <r>  0.0159  0.0236  0.0254  0.0289  0.0000  0.0000  0.0000  0.0000  0.0000 </r>
        <r>  0.0370  0.0102  0.0109  0.0670  0.0000  0.0000  0.0000  0.0000  0.0000 </r>
       </set>
       <set comment="band 7">
        <r>  0.0252  0.0461  0.0409  0.0275  0.0000  0.0000  0.0000  0.0000  0.0000 </r>
        <r>  0.0445  0.0261  0.0232  0.0485  0.0000  0.0000  0.0000  0.0000  0.0000 </r>
       </set>
       <set comment="band 8">
        <r>  0.0445  0.0261  0.0232  0.0485  0.0000  0.0000  0.0000  0.0000  0.0000 </r>
        <r>  0.0252  0.0461  0.0409  0.0275  0.0000  0.0000  0.0000  0.0000  0.0000 </r>
       </set>
       <set comment="band 9">
        <r>  0.0000  0.0432  0.0730  0.0292  0.0000  0.0000  0.0000  0.0000  0.0000 </r>
        <r>  0.0001  0.0275  0.0463  0.0460  0.0000  0.0000  0.0000  0.0000  0.0000 </r>
       </set>
       <set comment="band 10">
        <r>  0.0001  0.0275  0.0464  0.0460  0.0000  0.0000  0.0000  0.0000  0.0000 </r>
        <r>  0.0000  0.0432  0.0730  0.0292  0.0000  0.0000  0.0000  0.0000  0.0000 </r>
       </set>
       <set comment="band 11">
        <r>  0.0472  0.0113  0.0061  0.0000  0.0000  0.0000  0.0000  0.0000  0.0000 </r>
        <r>  0.0043  0.1229  0.0665  0.0000  0.0000  0.0000  0.0000  0.0000  0.0000 </r>
       </set>
       <set comment="band 12">
        <r>  0.0043  0.1229  0.0665  0.0000  0.0000  0.0000  0.0000  0.0000  0.0000 </r>
        <r>  0.0472  0.0113  0.0061  0.0000  0.0000  0.0000  0.0000  0.0000  0.0000 </r>
       </set>
      </set>
      <set comment="kpoint 102">
       <set comment="band 1">
        <r>  0.3782  0.0041  0.0021  0.0000  0.0000  0.0000  0.0000  0.0000  0.0000 </r>
        <r>  0.0294  0.0524  0.0265  0.0000  0.0000  0.0000  0.0000  0.0000  0.0000 </r>
       </set>
       <set comment="band 2">
        <r>  0.0294  0.0524  0.0265  0.0000  0.0000  0.0000  0.0000  0.0000  0.0000 </r>
        <r>  0.3782  0.0041  0.0021  0.0000  0.0000  0.0000  0.0000  0.0000  0.0000 </r>
       </set>
       <set comment="band 3">
        <r>  0.0002  0.0560  0.0903  0.0288  0.0000  0.0000  0.0000  0.0000  0.0000 </r>
        <r>  0.0009  0.0143  0.0231  0.1122  0.0000  0.0000  0.0000  0.0000  0.0000 </r>
       </set>
       <set comment="band 4">
        <r>  0.0009  0.0143  0.0231  0.1122  0.0000  0.0000  0.0000  0.0000  0.0000 </r>
        <r>  0.0002  0.0560  0.0903  0.0288  0.0000  0.0000  0.0000  0.0000  0.0000 </r>
       </set>
       <set comment="band 5">
        <r>  0.0486  0.0000  0.0000  0.1021  0.0000  0.0000  0.0000  0.0000  0.0000 </r>
        <r>  0.0001  0.0312  0.0349  0.0001  0.0000  0.0000  0.0000  0.0000  0.0000 </r>
       </set>
       <set comment="band 6">
        <r>  0.0001  0.0312  0.0349  0.0001  0.0000  0.0000  0.0000  0.0000  0.0000 </r>
        <r>  0.0486  0.0000  0.0000  0.1021  0.0000  0.0000  0.0000  0.0000  0.0000 </r>
       </set>
       <set comment="band 7">
        <r>  0.0661  0.0079  0.0070  0.0624  0.0000  0.0000  0.0000  0.0000  0.0000 </r>
        <r>  0.0078  0.0666  0.0590  0.0074  0.0000  0.0000  0.0000  0.0000  0.0000 </r>
       </set>
       <set comment="band 8">
        <r>  0.0078  0.0666  0.0590  0.0074  0.0000  0.0000  0.0000  0.0000  0.0000 </r>
        <r>  0.0661  0.0079  0.0070  0.0624  0.0000  0.0000  0.0000  0.0000  0.0000 </r>
       </set>
       <set comment="band 9">
        <r>  0.0001  0.0219  0.0343  0.0533  0.0000  0.0000  0.0000  0.0000  0.0000 </r>
        <r>  0.0000  0.0522  0.0818  0.0224  0.0000  0.0000  0.0000  0.0000  0.0000 </r>
       </set>
       <set comment="band 10">
        <r>  0.0000  0.0522  0.0818  0.0224  0.0000  0.0000  0.0000  0.0000  0.0000 </r>
        <r>  0.0001  0.0219  0.0343  0.0533  0.0000  0.0000  0.0000  0.0000  0.0000 </r>
       </set>
       <set comment="band 11">
        <r>  0.0423  0.0236  0.0140  0.0000  0.0000  0.0000  0.0000  0.0000  0.0000 </r>
        <r>  0.0093  0.1070  0.0633  0.0000  0.0000  0.0000  0.0000  0.0000  0.0000 </r>
       </set>
       <set comment="band 12">
        <r>  0.0093  0.1071  0.0633  0.0000  0.0000  0.0000  0.0000  0.0000  0.0000 </r>
        <r>  0.0422  0.0238  0.0139  0.0000  0.0000  0.0000  0.0000  0.0000  0.0000 </r>
       </set>
      </set>
      <set comment="kpoint 103">
       <set comment="band 1">
        <r>  0.4079  0.0000  0.0000  0.0000  0.0000  0.0000  0.0000  0.0000  0.0000 </r>
        <r>  0.0004  0.0541  0.0307  0.0000  0.0000  0.0000  0.0000  0.0000  0.0000 </r>
       </set>
       <set comment="band 2">
        <r>  0.0004  0.0541  0.0307  0.0000  0.0000  0.0000  0.0000  0.0000  0.0000 </r>
        <r>  0.4079  0.0000  0.0000  0.0000  0.0000  0.0000  0.0000  0.0000  0.0000 </r>
       </set>
       <set comment="band 3">
        <r>  0.0005  0.0329  0.0489  0.0779  0.0000  0.0000  0.0000  0.0000  0.0000 </r>
        <r>  0.0004  0.0410  0.0610  0.0624  0.0000  0.0000  0.0000  0.0000  0.0000 </r>
       </set>
       <set comment="band 4">
        <r>  0.0004  0.0410  0.0610  0.0624  0.0000  0.0000  0.0000  0.0000  0.0000 </r>
        <r>  0.0005  0.0329  0.0489  0.0779  0.0000  0.0000  0.0000  0.0000  0.0000 </r>
       </set>
       <set comment="band 5">
        <r>  0.0242  0.0125  0.0145  0.0610  0.0000  0.0000  0.0000  0.0000  0.0000 </r>
        <r>  0.0194  0.0156  0.0181  0.0487  0.0000  0.0000  0.0000  0.0000  0.0000 </r>
       </set>
       <set comment="band 6">
        <r>  0.0194  0.0156  0.0181  0.0487  0.0000  0.0000  0.0000  0.0000  0.0000 </r>
        <r>  0.0242  0.0125  0.0145  0.0610  0.0000  0.0000  0.0000  0.0000  0.0000 </r>
       </set>
       <set comment="band 7">
        <r>  0.0787  0.0004  0.0003  0.0621  0.0000  0.0000  0.0000  0.0000  0.0000 </r>
        <r>  0.0004  0.0770  0.0684  0.0003  0.0000  0.0000  0.0000  0.0000  0.0000 </r>
       </set>
       <set comment="band 8">
        <r>  0.0004  0.0770  0.0684  0.0003  0.0000  0.0000  0.0000  0.0000  0.0000 </r>
        <r>  0.0787  0.0004  0.0003  0.0621  0.0000  0.0000  0.0000  0.0000  0.0000 </r>
       </set>
       <set comment="band 9">
        <r>  0.0000  0.0580  0.0843  0.0192  0.0000  0.0000  0.0000  0.0000  0.0000 </r>
        <r>  0.0000  0.0196  0.0285  0.0568  0.0000  0.0000  0.0000  0.0000  0.0000 </r>
       </set>
       <set comment="band 10">
        <r>  0.0000  0.0196  0.0286  0.0568  0.0000  0.0000  0.0000  0.0000  0.0000 </r>
        <r>  0.0000  0.0580  0.0843  0.0192  0.0000  0.0000  0.0000  0.0000  0.0000 </r>
       </set>
       <set comment="band 11">
        <r>  0.0326  0.0468  0.0302  0.0000  0.0000  0.0000  0.0000  0.0000  0.0000 </r>
        <r>  0.0191  0.0801  0.0517  0.0000  0.0000  0.0000  0.0000  0.0000  0.0000 </r>
       </set>
       <set comment="band 12">
        <r>  0.0191  0.0799  0.0519  0.0000  0.0000  0.0000  0.0000  0.0000  0.0000 </r>
        <r>  0.0326  0.0467  0.0303  0.0000  0.0000  0.0000  0.0000  0.0000  0.0000 </r>
       </set>
      </set>
      <set comment="kpoint 104">
       <set comment="band 1">
        <r>  0.3764  0.0041  0.0026  0.0000  0.0000  0.0000  0.0000  0.0000  0.0000 </r>
        <r>  0.0323  0.0477  0.0304  0.0000  0.0000  0.0000  0.0000  0.0000  0.0000 </r>
       </set>
       <set comment="band 2">
        <r>  0.0323  0.0477  0.0304  0.0000  0.0000  0.0000  0.0000  0.0000  0.0000 </r>
        <r>  0.3764  0.0041  0.0026  0.0000  0.0000  0.0000  0.0000  0.0000  0.0000 </r>
       </set>
       <set comment="band 3">
        <r>  0.0004  0.0278  0.0382  0.0896  0.0000  0.0000  0.0000  0.0000  0.0000 </r>
        <r>  0.0002  0.0496  0.0681  0.0502  0.0000  0.0000  0.0000  0.0000  0.0000 </r>
       </set>
       <set comment="band 4">
        <r>  0.0002  0.0496  0.0681  0.0502  0.0000  0.0000  0.0000  0.0000  0.0000 </r>
        <r>  0.0004  0.0278  0.0382  0.0896  0.0000  0.0000  0.0000  0.0000  0.0000 </r>
       </set>
       <set comment="band 5">
        <r>  0.0074  0.0192  0.0234  0.0235  0.0000  0.0000  0.0000  0.0000  0.0000 </r>
        <r>  0.0299  0.0047  0.0058  0.0955  0.0000  0.0000  0.0000  0.0000  0.0000 </r>
       </set>
       <set comment="band 6">
        <r>  0.0299  0.0047  0.0058  0.0955  0.0000  0.0000  0.0000  0.0000  0.0000 </r>
        <r>  0.0074  0.0192  0.0234  0.0235  0.0000  0.0000  0.0000  0.0000  0.0000 </r>
       </set>
       <set comment="band 7">
        <r>  0.0766  0.0084  0.0075  0.0477  0.0000  0.0000  0.0000  0.0000  0.0000 </r>
        <r>  0.0088  0.0728  0.0651  0.0055  0.0000  0.0000  0.0000  0.0000  0.0000 </r>
       </set>
       <set comment="band 8">
        <r>  0.0088  0.0728  0.0651  0.0055  0.0000  0.0000  0.0000  0.0000  0.0000 </r>
        <r>  0.0766  0.0084  0.0075  0.0477  0.0000  0.0000  0.0000  0.0000  0.0000 </r>
       </set>
       <set comment="band 9">
        <r>  0.0000  0.0744  0.1003  0.0064  0.0000  0.0000  0.0000  0.0000  0.0000 </r>
        <r>  0.0000  0.0068  0.0091  0.0700  0.0000  0.0000  0.0000  0.0000  0.0000 </r>
       </set>
       <set comment="band 10">
        <r>  0.0000  0.0068  0.0091  0.0700  0.0000  0.0000  0.0000  0.0000  0.0000 </r>
        <r>  0.0000  0.0744  0.1003  0.0064  0.0000  0.0000  0.0000  0.0000  0.0000 </r>
       </set>
       <set comment="band 11">
        <r>  0.0404  0.0269  0.0190  0.0000  0.0000  0.0000  0.0000  0.0000  0.0000 </r>
        <r>  0.0113  0.0959  0.0678  0.0000  0.0000  0.0000  0.0000  0.0000  0.0000 </r>
       </set>
       <set comment="band 12">
        <r>  0.0113  0.0962  0.0676  0.0000  0.0000  0.0000  0.0000  0.0000  0.0000 </r>
        <r>  0.0405  0.0268  0.0190  0.0000  0.0000  0.0000  0.0000  0.0000  0.0000 </r>
       </set>
      </set>
      <set comment="kpoint 105">
       <set comment="band 1">
        <r>  0.4004  0.0011  0.0008  0.0000  0.0000  0.0000  0.0000  0.0000  0.0000 </r>
        <r>  0.0087  0.0484  0.0345  0.0000  0.0000  0.0000  0.0000  0.0000  0.0000 </r>
       </set>
       <set comment="band 2">
        <r>  0.0087  0.0484  0.0345  0.0000  0.0000  0.0000  0.0000  0.0000  0.0000 </r>
        <r>  0.4004  0.0011  0.0008  0.0000  0.0000  0.0000  0.0000  0.0000  0.0000 </r>
       </set>
       <set comment="band 3">
        <r>  0.0002  0.0389  0.0493  0.0725  0.0000  0.0000  0.0000  0.0000  0.0000 </r>
        <r>  0.0002  0.0421  0.0534  0.0669  0.0000  0.0000  0.0000  0.0000  0.0000 </r>
       </set>
       <set comment="band 4">
        <r>  0.0002  0.0421  0.0534  0.0669  0.0000  0.0000  0.0000  0.0000  0.0000 </r>
        <r>  0.0002  0.0389  0.0493  0.0725  0.0000  0.0000  0.0000  0.0000  0.0000 </r>
       </set>
       <set comment="band 5">
        <r>  0.0265  0.0016  0.0020  0.1198  0.0000  0.0000  0.0000  0.0000  0.0000 </r>
        <r>  0.0025  0.0168  0.0218  0.0112  0.0000  0.0000  0.0000  0.0000  0.0000 </r>
       </set>
       <set comment="band 6">
        <r>  0.0025  0.0168  0.0218  0.0112  0.0000  0.0000  0.0000  0.0000  0.0000 </r>
        <r>  0.0265  0.0016  0.0020  0.1198  0.0000  0.0000  0.0000  0.0000  0.0000 </r>
       </set>
       <set comment="band 7">
        <r>  0.0183  0.0695  0.0631  0.0081  0.0000  0.0000  0.0000  0.0000  0.0000 </r>
        <r>  0.0754  0.0168  0.0153  0.0333  0.0000  0.0000  0.0000  0.0000  0.0000 </r>
       </set>
       <set comment="band 8">
        <r>  0.0754  0.0168  0.0153  0.0333  0.0000  0.0000  0.0000  0.0000  0.0000 </r>
        <r>  0.0183  0.0695  0.0631  0.0081  0.0000  0.0000  0.0000  0.0000  0.0000 </r>
       </set>
       <set comment="band 9">
        <r>  0.0000  0.0220  0.0276  0.0566  0.0000  0.0000  0.0000  0.0000  0.0000 </r>
        <r>  0.0000  0.0626  0.0784  0.0199  0.0000  0.0000  0.0000  0.0000  0.0000 </r>
       </set>
       <set comment="band 10">
        <r>  0.0000  0.0626  0.0784  0.0199  0.0000  0.0000  0.0000  0.0000  0.0000 </r>
        <r>  0.0000  0.0220  0.0276  0.0566  0.0000  0.0000  0.0000  0.0000  0.0000 </r>
       </set>
       <set comment="band 11">
        <r>  0.0209  0.0709  0.0546  0.0000  0.0000  0.0000  0.0000  0.0000  0.0000 </r>
        <r>  0.0309  0.0479  0.0370  0.0000  0.0000  0.0000  0.0000  0.0000  0.0000 </r>
       </set>
       <set comment="band 12">
        <r>  0.0309  0.0480  0.0369  0.0000  0.0000  0.0000  0.0000  0.0000  0.0000 </r>
        <r>  0.0209  0.0707  0.0547  0.0000  0.0000  0.0000  0.0000  0.0000  0.0000 </r>
       </set>
      </set>
      <set comment="kpoint 106">
       <set comment="band 1">
        <r>  0.3021  0.0123  0.0098  0.0000  0.0000  0.0000  0.0000  0.0000  0.0000 </r>
        <r>  0.1074  0.0347  0.0277  0.0000  0.0000  0.0000  0.0000  0.0000  0.0000 </r>
       </set>
       <set comment="band 2">
        <r>  0.1074  0.0347  0.0277  0.0000  0.0000  0.0000  0.0000  0.0000  0.0000 </r>
        <r>  0.3021  0.0123  0.0098  0.0000  0.0000  0.0000  0.0000  0.0000  0.0000 </r>
       </set>
       <set comment="band 3">
        <r>  0.0001  0.0437  0.0512  0.0672  0.0000  0.0000  0.0000  0.0000  0.0000 </r>
        <r>  0.0001  0.0409  0.0479  0.0719  0.0000  0.0000  0.0000  0.0000  0.0000 </r>
       </set>
       <set comment="band 4">
        <r>  0.0001  0.0409  0.0479  0.0719  0.0000  0.0000  0.0000  0.0000  0.0000 </r>
        <r>  0.0001  0.0437  0.0512  0.0671  0.0000  0.0000  0.0000  0.0000  0.0000 </r>
       </set>
       <set comment="band 5">
        <r>  0.0074  0.0066  0.0096  0.0591  0.0000  0.0000  0.0000  0.0000  0.0000 </r>
        <r>  0.0109  0.0045  0.0065  0.0872  0.0000  0.0000  0.0000  0.0000  0.0000 </r>
       </set>
       <set comment="band 6">
        <r>  0.0109  0.0045  0.0065  0.0872  0.0000  0.0000  0.0000  0.0000  0.0000 </r>
        <r>  0.0074  0.0066  0.0096  0.0591  0.0000  0.0000  0.0000  0.0000  0.0000 </r>
       </set>
       <set comment="band 7">
        <r>  0.0694  0.0313  0.0290  0.0173  0.0000  0.0000  0.0000  0.0000  0.0000 </r>
        <r>  0.0351  0.0619  0.0575  0.0087  0.0000  0.0000  0.0000  0.0000  0.0000 </r>
       </set>
       <set comment="band 8">
        <r>  0.0351  0.0619  0.0575  0.0087  0.0000  0.0000  0.0000  0.0000  0.0000 </r>
        <r>  0.0694  0.0313  0.0290  0.0173  0.0000  0.0000  0.0000  0.0000  0.0000 </r>
       </set>
       <set comment="band 9">
        <r>  0.0000  0.0053  0.0061  0.0721  0.0000  0.0000  0.0000  0.0000  0.0000 </r>
        <r>  0.0000  0.0830  0.0964  0.0046  0.0000  0.0000  0.0000  0.0000  0.0000 </r>
       </set>
       <set comment="band 10">
        <r>  0.0000  0.0830  0.0964  0.0046  0.0000  0.0000  0.0000  0.0000  0.0000 </r>
        <r>  0.0000  0.0053  0.0061  0.0721  0.0000  0.0000  0.0000  0.0000  0.0000 </r>
       </set>
       <set comment="band 11">
        <r>  0.0493  0.0057  0.0048  0.0000  0.0000  0.0000  0.0000  0.0000  0.0000 </r>
        <r>  0.0026  0.1089  0.0915  0.0000  0.0000  0.0000  0.0000  0.0000  0.0000 </r>
       </set>
       <set comment="band 12">
        <r>  0.0026  0.1073  0.0930  0.0000  0.0000  0.0000  0.0000  0.0000  0.0000 </r>
        <r>  0.0491  0.0058  0.0047  0.0000  0.0000  0.0000  0.0000  0.0000  0.0000 </r>
       </set>
      </set>
      <set comment="kpoint 107">
       <set comment="band 1">
        <r>  0.3694  0.0044  0.0039  0.0000  0.0000  0.0000  0.0000  0.0000  0.0000 </r>
        <r>  0.0402  0.0403  0.0360  0.0000  0.0000  0.0000  0.0000  0.0000  0.0000 </r>
       </set>
       <set comment="band 2">
        <r>  0.0402  0.0403  0.0360  0.0000  0.0000  0.0000  0.0000  0.0000  0.0000 </r>
        <r>  0.3694  0.0044  0.0039  0.0000  0.0000  0.0000  0.0000  0.0000  0.0000 </r>
       </set>
       <set comment="band 3">
        <r>  0.0000  0.0270  0.0292  0.0964  0.0000  0.0000  0.0000  0.0000  0.0000 </r>
        <r>  0.0000  0.0612  0.0663  0.0424  0.0000  0.0000  0.0000  0.0000  0.0000 </r>
       </set>
       <set comment="band 4">
        <r>  0.0000  0.0612  0.0663  0.0424  0.0000  0.0000  0.0000  0.0000  0.0000 </r>
        <r>  0.0000  0.0270  0.0292  0.0964  0.0000  0.0000  0.0000  0.0000  0.0000 </r>
       </set>
       <set comment="band 5">
        <r>  0.0046  0.0008  0.0017  0.1206  0.0000  0.0000  0.0000  0.0000  0.0000 </r>
        <r>  0.0016  0.0024  0.0048  0.0429  0.0000  0.0000  0.0000  0.0000  0.0000 </r>
       </set>
       <set comment="band 6">
        <r>  0.0016  0.0024  0.0048  0.0429  0.0000  0.0000  0.0000  0.0000  0.0000 </r>
        <r>  0.0046  0.0008  0.0017  0.1206  0.0000  0.0000  0.0000  0.0000  0.0000 </r>
       </set>
       <set comment="band 7">
        <r>  0.0213  0.0823  0.0789  0.0016  0.0000  0.0000  0.0000  0.0000  0.0000 </r>
        <r>  0.0952  0.0184  0.0177  0.0073  0.0000  0.0000  0.0000  0.0000  0.0000 </r>
       </set>
       <set comment="band 8">
        <r>  0.0952  0.0184  0.0177  0.0073  0.0000  0.0000  0.0000  0.0000  0.0000 </r>
        <r>  0.0213  0.0823  0.0789  0.0016  0.0000  0.0000  0.0000  0.0000  0.0000 </r>
       </set>
       <set comment="band 9">
        <r>  0.0000  0.0143  0.0154  0.0648  0.0000  0.0000  0.0000  0.0000  0.0000 </r>
        <r>  0.0000  0.0775  0.0836  0.0120  0.0000  0.0000  0.0000  0.0000  0.0000 </r>
       </set>
       <set comment="band 10">
        <r>  0.0000  0.0775  0.0836  0.0120  0.0000  0.0000  0.0000  0.0000  0.0000 </r>
        <r>  0.0000  0.0143  0.0154  0.0649  0.0000  0.0000  0.0000  0.0000  0.0000 </r>
       </set>
       <set comment="band 11">
        <r>  0.0331  0.0400  0.0366  0.0000  0.0000  0.0000  0.0000  0.0000  0.0000 </r>
        <r>  0.0188  0.0702  0.0644  0.0000  0.0000  0.0000  0.0000  0.0000  0.0000 </r>
       </set>
       <set comment="band 12">
        <r>  0.0188  0.0703  0.0643  0.0000  0.0000  0.0000  0.0000  0.0000  0.0000 </r>
        <r>  0.0331  0.0400  0.0365  0.0000  0.0000  0.0000  0.0000  0.0000  0.0000 </r>
       </set>
      </set>
      <set comment="kpoint 108">
       <set comment="band 1">
        <r>  0.4041  0.0006  0.0006  0.0000  0.0000  0.0000  0.0000  0.0000  0.0000 </r>
        <r>  0.0056  0.0417  0.0417  0.0000  0.0000  0.0000  0.0000  0.0000  0.0000 </r>
       </set>
       <set comment="band 2">
        <r>  0.0056  0.0417  0.0417  0.0000  0.0000  0.0000  0.0000  0.0000  0.0000 </r>
        <r>  0.4041  0.0006  0.0006  0.0000  0.0000  0.0000  0.0000  0.0000  0.0000 </r>
       </set>
       <set comment="band 3">
        <r>  0.0000  0.0716  0.0716  0.0306  0.0000  0.0000  0.0000  0.0000  0.0000 </r>
        <r>  0.0000  0.0203  0.0203  0.1082  0.0000  0.0000  0.0000  0.0000  0.0000 </r>
       </set>
       <set comment="band 4">
        <r>  0.0000  0.0203  0.0203  0.1082  0.0000  0.0000  0.0000  0.0000  0.0000 </r>
        <r>  0.0000  0.0716  0.0716  0.0306  0.0000  0.0000  0.0000  0.0000  0.0000 </r>
       </set>
       <set comment="band 5">
        <r>  0.0000  0.0001  0.0001  0.0840  0.0000  0.0000  0.0000  0.0000  0.0000 </r>
        <r>  0.0000  0.0001  0.0001  0.0884  0.0000  0.0000  0.0000  0.0000  0.0000 </r>
       </set>
       <set comment="band 6">
        <r>  0.0000  0.0001  0.0001  0.0884  0.0000  0.0000  0.0000  0.0000  0.0000 </r>
        <r>  0.0000  0.0001  0.0001  0.0840  0.0000  0.0000  0.0000  0.0000  0.0000 </r>
       </set>
       <set comment="band 7">
        <r>  0.1012  0.0182  0.0182  0.0000  0.0000  0.0000  0.0000  0.0000  0.0000 </r>
        <r>  0.0216  0.0852  0.0852  0.0000  0.0000  0.0000  0.0000  0.0000  0.0000 </r>
       </set>
       <set comment="band 8">
        <r>  0.0216  0.0852  0.0852  0.0000  0.0000  0.0000  0.0000  0.0000  0.0000 </r>
        <r>  0.1012  0.0182  0.0182  0.0000  0.0000  0.0000  0.0000  0.0000  0.0000 </r>
       </set>
       <set comment="band 9">
        <r>  0.0000  0.0290  0.0290  0.0534  0.0000  0.0000  0.0000  0.0000  0.0000 </r>
        <r>  0.0000  0.0664  0.0664  0.0234  0.0000  0.0000  0.0000  0.0000  0.0000 </r>
       </set>
       <set comment="band 10">
        <r>  0.0000  0.0664  0.0664  0.0234  0.0000  0.0000  0.0000  0.0000  0.0000 </r>
        <r>  0.0000  0.0290  0.0290  0.0534  0.0000  0.0000  0.0000  0.0000  0.0000 </r>
       </set>
       <set comment="band 11">
        <r>  0.0354  0.0335  0.0335  0.0000  0.0000  0.0000  0.0000  0.0000  0.0000 </r>
        <r>  0.0165  0.0721  0.0720  0.0000  0.0000  0.0000  0.0000  0.0000  0.0000 </r>
       </set>
       <set comment="band 12">
        <r>  0.0165  0.0721  0.0720  0.0000  0.0000  0.0000  0.0000  0.0000  0.0000 </r>
        <r>  0.0354  0.0335  0.0335  0.0000  0.0000  0.0000  0.0000  0.0000  0.0000 </r>
       </set>
      </set>
      <set comment="kpoint 109">
       <set comment="band 1">
        <r>  0.3112  0.0102  0.0102  0.0000  0.0000  0.0000  0.0000  0.0000  0.0000 </r>
        <r>  0.0984  0.0321  0.0321  0.0000  0.0000  0.0000  0.0000  0.0000  0.0000 </r>
       </set>
       <set comment="band 2">
        <r>  0.0984  0.0321  0.0321  0.0000  0.0000  0.0000  0.0000  0.0000  0.0000 </r>
        <r>  0.3112  0.0102  0.0102  0.0000  0.0000  0.0000  0.0000  0.0000  0.0000 </r>
       </set>
       <set comment="band 3">
        <r>  0.0000  0.0609  0.0609  0.0468  0.0000  0.0000  0.0000  0.0000  0.0000 </r>
        <r>  0.0000  0.0310  0.0310  0.0920  0.0000  0.0000  0.0000  0.0000  0.0000 </r>
       </set>
       <set comment="band 4">
        <r>  0.0000  0.0310  0.0310  0.0920  0.0000  0.0000  0.0000  0.0000  0.0000 </r>
        <r>  0.0000  0.0609  0.0608  0.0468  0.0000  0.0000  0.0000  0.0000  0.0000 </r>
       </set>
       <set comment="band 5">
        <r>  0.0000  0.0001  0.0001  0.0317  0.0000  0.0000  0.0000  0.0000  0.0000 </r>
        <r>  0.0000  0.0000  0.0000  0.1407  0.0000  0.0000  0.0000  0.0000  0.0000 </r>
       </set>
       <set comment="band 6">
        <r>  0.0000  0.0000  0.0000  0.1407  0.0000  0.0000  0.0000  0.0000  0.0000 </r>
        <r>  0.0000  0.0001  0.0001  0.0317  0.0000  0.0000  0.0000  0.0000  0.0000 </r>
       </set>
       <set comment="band 7">
        <r>  0.0492  0.0620  0.0620  0.0000  0.0000  0.0000  0.0000  0.0000  0.0000 </r>
        <r>  0.0736  0.0414  0.0414  0.0000  0.0000  0.0000  0.0000  0.0000  0.0000 </r>
       </set>
       <set comment="band 8">
        <r>  0.0736  0.0414  0.0414  0.0000  0.0000  0.0000  0.0000  0.0000  0.0000 </r>
        <r>  0.0492  0.0620  0.0620  0.0000  0.0000  0.0000  0.0000  0.0000  0.0000 </r>
       </set>
       <set comment="band 9">
        <r>  0.0000  0.0243  0.0243  0.0573  0.0000  0.0000  0.0000  0.0000  0.0000 </r>
        <r>  0.0000  0.0711  0.0711  0.0196  0.0000  0.0000  0.0000  0.0000  0.0000 </r>
       </set>
       <set comment="band 10">
        <r>  0.0000  0.0711  0.0711  0.0196  0.0000  0.0000  0.0000  0.0000  0.0000 </r>
        <r>  0.0000  0.0243  0.0243  0.0573  0.0000  0.0000  0.0000  0.0000  0.0000 </r>
       </set>
       <set comment="band 11">
        <r>  0.0504  0.0031  0.0031  0.0000  0.0000  0.0000  0.0000  0.0000  0.0000 </r>
        <r>  0.0015  0.1025  0.1024  0.0000  0.0000  0.0000  0.0000  0.0000  0.0000 </r>
       </set>
       <set comment="band 12">
        <r>  0.0015  0.1024  0.1025  0.0000  0.0000  0.0000  0.0000  0.0000  0.0000 </r>
        <r>  0.0504  0.0032  0.0031  0.0000  0.0000  0.0000  0.0000  0.0000  0.0000 </r>
       </set>
      </set>
      <set comment="kpoint 110">
       <set comment="band 1">
        <r>  0.2053  0.0205  0.0212  0.0000  0.0000  0.0000  0.0000  0.0000  0.0000 </r>
        <r>  0.2053  0.0205  0.0212  0.0000  0.0000  0.0000  0.0000  0.0000  0.0000 </r>
       </set>
       <set comment="band 2">
        <r>  0.2043  0.0206  0.0222  0.0000  0.0000  0.0000  0.0000  0.0000  0.0000 </r>
        <r>  0.2043  0.0206  0.0222  0.0000  0.0000  0.0000  0.0000  0.0000  0.0000 </r>
       </set>
       <set comment="band 3">
        <r>  0.0000  0.0462  0.0457  0.0689  0.0000  0.0000  0.0000  0.0000  0.0000 </r>
        <r>  0.0000  0.0462  0.0457  0.0689  0.0000  0.0000  0.0000  0.0000  0.0000 </r>
       </set>
       <set comment="band 4">
        <r>  0.0000  0.0474  0.0443  0.0699  0.0000  0.0000  0.0000  0.0000  0.0000 </r>
        <r>  0.0000  0.0474  0.0443  0.0699  0.0000  0.0000  0.0000  0.0000  0.0000 </r>
       </set>
       <set comment="band 5">
        <r>  0.0017  0.0019  0.0008  0.0838  0.0000  0.0000  0.0000  0.0000  0.0000 </r>
        <r>  0.0017  0.0019  0.0008  0.0838  0.0000  0.0000  0.0000  0.0000  0.0000 </r>
       </set>
       <set comment="band 6">
        <r>  0.0003  0.0006  0.0000  0.0859  0.0000  0.0000  0.0000  0.0000  0.0000 </r>
        <r>  0.0003  0.0006  0.0000  0.0859  0.0000  0.0000  0.0000  0.0000  0.0000 </r>
       </set>
       <set comment="band 7">
        <r>  0.0603  0.0490  0.0511  0.0023  0.0000  0.0000  0.0000  0.0000  0.0000 </r>
        <r>  0.0603  0.0490  0.0511  0.0023  0.0000  0.0000  0.0000  0.0000  0.0000 </r>
       </set>
       <set comment="band 8">
        <r>  0.0605  0.0518  0.0518  0.0005  0.0000  0.0000  0.0000  0.0000  0.0000 </r>
        <r>  0.0605  0.0518  0.0518  0.0005  0.0000  0.0000  0.0000  0.0000  0.0000 </r>
       </set>
       <set comment="band 9">
        <r>  0.0000  0.0465  0.0495  0.0386  0.0000  0.0000  0.0000  0.0000  0.0000 </r>
        <r>  0.0000  0.0465  0.0495  0.0386  0.0000  0.0000  0.0000  0.0000  0.0000 </r>
       </set>
       <set comment="band 10">
        <r>  0.0000  0.0509  0.0439  0.0382  0.0000  0.0000  0.0000  0.0000  0.0000 </r>
        <r>  0.0000  0.0509  0.0439  0.0382  0.0000  0.0000  0.0000  0.0000  0.0000 </r>
       </set>
       <set comment="band 11">
        <r>  0.0263  0.0480  0.0572  0.0000  0.0000  0.0000  0.0000  0.0000  0.0000 </r>
        <r>  0.0264  0.0482  0.0570  0.0000  0.0000  0.0000  0.0000  0.0000  0.0000 </r>
       </set>
       <set comment="band 12">
        <r>  0.0254  0.0550  0.0510  0.0000  0.0000  0.0000  0.0000  0.0000  0.0000 </r>
        <r>  0.0254  0.0548  0.0513  0.0000  0.0000  0.0000  0.0000  0.0000  0.0000 </r>
       </set>
      </set>
      <set comment="kpoint 111">
       <set comment="band 1">
        <r>  0.2058  0.0199  0.0214  0.0000  0.0000  0.0000  0.0000  0.0000  0.0000 </r>
        <r>  0.2058  0.0199  0.0214  0.0000  0.0000  0.0000  0.0000  0.0000  0.0000 </r>
       </set>
       <set comment="band 2">
        <r>  0.2038  0.0200  0.0233  0.0000  0.0000  0.0000  0.0000  0.0000  0.0000 </r>
        <r>  0.2038  0.0200  0.0233  0.0000  0.0000  0.0000  0.0000  0.0000  0.0000 </r>
       </set>
       <set comment="band 3">
        <r>  0.0000  0.0466  0.0456  0.0684  0.0000  0.0000  0.0000  0.0000  0.0000 </r>
        <r>  0.0000  0.0466  0.0456  0.0684  0.0000  0.0000  0.0000  0.0000  0.0000 </r>
       </set>
       <set comment="band 4">
        <r>  0.0001  0.0490  0.0426  0.0704  0.0000  0.0000  0.0000  0.0000  0.0000 </r>
        <r>  0.0001  0.0490  0.0426  0.0704  0.0000  0.0000  0.0000  0.0000  0.0000 </r>
       </set>
       <set comment="band 5">
        <r>  0.0056  0.0051  0.0034  0.0782  0.0000  0.0000  0.0000  0.0000  0.0000 </r>
        <r>  0.0056  0.0051  0.0034  0.0782  0.0000  0.0000  0.0000  0.0000  0.0000 </r>
       </set>
       <set comment="band 6">
        <r>  0.0012  0.0016  0.0004  0.0846  0.0000  0.0000  0.0000  0.0000  0.0000 </r>
        <r>  0.0012  0.0016  0.0004  0.0846  0.0000  0.0000  0.0000  0.0000  0.0000 </r>
       </set>
       <set comment="band 7">
        <r>  0.0569  0.0450  0.0487  0.0077  0.0000  0.0000  0.0000  0.0000  0.0000 </r>
        <r>  0.0569  0.0450  0.0487  0.0077  0.0000  0.0000  0.0000  0.0000  0.0000 </r>
       </set>
       <set comment="band 8">
        <r>  0.0590  0.0515  0.0515  0.0018  0.0000  0.0000  0.0000  0.0000  0.0000 </r>
        <r>  0.0590  0.0515  0.0515  0.0018  0.0000  0.0000  0.0000  0.0000  0.0000 </r>
       </set>
       <set comment="band 9">
        <r>  0.0001  0.0455  0.0511  0.0387  0.0000  0.0000  0.0000  0.0000  0.0000 </r>
        <r>  0.0001  0.0455  0.0511  0.0387  0.0000  0.0000  0.0000  0.0000  0.0000 </r>
       </set>
       <set comment="band 10">
        <r>  0.0001  0.0543  0.0397  0.0379  0.0000  0.0000  0.0000  0.0000  0.0000 </r>
        <r>  0.0001  0.0543  0.0397  0.0379  0.0000  0.0000  0.0000  0.0000  0.0000 </r>
       </set>
       <set comment="band 11">
        <r>  0.0266  0.0434  0.0615  0.0001  0.0000  0.0000  0.0000  0.0000  0.0000 </r>
        <r>  0.0267  0.0435  0.0614  0.0001  0.0000  0.0000  0.0000  0.0000  0.0000 </r>
       </set>
       <set comment="band 12">
        <r>  0.0249  0.0566  0.0498  0.0001  0.0000  0.0000  0.0000  0.0000  0.0000 </r>
        <r>  0.0249  0.0568  0.0496  0.0001  0.0000  0.0000  0.0000  0.0000  0.0000 </r>
       </set>
      </set>
      <set comment="kpoint 112">
       <set comment="band 1">
        <r>  0.2062  0.0192  0.0215  0.0000  0.0000  0.0000  0.0000  0.0000  0.0000 </r>
        <r>  0.2062  0.0192  0.0215  0.0000  0.0000  0.0000  0.0000  0.0000  0.0000 </r>
       </set>
       <set comment="band 2">
        <r>  0.2032  0.0194  0.0244  0.0001  0.0000  0.0000  0.0000  0.0000  0.0000 </r>
        <r>  0.2032  0.0194  0.0244  0.0001  0.0000  0.0000  0.0000  0.0000  0.0000 </r>
       </set>
       <set comment="band 3">
        <r>  0.0000  0.0469  0.0454  0.0680  0.0000  0.0000  0.0000  0.0000  0.0000 </r>
        <r>  0.0000  0.0469  0.0454  0.0680  0.0000  0.0000  0.0000  0.0000  0.0000 </r>
       </set>
       <set comment="band 4">
        <r>  0.0002  0.0505  0.0409  0.0710  0.0000  0.0000  0.0000  0.0000  0.0000 </r>
        <r>  0.0002  0.0505  0.0409  0.0710  0.0000  0.0000  0.0000  0.0000  0.0000 </r>
       </set>
       <set comment="band 5">
        <r>  0.0100  0.0082  0.0065  0.0721  0.0000  0.0000  0.0000  0.0000  0.0000 </r>
        <r>  0.0100  0.0082  0.0065  0.0721  0.0000  0.0000  0.0000  0.0000  0.0000 </r>
       </set>
       <set comment="band 6">
        <r>  0.0025  0.0029  0.0010  0.0827  0.0000  0.0000  0.0000  0.0000  0.0000 </r>
        <r>  0.0025  0.0029  0.0010  0.0827  0.0000  0.0000  0.0000  0.0000  0.0000 </r>
       </set>
       <set comment="band 7">
        <r>  0.0530  0.0410  0.0457  0.0136  0.0000  0.0000  0.0000  0.0000  0.0000 </r>
        <r>  0.0530  0.0410  0.0457  0.0136  0.0000  0.0000  0.0000  0.0000  0.0000 </r>
       </set>
       <set comment="band 8">
        <r>  0.0571  0.0508  0.0509  0.0039  0.0000  0.0000  0.0000  0.0000  0.0000 </r>
        <r>  0.0571  0.0508  0.0509  0.0039  0.0000  0.0000  0.0000  0.0000  0.0000 </r>
       </set>
       <set comment="band 9">
        <r>  0.0003  0.0446  0.0525  0.0387  0.0000  0.0000  0.0000  0.0000  0.0000 </r>
        <r>  0.0003  0.0446  0.0525  0.0387  0.0000  0.0000  0.0000  0.0000  0.0000 </r>
       </set>
       <set comment="band 10">
        <r>  0.0004  0.0580  0.0352  0.0375  0.0000  0.0000  0.0000  0.0000  0.0000 </r>
        <r>  0.0004  0.0580  0.0352  0.0376  0.0000  0.0000  0.0000  0.0000  0.0000 </r>
       </set>
       <set comment="band 11">
        <r>  0.0268  0.0384  0.0663  0.0003  0.0000  0.0000  0.0000  0.0000  0.0000 </r>
        <r>  0.0268  0.0384  0.0663  0.0003  0.0000  0.0000  0.0000  0.0000  0.0000 </r>
       </set>
       <set comment="band 12">
        <r>  0.0242  0.0585  0.0483  0.0002  0.0000  0.0000  0.0000  0.0000  0.0000 </r>
        <r>  0.0243  0.0585  0.0483  0.0002  0.0000  0.0000  0.0000  0.0000  0.0000 </r>
       </set>
      </set>
      <set comment="kpoint 113">
       <set comment="band 1">
        <r>  0.2066  0.0186  0.0216  0.0001  0.0000  0.0000  0.0000  0.0000  0.0000 </r>
        <r>  0.2066  0.0186  0.0216  0.0001  0.0000  0.0000  0.0000  0.0000  0.0000 </r>
       </set>
       <set comment="band 2">
        <r>  0.2025  0.0189  0.0255  0.0001  0.0000  0.0000  0.0000  0.0000  0.0000 </r>
        <r>  0.2025  0.0189  0.0255  0.0001  0.0000  0.0000  0.0000  0.0000  0.0000 </r>
       </set>
       <set comment="band 3">
        <r>  0.0000  0.0472  0.0453  0.0675  0.0000  0.0000  0.0000  0.0000  0.0000 </r>
        <r>  0.0000  0.0472  0.0453  0.0675  0.0000  0.0000  0.0000  0.0000  0.0000 </r>
       </set>
       <set comment="band 4">
        <r>  0.0003  0.0521  0.0393  0.0715  0.0000  0.0000  0.0000  0.0000  0.0000 </r>
        <r>  0.0003  0.0521  0.0393  0.0715  0.0000  0.0000  0.0000  0.0000  0.0000 </r>
       </set>
       <set comment="band 5">
        <r>  0.0141  0.0106  0.0094  0.0665  0.0000  0.0000  0.0000  0.0000  0.0000 </r>
        <r>  0.0141  0.0106  0.0094  0.0665  0.0000  0.0000  0.0000  0.0000  0.0000 </r>
       </set>
       <set comment="band 6">
        <r>  0.0041  0.0045  0.0019  0.0803  0.0000  0.0000  0.0000  0.0000  0.0000 </r>
        <r>  0.0041  0.0045  0.0019  0.0803  0.0000  0.0000  0.0000  0.0000  0.0000 </r>
       </set>
       <set comment="band 7">
        <r>  0.0495  0.0377  0.0430  0.0189  0.0000  0.0000  0.0000  0.0000  0.0000 </r>
        <r>  0.0495  0.0377  0.0430  0.0189  0.0000  0.0000  0.0000  0.0000  0.0000 </r>
       </set>
       <set comment="band 8">
        <r>  0.0550  0.0499  0.0501  0.0063  0.0000  0.0000  0.0000  0.0000  0.0000 </r>
        <r>  0.0550  0.0499  0.0501  0.0063  0.0000  0.0000  0.0000  0.0000  0.0000 </r>
       </set>
       <set comment="band 9">
        <r>  0.0005  0.0437  0.0538  0.0387  0.0000  0.0000  0.0000  0.0000  0.0000 </r>
        <r>  0.0005  0.0437  0.0538  0.0387  0.0000  0.0000  0.0000  0.0000  0.0000 </r>
       </set>
       <set comment="band 10">
        <r>  0.0007  0.0619  0.0305  0.0370  0.0000  0.0000  0.0000  0.0000  0.0000 </r>
        <r>  0.0007  0.0619  0.0305  0.0370  0.0000  0.0000  0.0000  0.0000  0.0000 </r>
       </set>
       <set comment="band 11">
        <r>  0.0268  0.0332  0.0714  0.0007  0.0000  0.0000  0.0000  0.0000  0.0000 </r>
        <r>  0.0268  0.0331  0.0714  0.0007  0.0000  0.0000  0.0000  0.0000  0.0000 </r>
       </set>
       <set comment="band 12">
        <r>  0.0235  0.0603  0.0469  0.0003  0.0000  0.0000  0.0000  0.0000  0.0000 </r>
        <r>  0.0236  0.0598  0.0474  0.0004  0.0000  0.0000  0.0000  0.0000  0.0000 </r>
       </set>
      </set>
      <set comment="kpoint 114">
       <set comment="band 1">
        <r>  0.2071  0.0180  0.0217  0.0001  0.0000  0.0000  0.0000  0.0000  0.0000 </r>
        <r>  0.2071  0.0180  0.0217  0.0001  0.0000  0.0000  0.0000  0.0000  0.0000 </r>
       </set>
       <set comment="band 2">
        <r>  0.2018  0.0183  0.0266  0.0002  0.0000  0.0000  0.0000  0.0000  0.0000 </r>
        <r>  0.2018  0.0183  0.0266  0.0002  0.0000  0.0000  0.0000  0.0000  0.0000 </r>
       </set>
       <set comment="band 3">
        <r>  0.0000  0.0475  0.0451  0.0670  0.0000  0.0000  0.0000  0.0000  0.0000 </r>
        <r>  0.0000  0.0475  0.0451  0.0670  0.0000  0.0000  0.0000  0.0000  0.0000 </r>
       </set>
       <set comment="band 4">
        <r>  0.0005  0.0537  0.0376  0.0721  0.0000  0.0000  0.0000  0.0000  0.0000 </r>
        <r>  0.0005  0.0537  0.0376  0.0721  0.0000  0.0000  0.0000  0.0000  0.0000 </r>
       </set>
       <set comment="band 5">
        <r>  0.0175  0.0124  0.0119  0.0618  0.0000  0.0000  0.0000  0.0000  0.0000 </r>
        <r>  0.0175  0.0124  0.0119  0.0618  0.0000  0.0000  0.0000  0.0000  0.0000 </r>
       </set>
       <set comment="band 6">
        <r>  0.0059  0.0062  0.0029  0.0777  0.0000  0.0000  0.0000  0.0000  0.0000 </r>
        <r>  0.0058  0.0062  0.0029  0.0777  0.0000  0.0000  0.0000  0.0000  0.0000 </r>
       </set>
       <set comment="band 7">
        <r>  0.0467  0.0350  0.0407  0.0234  0.0000  0.0000  0.0000  0.0000  0.0000 </r>
        <r>  0.0467  0.0350  0.0407  0.0234  0.0000  0.0000  0.0000  0.0000  0.0000 </r>
       </set>
       <set comment="band 8">
        <r>  0.0527  0.0490  0.0492  0.0091  0.0000  0.0000  0.0000  0.0000  0.0000 </r>
        <r>  0.0527  0.0490  0.0492  0.0091  0.0000  0.0000  0.0000  0.0000  0.0000 </r>
       </set>
       <set comment="band 9">
        <r>  0.0008  0.0430  0.0550  0.0387  0.0000  0.0000  0.0000  0.0000  0.0000 </r>
        <r>  0.0008  0.0430  0.0550  0.0387  0.0000  0.0000  0.0000  0.0000  0.0000 </r>
       </set>
       <set comment="band 10">
        <r>  0.0012  0.0659  0.0256  0.0363  0.0000  0.0000  0.0000  0.0000  0.0000 </r>
        <r>  0.0012  0.0659  0.0256  0.0363  0.0000  0.0000  0.0000  0.0000  0.0000 </r>
       </set>
       <set comment="band 11">
        <r>  0.0266  0.0281  0.0762  0.0012  0.0000  0.0000  0.0000  0.0000  0.0000 </r>
        <r>  0.0265  0.0280  0.0764  0.0012  0.0000  0.0000  0.0000  0.0000  0.0000 </r>
       </set>
       <set comment="band 12">
        <r>  0.0228  0.0621  0.0456  0.0005  0.0000  0.0000  0.0000  0.0000  0.0000 </r>
        <r>  0.0229  0.0616  0.0460  0.0006  0.0000  0.0000  0.0000  0.0000  0.0000 </r>
       </set>
      </set>
      <set comment="kpoint 115">
       <set comment="band 1">
        <r>  0.2075  0.0175  0.0218  0.0001  0.0000  0.0000  0.0000  0.0000  0.0000 </r>
        <r>  0.2075  0.0175  0.0218  0.0001  0.0000  0.0000  0.0000  0.0000  0.0000 </r>
       </set>
       <set comment="band 2">
        <r>  0.2010  0.0177  0.0276  0.0002  0.0000  0.0000  0.0000  0.0000  0.0000 </r>
        <r>  0.2010  0.0177  0.0276  0.0002  0.0000  0.0000  0.0000  0.0000  0.0000 </r>
       </set>
       <set comment="band 3">
        <r>  0.0000  0.0478  0.0450  0.0666  0.0000  0.0000  0.0000  0.0000  0.0000 </r>
        <r>  0.0000  0.0478  0.0450  0.0666  0.0000  0.0000  0.0000  0.0000  0.0000 </r>
       </set>
       <set comment="band 4">
        <r>  0.0007  0.0554  0.0359  0.0727  0.0000  0.0000  0.0000  0.0000  0.0000 </r>
        <r>  0.0007  0.0554  0.0359  0.0727  0.0000  0.0000  0.0000  0.0000  0.0000 </r>
       </set>
       <set comment="band 5">
        <r>  0.0204  0.0136  0.0139  0.0579  0.0000  0.0000  0.0000  0.0000  0.0000 </r>
        <r>  0.0204  0.0136  0.0139  0.0579  0.0000  0.0000  0.0000  0.0000  0.0000 </r>
       </set>
       <set comment="band 6">
        <r>  0.0076  0.0078  0.0039  0.0751  0.0000  0.0000  0.0000  0.0000  0.0000 </r>
        <r>  0.0076  0.0078  0.0039  0.0751  0.0000  0.0000  0.0000  0.0000  0.0000 </r>
       </set>
       <set comment="band 7">
        <r>  0.0503  0.0480  0.0482  0.0118  0.0000  0.0000  0.0000  0.0000  0.0000 </r>
        <r>  0.0503  0.0480  0.0482  0.0118  0.0000  0.0000  0.0000  0.0000  0.0000 </r>
       </set>
       <set comment="band 8">
        <r>  0.0444  0.0329  0.0389  0.0270  0.0000  0.0000  0.0000  0.0000  0.0000 </r>
        <r>  0.0444  0.0329  0.0389  0.0270  0.0000  0.0000  0.0000  0.0000  0.0000 </r>
       </set>
       <set comment="band 9">
        <r>  0.0011  0.0423  0.0560  0.0386  0.0000  0.0000  0.0000  0.0000  0.0000 </r>
        <r>  0.0011  0.0423  0.0561  0.0386  0.0000  0.0000  0.0000  0.0000  0.0000 </r>
       </set>
       <set comment="band 10">
        <r>  0.0019  0.0698  0.0206  0.0355  0.0000  0.0000  0.0000  0.0000  0.0000 </r>
        <r>  0.0019  0.0698  0.0206  0.0355  0.0000  0.0000  0.0000  0.0000  0.0000 </r>
       </set>
       <set comment="band 11">
        <r>  0.0261  0.0227  0.0818  0.0019  0.0000  0.0000  0.0000  0.0000  0.0000 </r>
        <r>  0.0261  0.0227  0.0818  0.0019  0.0000  0.0000  0.0000  0.0000  0.0000 </r>
       </set>
       <set comment="band 12">
        <r>  0.0221  0.0633  0.0447  0.0007  0.0000  0.0000  0.0000  0.0000  0.0000 </r>
        <r>  0.0221  0.0630  0.0449  0.0008  0.0000  0.0000  0.0000  0.0000  0.0000 </r>
       </set>
      </set>
      <set comment="kpoint 116">
       <set comment="band 1">
        <r>  0.2079  0.0169  0.0219  0.0002  0.0000  0.0000  0.0000  0.0000  0.0000 </r>
        <r>  0.2079  0.0169  0.0219  0.0002  0.0000  0.0000  0.0000  0.0000  0.0000 </r>
       </set>
       <set comment="band 2">
        <r>  0.2003  0.0171  0.0287  0.0003  0.0000  0.0000  0.0000  0.0000  0.0000 </r>
        <r>  0.2003  0.0171  0.0287  0.0003  0.0000  0.0000  0.0000  0.0000  0.0000 </r>
       </set>
       <set comment="band 3">
        <r>  0.0000  0.0481  0.0448  0.0662  0.0000  0.0000  0.0000  0.0000  0.0000 </r>
        <r>  0.0000  0.0481  0.0448  0.0662  0.0000  0.0000  0.0000  0.0000  0.0000 </r>
       </set>
       <set comment="band 4">
        <r>  0.0009  0.0570  0.0342  0.0733  0.0000  0.0000  0.0000  0.0000  0.0000 </r>
        <r>  0.0009  0.0570  0.0342  0.0733  0.0000  0.0000  0.0000  0.0000  0.0000 </r>
       </set>
       <set comment="band 5">
        <r>  0.0229  0.0144  0.0157  0.0546  0.0000  0.0000  0.0000  0.0000  0.0000 </r>
        <r>  0.0229  0.0144  0.0157  0.0546  0.0000  0.0000  0.0000  0.0000  0.0000 </r>
       </set>
       <set comment="band 6">
        <r>  0.0092  0.0095  0.0049  0.0724  0.0000  0.0000  0.0000  0.0000  0.0000 </r>
        <r>  0.0092  0.0095  0.0049  0.0724  0.0000  0.0000  0.0000  0.0000  0.0000 </r>
       </set>
       <set comment="band 7">
        <r>  0.0481  0.0472  0.0473  0.0146  0.0000  0.0000  0.0000  0.0000  0.0000 </r>
        <r>  0.0481  0.0472  0.0473  0.0146  0.0000  0.0000  0.0000  0.0000  0.0000 </r>
       </set>
       <set comment="band 8">
        <r>  0.0425  0.0312  0.0373  0.0300  0.0000  0.0000  0.0000  0.0000  0.0000 </r>
        <r>  0.0425  0.0312  0.0373  0.0300  0.0000  0.0000  0.0000  0.0000  0.0000 </r>
       </set>
       <set comment="band 9">
        <r>  0.0015  0.0417  0.0570  0.0385  0.0000  0.0000  0.0000  0.0000  0.0000 </r>
        <r>  0.0015  0.0417  0.0570  0.0385  0.0000  0.0000  0.0000  0.0000  0.0000 </r>
       </set>
       <set comment="band 10">
        <r>  0.0028  0.0735  0.0159  0.0344  0.0000  0.0000  0.0000  0.0000  0.0000 </r>
        <r>  0.0028  0.0735  0.0159  0.0344  0.0000  0.0000  0.0000  0.0000  0.0000 </r>
       </set>
       <set comment="band 11">
        <r>  0.0254  0.0178  0.0867  0.0028  0.0000  0.0000  0.0000  0.0000  0.0000 </r>
        <r>  0.0254  0.0178  0.0868  0.0028  0.0000  0.0000  0.0000  0.0000  0.0000 </r>
       </set>
       <set comment="band 12">
        <r>  0.0213  0.0646  0.0436  0.0010  0.0000  0.0000  0.0000  0.0000  0.0000 </r>
        <r>  0.0214  0.0640  0.0440  0.0010  0.0000  0.0000  0.0000  0.0000  0.0000 </r>
       </set>
      </set>
      <set comment="kpoint 117">
       <set comment="band 1">
        <r>  0.2082  0.0163  0.0219  0.0002  0.0000  0.0000  0.0000  0.0000  0.0000 </r>
        <r>  0.2082  0.0163  0.0219  0.0002  0.0000  0.0000  0.0000  0.0000  0.0000 </r>
       </set>
       <set comment="band 2">
        <r>  0.1994  0.0165  0.0297  0.0004  0.0000  0.0000  0.0000  0.0000  0.0000 </r>
        <r>  0.1994  0.0165  0.0297  0.0004  0.0000  0.0000  0.0000  0.0000  0.0000 </r>
       </set>
       <set comment="band 3">
        <r>  0.0000  0.0484  0.0447  0.0657  0.0000  0.0000  0.0000  0.0000  0.0000 </r>
        <r>  0.0000  0.0484  0.0447  0.0657  0.0000  0.0000  0.0000  0.0000  0.0000 </r>
       </set>
       <set comment="band 4">
        <r>  0.0011  0.0587  0.0326  0.0740  0.0000  0.0000  0.0000  0.0000  0.0000 </r>
        <r>  0.0011  0.0587  0.0326  0.0740  0.0000  0.0000  0.0000  0.0000  0.0000 </r>
       </set>
       <set comment="band 5">
        <r>  0.0250  0.0148  0.0172  0.0516  0.0000  0.0000  0.0000  0.0000  0.0000 </r>
        <r>  0.0250  0.0148  0.0172  0.0516  0.0000  0.0000  0.0000  0.0000  0.0000 </r>
       </set>
       <set comment="band 6">
        <r>  0.0107  0.0111  0.0058  0.0699  0.0000  0.0000  0.0000  0.0000  0.0000 </r>
        <r>  0.0107  0.0111  0.0058  0.0699  0.0000  0.0000  0.0000  0.0000  0.0000 </r>
       </set>
       <set comment="band 7">
        <r>  0.0459  0.0464  0.0464  0.0172  0.0000  0.0000  0.0000  0.0000  0.0000 </r>
        <r>  0.0459  0.0464  0.0464  0.0172  0.0000  0.0000  0.0000  0.0000  0.0000 </r>
       </set>
       <set comment="band 8">
        <r>  0.0409  0.0298  0.0361  0.0325  0.0000  0.0000  0.0000  0.0000  0.0000 </r>
        <r>  0.0409  0.0298  0.0361  0.0325  0.0000  0.0000  0.0000  0.0000  0.0000 </r>
       </set>
       <set comment="band 9">
        <r>  0.0019  0.0411  0.0579  0.0383  0.0000  0.0000  0.0000  0.0000  0.0000 </r>
        <r>  0.0018  0.0411  0.0579  0.0383  0.0000  0.0000  0.0000  0.0000  0.0000 </r>
       </set>
       <set comment="band 10">
        <r>  0.0038  0.0768  0.0116  0.0331  0.0000  0.0000  0.0000  0.0000  0.0000 </r>
        <r>  0.0038  0.0768  0.0116  0.0331  0.0000  0.0000  0.0000  0.0000  0.0000 </r>
       </set>
       <set comment="band 11">
        <r>  0.0245  0.0132  0.0914  0.0039  0.0000  0.0000  0.0000  0.0000  0.0000 </r>
        <r>  0.0245  0.0132  0.0914  0.0039  0.0000  0.0000  0.0000  0.0000  0.0000 </r>
       </set>
       <set comment="band 12">
        <r>  0.0205  0.0655  0.0430  0.0012  0.0000  0.0000  0.0000  0.0000  0.0000 </r>
        <r>  0.0205  0.0656  0.0430  0.0012  0.0000  0.0000  0.0000  0.0000  0.0000 </r>
       </set>
      </set>
      <set comment="kpoint 118">
       <set comment="band 1">
        <r>  0.2086  0.0158  0.0220  0.0003  0.0000  0.0000  0.0000  0.0000  0.0000 </r>
        <r>  0.2086  0.0158  0.0220  0.0003  0.0000  0.0000  0.0000  0.0000  0.0000 </r>
       </set>
       <set comment="band 2">
        <r>  0.1986  0.0159  0.0307  0.0005  0.0000  0.0000  0.0000  0.0000  0.0000 </r>
        <r>  0.1986  0.0159  0.0307  0.0005  0.0000  0.0000  0.0000  0.0000  0.0000 </r>
       </set>
       <set comment="band 3">
        <r>  0.0000  0.0487  0.0446  0.0653  0.0000  0.0000  0.0000  0.0000  0.0000 </r>
        <r>  0.0000  0.0487  0.0446  0.0653  0.0000  0.0000  0.0000  0.0000  0.0000 </r>
       </set>
       <set comment="band 4">
        <r>  0.0014  0.0604  0.0309  0.0747  0.0000  0.0000  0.0000  0.0000  0.0000 </r>
        <r>  0.0014  0.0604  0.0309  0.0747  0.0000  0.0000  0.0000  0.0000  0.0000 </r>
       </set>
       <set comment="band 5">
        <r>  0.0270  0.0150  0.0185  0.0490  0.0000  0.0000  0.0000  0.0000  0.0000 </r>
        <r>  0.0270  0.0150  0.0185  0.0490  0.0000  0.0000  0.0000  0.0000  0.0000 </r>
       </set>
       <set comment="band 6">
        <r>  0.0122  0.0126  0.0067  0.0676  0.0000  0.0000  0.0000  0.0000  0.0000 </r>
        <r>  0.0122  0.0126  0.0067  0.0676  0.0000  0.0000  0.0000  0.0000  0.0000 </r>
       </set>
       <set comment="band 7">
        <r>  0.0438  0.0457  0.0455  0.0197  0.0000  0.0000  0.0000  0.0000  0.0000 </r>
        <r>  0.0438  0.0457  0.0455  0.0197  0.0000  0.0000  0.0000  0.0000  0.0000 </r>
       </set>
       <set comment="band 8">
        <r>  0.0396  0.0287  0.0350  0.0347  0.0000  0.0000  0.0000  0.0000  0.0000 </r>
        <r>  0.0396  0.0287  0.0350  0.0347  0.0000  0.0000  0.0000  0.0000  0.0000 </r>
       </set>
       <set comment="band 9">
        <r>  0.0023  0.0406  0.0587  0.0382  0.0000  0.0000  0.0000  0.0000  0.0000 </r>
        <r>  0.0023  0.0406  0.0587  0.0382  0.0000  0.0000  0.0000  0.0000  0.0000 </r>
       </set>
       <set comment="band 10">
        <r>  0.0050  0.0796  0.0079  0.0317  0.0000  0.0000  0.0000  0.0000  0.0000 </r>
        <r>  0.0050  0.0796  0.0079  0.0317  0.0000  0.0000  0.0000  0.0000  0.0000 </r>
       </set>
       <set comment="band 11">
        <r>  0.0234  0.0093  0.0954  0.0051  0.0000  0.0000  0.0000  0.0000  0.0000 </r>
        <r>  0.0235  0.0094  0.0953  0.0052  0.0000  0.0000  0.0000  0.0000  0.0000 </r>
       </set>
       <set comment="band 12">
        <r>  0.0196  0.0669  0.0420  0.0015  0.0000  0.0000  0.0000  0.0000  0.0000 </r>
        <r>  0.0198  0.0664  0.0423  0.0015  0.0000  0.0000  0.0000  0.0000  0.0000 </r>
       </set>
      </set>
      <set comment="kpoint 119">
       <set comment="band 1">
        <r>  0.2090  0.0152  0.0221  0.0004  0.0000  0.0000  0.0000  0.0000  0.0000 </r>
        <r>  0.2090  0.0152  0.0221  0.0004  0.0000  0.0000  0.0000  0.0000  0.0000 </r>
       </set>
       <set comment="band 2">
        <r>  0.1977  0.0154  0.0317  0.0007  0.0000  0.0000  0.0000  0.0000  0.0000 </r>
        <r>  0.1977  0.0154  0.0317  0.0007  0.0000  0.0000  0.0000  0.0000  0.0000 </r>
       </set>
       <set comment="band 3">
        <r>  0.0000  0.0490  0.0445  0.0649  0.0000  0.0000  0.0000  0.0000  0.0000 </r>
        <r>  0.0000  0.0490  0.0445  0.0649  0.0000  0.0000  0.0000  0.0000  0.0000 </r>
       </set>
       <set comment="band 4">
        <r>  0.0016  0.0621  0.0293  0.0754  0.0000  0.0000  0.0000  0.0000  0.0000 </r>
        <r>  0.0016  0.0621  0.0293  0.0754  0.0000  0.0000  0.0000  0.0000  0.0000 </r>
       </set>
       <set comment="band 5">
        <r>  0.0287  0.0150  0.0197  0.0467  0.0000  0.0000  0.0000  0.0000  0.0000 </r>
        <r>  0.0287  0.0150  0.0197  0.0467  0.0000  0.0000  0.0000  0.0000  0.0000 </r>
       </set>
       <set comment="band 6">
        <r>  0.0134  0.0140  0.0074  0.0653  0.0000  0.0000  0.0000  0.0000  0.0000 </r>
        <r>  0.0134  0.0140  0.0074  0.0653  0.0000  0.0000  0.0000  0.0000  0.0000 </r>
       </set>
       <set comment="band 7">
        <r>  0.0419  0.0451  0.0448  0.0220  0.0000  0.0000  0.0000  0.0000  0.0000 </r>
        <r>  0.0419  0.0451  0.0447  0.0220  0.0000  0.0000  0.0000  0.0000  0.0000 </r>
       </set>
       <set comment="band 8">
        <r>  0.0385  0.0277  0.0340  0.0366  0.0000  0.0000  0.0000  0.0000  0.0000 </r>
        <r>  0.0385  0.0277  0.0340  0.0366  0.0000  0.0000  0.0000  0.0000  0.0000 </r>
       </set>
       <set comment="band 9">
        <r>  0.0027  0.0401  0.0594  0.0380  0.0000  0.0000  0.0000  0.0000  0.0000 </r>
        <r>  0.0027  0.0401  0.0594  0.0380  0.0000  0.0000  0.0000  0.0000  0.0000 </r>
       </set>
       <set comment="band 10">
        <r>  0.0064  0.0817  0.0049  0.0302  0.0000  0.0000  0.0000  0.0000  0.0000 </r>
        <r>  0.0064  0.0817  0.0049  0.0302  0.0000  0.0000  0.0000  0.0000  0.0000 </r>
       </set>
       <set comment="band 11">
        <r>  0.0222  0.0061  0.0987  0.0065  0.0000  0.0000  0.0000  0.0000  0.0000 </r>
        <r>  0.0222  0.0061  0.0987  0.0065  0.0000  0.0000  0.0000  0.0000  0.0000 </r>
       </set>
       <set comment="band 12">
        <r>  0.0189  0.0673  0.0413  0.0017  0.0000  0.0000  0.0000  0.0000  0.0000 </r>
        <r>  0.0189  0.0677  0.0412  0.0017  0.0000  0.0000  0.0000  0.0000  0.0000 </r>
       </set>
      </set>
      <set comment="kpoint 120">
       <set comment="band 1">
        <r>  0.2093  0.0147  0.0222  0.0004  0.0000  0.0000  0.0000  0.0000  0.0000 </r>
        <r>  0.2093  0.0147  0.0222  0.0004  0.0000  0.0000  0.0000  0.0000  0.0000 </r>
       </set>
       <set comment="band 2">
        <r>  0.1968  0.0148  0.0327  0.0008  0.0000  0.0000  0.0000  0.0000  0.0000 </r>
        <r>  0.1969  0.0148  0.0327  0.0008  0.0000  0.0000  0.0000  0.0000  0.0000 </r>
       </set>
       <set comment="band 3">
        <r>  0.0000  0.0493  0.0443  0.0645  0.0000  0.0000  0.0000  0.0000  0.0000 </r>
        <r>  0.0000  0.0493  0.0443  0.0645  0.0000  0.0000  0.0000  0.0000  0.0000 </r>
       </set>
       <set comment="band 4">
        <r>  0.0019  0.0639  0.0277  0.0762  0.0000  0.0000  0.0000  0.0000  0.0000 </r>
        <r>  0.0019  0.0639  0.0277  0.0762  0.0000  0.0000  0.0000  0.0000  0.0000 </r>
       </set>
       <set comment="band 5">
        <r>  0.0303  0.0149  0.0208  0.0444  0.0000  0.0000  0.0000  0.0000  0.0000 </r>
        <r>  0.0303  0.0149  0.0208  0.0444  0.0000  0.0000  0.0000  0.0000  0.0000 </r>
       </set>
       <set comment="band 6">
        <r>  0.0146  0.0153  0.0081  0.0633  0.0000  0.0000  0.0000  0.0000  0.0000 </r>
        <r>  0.0146  0.0153  0.0081  0.0633  0.0000  0.0000  0.0000  0.0000  0.0000 </r>
       </set>
       <set comment="band 7">
        <r>  0.0400  0.0446  0.0441  0.0242  0.0000  0.0000  0.0000  0.0000  0.0000 </r>
        <r>  0.0400  0.0447  0.0440  0.0242  0.0000  0.0000  0.0000  0.0000  0.0000 </r>
       </set>
       <set comment="band 8">
        <r>  0.0376  0.0269  0.0332  0.0384  0.0000  0.0000  0.0000  0.0000  0.0000 </r>
        <r>  0.0376  0.0269  0.0332  0.0384  0.0000  0.0000  0.0000  0.0000  0.0000 </r>
       </set>
       <set comment="band 9">
        <r>  0.0032  0.0397  0.0600  0.0377  0.0000  0.0000  0.0000  0.0000  0.0000 </r>
        <r>  0.0032  0.0397  0.0600  0.0377  0.0000  0.0000  0.0000  0.0000  0.0000 </r>
       </set>
       <set comment="band 10">
        <r>  0.0077  0.0830  0.0027  0.0286  0.0000  0.0000  0.0000  0.0000  0.0000 </r>
        <r>  0.0077  0.0830  0.0027  0.0286  0.0000  0.0000  0.0000  0.0000  0.0000 </r>
       </set>
       <set comment="band 11">
        <r>  0.0209  0.0037  0.1012  0.0079  0.0000  0.0000  0.0000  0.0000  0.0000 </r>
        <r>  0.0209  0.0037  0.1012  0.0079  0.0000  0.0000  0.0000  0.0000  0.0000 </r>
       </set>
       <set comment="band 12">
        <r>  0.0181  0.0685  0.0404  0.0020  0.0000  0.0000  0.0000  0.0000  0.0000 </r>
        <r>  0.0180  0.0686  0.0405  0.0020  0.0000  0.0000  0.0000  0.0000  0.0000 </r>
       </set>
      </set>
      <set comment="kpoint 121">
       <set comment="band 1">
        <r>  0.2096  0.0142  0.0223  0.0005  0.0000  0.0000  0.0000  0.0000  0.0000 </r>
        <r>  0.2096  0.0142  0.0223  0.0005  0.0000  0.0000  0.0000  0.0000  0.0000 </r>
       </set>
       <set comment="band 2">
        <r>  0.1960  0.0143  0.0336  0.0009  0.0000  0.0000  0.0000  0.0000  0.0000 </r>
        <r>  0.1960  0.0143  0.0336  0.0009  0.0000  0.0000  0.0000  0.0000  0.0000 </r>
       </set>
       <set comment="band 3">
        <r>  0.0000  0.0496  0.0442  0.0641  0.0000  0.0000  0.0000  0.0000  0.0000 </r>
        <r>  0.0000  0.0496  0.0442  0.0641  0.0000  0.0000  0.0000  0.0000  0.0000 </r>
       </set>
       <set comment="band 4">
        <r>  0.0021  0.0657  0.0260  0.0770  0.0000  0.0000  0.0000  0.0000  0.0000 </r>
        <r>  0.0021  0.0657  0.0260  0.0770  0.0000  0.0000  0.0000  0.0000  0.0000 </r>
       </set>
       <set comment="band 5">
        <r>  0.0318  0.0146  0.0218  0.0423  0.0000  0.0000  0.0000  0.0000  0.0000 </r>
        <r>  0.0318  0.0146  0.0218  0.0423  0.0000  0.0000  0.0000  0.0000  0.0000 </r>
       </set>
       <set comment="band 6">
        <r>  0.0156  0.0165  0.0087  0.0613  0.0000  0.0000  0.0000  0.0000  0.0000 </r>
        <r>  0.0156  0.0165  0.0087  0.0613  0.0000  0.0000  0.0000  0.0000  0.0000 </r>
       </set>
       <set comment="band 7">
        <r>  0.0383  0.0443  0.0434  0.0262  0.0000  0.0000  0.0000  0.0000  0.0000 </r>
        <r>  0.0383  0.0443  0.0434  0.0262  0.0000  0.0000  0.0000  0.0000  0.0000 </r>
       </set>
       <set comment="band 8">
        <r>  0.0368  0.0261  0.0324  0.0400  0.0000  0.0000  0.0000  0.0000  0.0000 </r>
        <r>  0.0368  0.0261  0.0324  0.0400  0.0000  0.0000  0.0000  0.0000  0.0000 </r>
       </set>
       <set comment="band 9">
        <r>  0.0037  0.0392  0.0606  0.0375  0.0000  0.0000  0.0000  0.0000  0.0000 </r>
        <r>  0.0037  0.0392  0.0606  0.0375  0.0000  0.0000  0.0000  0.0000  0.0000 </r>
       </set>
       <set comment="band 10">
        <r>  0.0091  0.0837  0.0012  0.0271  0.0000  0.0000  0.0000  0.0000  0.0000 </r>
        <r>  0.0091  0.0837  0.0012  0.0271  0.0000  0.0000  0.0000  0.0000  0.0000 </r>
       </set>
       <set comment="band 11">
        <r>  0.0197  0.0019  0.1029  0.0093  0.0000  0.0000  0.0000  0.0000  0.0000 </r>
        <r>  0.0196  0.0019  0.1029  0.0093  0.0000  0.0000  0.0000  0.0000  0.0000 </r>
       </set>
       <set comment="band 12">
        <r>  0.0172  0.0692  0.0401  0.0023  0.0000  0.0000  0.0000  0.0000  0.0000 </r>
        <r>  0.0171  0.0698  0.0397  0.0023  0.0000  0.0000  0.0000  0.0000  0.0000 </r>
       </set>
      </set>
      <set comment="kpoint 122">
       <set comment="band 1">
        <r>  0.2100  0.0136  0.0223  0.0006  0.0000  0.0000  0.0000  0.0000  0.0000 </r>
        <r>  0.2100  0.0136  0.0223  0.0006  0.0000  0.0000  0.0000  0.0000  0.0000 </r>
       </set>
       <set comment="band 2">
        <r>  0.1951  0.0138  0.0345  0.0011  0.0000  0.0000  0.0000  0.0000  0.0000 </r>
        <r>  0.1951  0.0138  0.0345  0.0011  0.0000  0.0000  0.0000  0.0000  0.0000 </r>
       </set>
       <set comment="band 3">
        <r>  0.0000  0.0499  0.0441  0.0637  0.0000  0.0000  0.0000  0.0000  0.0000 </r>
        <r>  0.0000  0.0499  0.0441  0.0637  0.0000  0.0000  0.0000  0.0000  0.0000 </r>
       </set>
       <set comment="band 4">
        <r>  0.0023  0.0674  0.0244  0.0778  0.0000  0.0000  0.0000  0.0000  0.0000 </r>
        <r>  0.0023  0.0674  0.0244  0.0778  0.0000  0.0000  0.0000  0.0000  0.0000 </r>
       </set>
       <set comment="band 5">
        <r>  0.0331  0.0142  0.0228  0.0403  0.0000  0.0000  0.0000  0.0000  0.0000 </r>
        <r>  0.0331  0.0142  0.0228  0.0403  0.0000  0.0000  0.0000  0.0000  0.0000 </r>
       </set>
       <set comment="band 6">
        <r>  0.0166  0.0177  0.0093  0.0596  0.0000  0.0000  0.0000  0.0000  0.0000 </r>
        <r>  0.0166  0.0177  0.0093  0.0596  0.0000  0.0000  0.0000  0.0000  0.0000 </r>
       </set>
       <set comment="band 7">
        <r>  0.0366  0.0441  0.0428  0.0281  0.0000  0.0000  0.0000  0.0000  0.0000 </r>
        <r>  0.0366  0.0441  0.0428  0.0281  0.0000  0.0000  0.0000  0.0000  0.0000 </r>
       </set>
       <set comment="band 8">
        <r>  0.0360  0.0255  0.0318  0.0414  0.0000  0.0000  0.0000  0.0000  0.0000 </r>
        <r>  0.0360  0.0255  0.0318  0.0414  0.0000  0.0000  0.0000  0.0000  0.0000 </r>
       </set>
       <set comment="band 9">
        <r>  0.0043  0.0388  0.0612  0.0371  0.0000  0.0000  0.0000  0.0000  0.0000 </r>
        <r>  0.0043  0.0388  0.0612  0.0371  0.0000  0.0000  0.0000  0.0000  0.0000 </r>
       </set>
       <set comment="band 10">
        <r>  0.0103  0.0839  0.0003  0.0256  0.0000  0.0000  0.0000  0.0000  0.0000 </r>
        <r>  0.0103  0.0839  0.0003  0.0256  0.0000  0.0000  0.0000  0.0000  0.0000 </r>
       </set>
       <set comment="band 11">
        <r>  0.0184  0.0008  0.1040  0.0107  0.0000  0.0000  0.0000  0.0000  0.0000 </r>
        <r>  0.0184  0.0008  0.1040  0.0107  0.0000  0.0000  0.0000  0.0000  0.0000 </r>
       </set>
       <set comment="band 12">
        <r>  0.0164  0.0694  0.0393  0.0027  0.0000  0.0000  0.0000  0.0000  0.0000 </r>
        <r>  0.0165  0.0706  0.0389  0.0026  0.0000  0.0000  0.0000  0.0000  0.0000 </r>
       </set>
      </set>
      <set comment="kpoint 123">
       <set comment="band 1">
        <r>  0.2102  0.0131  0.0224  0.0007  0.0000  0.0000  0.0000  0.0000  0.0000 </r>
        <r>  0.2103  0.0131  0.0224  0.0007  0.0000  0.0000  0.0000  0.0000  0.0000 </r>
       </set>
       <set comment="band 2">
        <r>  0.1942  0.0132  0.0354  0.0013  0.0000  0.0000  0.0000  0.0000  0.0000 </r>
        <r>  0.1942  0.0132  0.0354  0.0013  0.0000  0.0000  0.0000  0.0000  0.0000 </r>
       </set>
       <set comment="band 3">
        <r>  0.0000  0.0502  0.0440  0.0633  0.0000  0.0000  0.0000  0.0000  0.0000 </r>
        <r>  0.0000  0.0502  0.0440  0.0633  0.0000  0.0000  0.0000  0.0000  0.0000 </r>
       </set>
       <set comment="band 4">
        <r>  0.0025  0.0692  0.0229  0.0787  0.0000  0.0000  0.0000  0.0000  0.0000 </r>
        <r>  0.0025  0.0692  0.0229  0.0787  0.0000  0.0000  0.0000  0.0000  0.0000 </r>
       </set>
       <set comment="band 5">
        <r>  0.0345  0.0137  0.0237  0.0383  0.0000  0.0000  0.0000  0.0000  0.0000 </r>
        <r>  0.0345  0.0137  0.0237  0.0383  0.0000  0.0000  0.0000  0.0000  0.0000 </r>
       </set>
       <set comment="band 6">
        <r>  0.0174  0.0188  0.0098  0.0579  0.0000  0.0000  0.0000  0.0000  0.0000 </r>
        <r>  0.0174  0.0188  0.0098  0.0579  0.0000  0.0000  0.0000  0.0000  0.0000 </r>
       </set>
       <set comment="band 7">
        <r>  0.0351  0.0439  0.0422  0.0299  0.0000  0.0000  0.0000  0.0000  0.0000 </r>
        <r>  0.0351  0.0439  0.0422  0.0299  0.0000  0.0000  0.0000  0.0000  0.0000 </r>
       </set>
       <set comment="band 8">
        <r>  0.0354  0.0250  0.0311  0.0428  0.0000  0.0000  0.0000  0.0000  0.0000 </r>
        <r>  0.0354  0.0250  0.0311  0.0428  0.0000  0.0000  0.0000  0.0000  0.0000 </r>
       </set>
       <set comment="band 9">
        <r>  0.0049  0.0384  0.0618  0.0368  0.0000  0.0000  0.0000  0.0000  0.0000 </r>
        <r>  0.0049  0.0384  0.0618  0.0368  0.0000  0.0000  0.0000  0.0000  0.0000 </r>
       </set>
       <set comment="band 10">
        <r>  0.0116  0.0835  0.0000  0.0242  0.0000  0.0000  0.0000  0.0000  0.0000 </r>
        <r>  0.0115  0.0835  0.0000  0.0242  0.0000  0.0000  0.0000  0.0000  0.0000 </r>
       </set>
       <set comment="band 11">
        <r>  0.0171  0.0002  0.1046  0.0120  0.0000  0.0000  0.0000  0.0000  0.0000 </r>
        <r>  0.0172  0.0002  0.1046  0.0120  0.0000  0.0000  0.0000  0.0000  0.0000 </r>
       </set>
       <set comment="band 12">
        <r>  0.0153  0.0706  0.0387  0.0031  0.0000  0.0000  0.0000  0.0000  0.0000 </r>
        <r>  0.0154  0.0713  0.0378  0.0029  0.0000  0.0000  0.0000  0.0000  0.0000 </r>
       </set>
      </set>
      <set comment="kpoint 124">
       <set comment="band 1">
        <r>  0.2105  0.0126  0.0225  0.0008  0.0000  0.0000  0.0000  0.0000  0.0000 </r>
        <r>  0.2105  0.0126  0.0225  0.0008  0.0000  0.0000  0.0000  0.0000  0.0000 </r>
       </set>
       <set comment="band 2">
        <r>  0.1933  0.0127  0.0362  0.0014  0.0000  0.0000  0.0000  0.0000  0.0000 </r>
        <r>  0.1933  0.0127  0.0362  0.0014  0.0000  0.0000  0.0000  0.0000  0.0000 </r>
       </set>
       <set comment="band 3">
        <r>  0.0000  0.0505  0.0439  0.0630  0.0000  0.0000  0.0000  0.0000  0.0000 </r>
        <r>  0.0000  0.0505  0.0439  0.0630  0.0000  0.0000  0.0000  0.0000  0.0000 </r>
       </set>
       <set comment="band 4">
        <r>  0.0027  0.0710  0.0213  0.0796  0.0000  0.0000  0.0000  0.0000  0.0000 </r>
        <r>  0.0027  0.0710  0.0213  0.0796  0.0000  0.0000  0.0000  0.0000  0.0000 </r>
       </set>
       <set comment="band 5">
        <r>  0.0357  0.0131  0.0247  0.0364  0.0000  0.0000  0.0000  0.0000  0.0000 </r>
        <r>  0.0357  0.0131  0.0247  0.0364  0.0000  0.0000  0.0000  0.0000  0.0000 </r>
       </set>
       <set comment="band 6">
        <r>  0.0182  0.0199  0.0102  0.0563  0.0000  0.0000  0.0000  0.0000  0.0000 </r>
        <r>  0.0182  0.0199  0.0102  0.0563  0.0000  0.0000  0.0000  0.0000  0.0000 </r>
       </set>
       <set comment="band 7">
        <r>  0.0335  0.0438  0.0417  0.0316  0.0000  0.0000  0.0000  0.0000  0.0000 </r>
        <r>  0.0335  0.0439  0.0417  0.0316  0.0000  0.0000  0.0000  0.0000  0.0000 </r>
       </set>
       <set comment="band 8">
        <r>  0.0348  0.0245  0.0305  0.0440  0.0000  0.0000  0.0000  0.0000  0.0000 </r>
        <r>  0.0348  0.0245  0.0305  0.0440  0.0000  0.0000  0.0000  0.0000  0.0000 </r>
       </set>
       <set comment="band 9">
        <r>  0.0055  0.0380  0.0623  0.0364  0.0000  0.0000  0.0000  0.0000  0.0000 </r>
        <r>  0.0055  0.0380  0.0623  0.0364  0.0000  0.0000  0.0000  0.0000  0.0000 </r>
       </set>
       <set comment="band 10">
        <r>  0.0127  0.0827  0.0001  0.0229  0.0000  0.0000  0.0000  0.0000  0.0000 </r>
        <r>  0.0127  0.0827  0.0001  0.0229  0.0000  0.0000  0.0000  0.0000  0.0000 </r>
       </set>
       <set comment="band 11">
        <r>  0.0161  0.0000  0.1045  0.0131  0.0000  0.0000  0.0000  0.0000  0.0000 </r>
        <r>  0.0161  0.0000  0.1047  0.0131  0.0000  0.0000  0.0000  0.0000  0.0000 </r>
       </set>
       <set comment="band 12">
        <r>  0.0146  0.0720  0.0370  0.0033  0.0000  0.0000  0.0000  0.0000  0.0000 </r>
        <r>  0.0144  0.0716  0.0377  0.0034  0.0000  0.0000  0.0000  0.0000  0.0000 </r>
       </set>
      </set>
      <set comment="kpoint 125">
       <set comment="band 1">
        <r>  0.2108  0.0122  0.0225  0.0009  0.0000  0.0000  0.0000  0.0000  0.0000 </r>
        <r>  0.2108  0.0122  0.0225  0.0009  0.0000  0.0000  0.0000  0.0000  0.0000 </r>
       </set>
       <set comment="band 2">
        <r>  0.1925  0.0123  0.0370  0.0016  0.0000  0.0000  0.0000  0.0000  0.0000 </r>
        <r>  0.1925  0.0123  0.0370  0.0016  0.0000  0.0000  0.0000  0.0000  0.0000 </r>
       </set>
       <set comment="band 3">
        <r>  0.0000  0.0508  0.0439  0.0626  0.0000  0.0000  0.0000  0.0000  0.0000 </r>
        <r>  0.0000  0.0508  0.0439  0.0626  0.0000  0.0000  0.0000  0.0000  0.0000 </r>
       </set>
       <set comment="band 4">
        <r>  0.0028  0.0729  0.0198  0.0806  0.0000  0.0000  0.0000  0.0000  0.0000 </r>
        <r>  0.0028  0.0729  0.0198  0.0806  0.0000  0.0000  0.0000  0.0000  0.0000 </r>
       </set>
       <set comment="band 5">
        <r>  0.0370  0.0124  0.0256  0.0345  0.0000  0.0000  0.0000  0.0000  0.0000 </r>
        <r>  0.0370  0.0124  0.0256  0.0345  0.0000  0.0000  0.0000  0.0000  0.0000 </r>
       </set>
       <set comment="band 6">
        <r>  0.0189  0.0209  0.0106  0.0548  0.0000  0.0000  0.0000  0.0000  0.0000 </r>
        <r>  0.0189  0.0209  0.0106  0.0548  0.0000  0.0000  0.0000  0.0000  0.0000 </r>
       </set>
       <set comment="band 7">
        <r>  0.0321  0.0439  0.0411  0.0332  0.0000  0.0000  0.0000  0.0000  0.0000 </r>
        <r>  0.0321  0.0439  0.0412  0.0332  0.0000  0.0000  0.0000  0.0000  0.0000 </r>
       </set>
       <set comment="band 8">
        <r>  0.0343  0.0241  0.0300  0.0453  0.0000  0.0000  0.0000  0.0000  0.0000 </r>
        <r>  0.0343  0.0241  0.0300  0.0453  0.0000  0.0000  0.0000  0.0000  0.0000 </r>
       </set>
       <set comment="band 9">
        <r>  0.0062  0.0375  0.0628  0.0360  0.0000  0.0000  0.0000  0.0000  0.0000 </r>
        <r>  0.0062  0.0375  0.0628  0.0360  0.0000  0.0000  0.0000  0.0000  0.0000 </r>
       </set>
       <set comment="band 10">
        <r>  0.0137  0.0817  0.0005  0.0218  0.0000  0.0000  0.0000  0.0000  0.0000 </r>
        <r>  0.0137  0.0817  0.0005  0.0218  0.0000  0.0000  0.0000  0.0000  0.0000 </r>
       </set>
       <set comment="band 11">
        <r>  0.0150  0.0001  0.1045  0.0142  0.0000  0.0000  0.0000  0.0000  0.0000 </r>
        <r>  0.0150  0.0001  0.1044  0.0142  0.0000  0.0000  0.0000  0.0000  0.0000 </r>
       </set>
       <set comment="band 12">
        <r>  0.0137  0.0716  0.0372  0.0038  0.0000  0.0000  0.0000  0.0000  0.0000 </r>
        <r>  0.0134  0.0729  0.0365  0.0036  0.0000  0.0000  0.0000  0.0000  0.0000 </r>
       </set>
      </set>
      <set comment="kpoint 126">
       <set comment="band 1">
        <r>  0.2111  0.0117  0.0226  0.0011  0.0000  0.0000  0.0000  0.0000  0.0000 </r>
        <r>  0.2111  0.0117  0.0226  0.0011  0.0000  0.0000  0.0000  0.0000  0.0000 </r>
       </set>
       <set comment="band 2">
        <r>  0.1916  0.0118  0.0377  0.0018  0.0000  0.0000  0.0000  0.0000  0.0000 </r>
        <r>  0.1916  0.0118  0.0377  0.0018  0.0000  0.0000  0.0000  0.0000  0.0000 </r>
       </set>
       <set comment="band 3">
        <r>  0.0000  0.0511  0.0438  0.0622  0.0000  0.0000  0.0000  0.0000  0.0000 </r>
        <r>  0.0000  0.0511  0.0438  0.0622  0.0000  0.0000  0.0000  0.0000  0.0000 </r>
       </set>
       <set comment="band 4">
        <r>  0.0029  0.0747  0.0183  0.0816  0.0000  0.0000  0.0000  0.0000  0.0000 </r>
        <r>  0.0029  0.0747  0.0183  0.0816  0.0000  0.0000  0.0000  0.0000  0.0000 </r>
       </set>
       <set comment="band 5">
        <r>  0.0382  0.0117  0.0265  0.0325  0.0000  0.0000  0.0000  0.0000  0.0000 </r>
        <r>  0.0382  0.0117  0.0265  0.0325  0.0000  0.0000  0.0000  0.0000  0.0000 </r>
       </set>
       <set comment="band 6">
        <r>  0.0195  0.0218  0.0110  0.0535  0.0000  0.0000  0.0000  0.0000  0.0000 </r>
        <r>  0.0195  0.0218  0.0110  0.0535  0.0000  0.0000  0.0000  0.0000  0.0000 </r>
       </set>
       <set comment="band 7">
        <r>  0.0307  0.0440  0.0406  0.0348  0.0000  0.0000  0.0000  0.0000  0.0000 </r>
        <r>  0.0307  0.0440  0.0406  0.0348  0.0000  0.0000  0.0000  0.0000  0.0000 </r>
       </set>
       <set comment="band 8">
        <r>  0.0338  0.0238  0.0295  0.0464  0.0000  0.0000  0.0000  0.0000  0.0000 </r>
        <r>  0.0338  0.0238  0.0295  0.0464  0.0000  0.0000  0.0000  0.0000  0.0000 </r>
       </set>
       <set comment="band 9">
        <r>  0.0068  0.0370  0.0633  0.0355  0.0000  0.0000  0.0000  0.0000  0.0000 </r>
        <r>  0.0068  0.0370  0.0633  0.0355  0.0000  0.0000  0.0000  0.0000  0.0000 </r>
       </set>
       <set comment="band 10">
        <r>  0.0146  0.0805  0.0011  0.0207  0.0000  0.0000  0.0000  0.0000  0.0000 </r>
        <r>  0.0146  0.0805  0.0011  0.0207  0.0000  0.0000  0.0000  0.0000  0.0000 </r>
       </set>
       <set comment="band 11">
        <r>  0.0141  0.0005  0.1041  0.0151  0.0000  0.0000  0.0000  0.0000  0.0000 </r>
        <r>  0.0141  0.0005  0.1041  0.0151  0.0000  0.0000  0.0000  0.0000  0.0000 </r>
       </set>
       <set comment="band 12">
        <r>  0.0120  0.0740  0.0351  0.0037  0.0000  0.0000  0.0000  0.0000  0.0000 </r>
        <r>  0.0130  0.0719  0.0368  0.0042  0.0000  0.0000  0.0000  0.0000  0.0000 </r>
       </set>
      </set>
      <set comment="kpoint 127">
       <set comment="band 1">
        <r>  0.2113  0.0112  0.0226  0.0012  0.0000  0.0000  0.0000  0.0000  0.0000 </r>
        <r>  0.2113  0.0112  0.0226  0.0012  0.0000  0.0000  0.0000  0.0000  0.0000 </r>
       </set>
       <set comment="band 2">
        <r>  0.1908  0.0113  0.0384  0.0020  0.0000  0.0000  0.0000  0.0000  0.0000 </r>
        <r>  0.1908  0.0113  0.0384  0.0020  0.0000  0.0000  0.0000  0.0000  0.0000 </r>
       </set>
       <set comment="band 3">
        <r>  0.0000  0.0514  0.0437  0.0619  0.0000  0.0000  0.0000  0.0000  0.0000 </r>
        <r>  0.0000  0.0514  0.0437  0.0619  0.0000  0.0000  0.0000  0.0000  0.0000 </r>
       </set>
       <set comment="band 4">
        <r>  0.0030  0.0766  0.0168  0.0827  0.0000  0.0000  0.0000  0.0000  0.0000 </r>
        <r>  0.0030  0.0766  0.0168  0.0827  0.0000  0.0000  0.0000  0.0000  0.0000 </r>
       </set>
       <set comment="band 5">
        <r>  0.0393  0.0109  0.0274  0.0306  0.0000  0.0000  0.0000  0.0000  0.0000 </r>
        <r>  0.0393  0.0109  0.0274  0.0306  0.0000  0.0000  0.0000  0.0000  0.0000 </r>
       </set>
       <set comment="band 6">
        <r>  0.0200  0.0228  0.0113  0.0522  0.0000  0.0000  0.0000  0.0000  0.0000 </r>
        <r>  0.0200  0.0228  0.0113  0.0522  0.0000  0.0000  0.0000  0.0000  0.0000 </r>
       </set>
       <set comment="band 7">
        <r>  0.0293  0.0442  0.0401  0.0363  0.0000  0.0000  0.0000  0.0000  0.0000 </r>
        <r>  0.0293  0.0442  0.0401  0.0363  0.0000  0.0000  0.0000  0.0000  0.0000 </r>
       </set>
       <set comment="band 8">
        <r>  0.0334  0.0235  0.0290  0.0476  0.0000  0.0000  0.0000  0.0000  0.0000 </r>
        <r>  0.0334  0.0235  0.0290  0.0476  0.0000  0.0000  0.0000  0.0000  0.0000 </r>
       </set>
       <set comment="band 9">
        <r>  0.0076  0.0366  0.0638  0.0350  0.0000  0.0000  0.0000  0.0000  0.0000 </r>
        <r>  0.0076  0.0366  0.0638  0.0350  0.0000  0.0000  0.0000  0.0000  0.0000 </r>
       </set>
       <set comment="band 10">
        <r>  0.0154  0.0791  0.0018  0.0198  0.0000  0.0000  0.0000  0.0000  0.0000 </r>
        <r>  0.0154  0.0791  0.0018  0.0198  0.0000  0.0000  0.0000  0.0000  0.0000 </r>
       </set>
       <set comment="band 11">
        <r>  0.0132  0.0010  0.1034  0.0160  0.0000  0.0000  0.0000  0.0000  0.0000 </r>
        <r>  0.0132  0.0010  0.1035  0.0159  0.0000  0.0000  0.0000  0.0000  0.0000 </r>
       </set>
       <set comment="band 12">
        <r>  0.0118  0.0725  0.0359  0.0045  0.0000  0.0000  0.0000  0.0000  0.0000 </r>
        <r>  0.0115  0.0740  0.0351  0.0044  0.0000  0.0000  0.0000  0.0000  0.0000 </r>
       </set>
      </set>
      <set comment="kpoint 128">
       <set comment="band 1">
        <r>  0.2116  0.0108  0.0227  0.0013  0.0000  0.0000  0.0000  0.0000  0.0000 </r>
        <r>  0.2116  0.0108  0.0227  0.0013  0.0000  0.0000  0.0000  0.0000  0.0000 </r>
       </set>
       <set comment="band 2">
        <r>  0.1900  0.0109  0.0391  0.0022  0.0000  0.0000  0.0000  0.0000  0.0000 </r>
        <r>  0.1900  0.0109  0.0390  0.0022  0.0000  0.0000  0.0000  0.0000  0.0000 </r>
       </set>
       <set comment="band 3">
        <r>  0.0000  0.0517  0.0436  0.0615  0.0000  0.0000  0.0000  0.0000  0.0000 </r>
        <r>  0.0000  0.0517  0.0436  0.0615  0.0000  0.0000  0.0000  0.0000  0.0000 </r>
       </set>
       <set comment="band 4">
        <r>  0.0030  0.0785  0.0153  0.0838  0.0000  0.0000  0.0000  0.0000  0.0000 </r>
        <r>  0.0030  0.0785  0.0153  0.0838  0.0000  0.0000  0.0000  0.0000  0.0000 </r>
       </set>
       <set comment="band 5">
        <r>  0.0405  0.0100  0.0283  0.0286  0.0000  0.0000  0.0000  0.0000  0.0000 </r>
        <r>  0.0405  0.0100  0.0283  0.0286  0.0000  0.0000  0.0000  0.0000  0.0000 </r>
       </set>
       <set comment="band 6">
        <r>  0.0205  0.0236  0.0116  0.0509  0.0000  0.0000  0.0000  0.0000  0.0000 </r>
        <r>  0.0205  0.0236  0.0116  0.0509  0.0000  0.0000  0.0000  0.0000  0.0000 </r>
       </set>
       <set comment="band 7">
        <r>  0.0280  0.0445  0.0396  0.0378  0.0000  0.0000  0.0000  0.0000  0.0000 </r>
        <r>  0.0280  0.0445  0.0396  0.0378  0.0000  0.0000  0.0000  0.0000  0.0000 </r>
       </set>
       <set comment="band 8">
        <r>  0.0330  0.0232  0.0285  0.0487  0.0000  0.0000  0.0000  0.0000  0.0000 </r>
        <r>  0.0330  0.0232  0.0285  0.0487  0.0000  0.0000  0.0000  0.0000  0.0000 </r>
       </set>
       <set comment="band 9">
        <r>  0.0083  0.0360  0.0643  0.0345  0.0000  0.0000  0.0000  0.0000  0.0000 </r>
        <r>  0.0083  0.0360  0.0643  0.0345  0.0000  0.0000  0.0000  0.0000  0.0000 </r>
       </set>
       <set comment="band 10">
        <r>  0.0161  0.0777  0.0027  0.0189  0.0000  0.0000  0.0000  0.0000  0.0000 </r>
        <r>  0.0161  0.0777  0.0027  0.0189  0.0000  0.0000  0.0000  0.0000  0.0000 </r>
       </set>
       <set comment="band 11">
        <r>  0.0124  0.0016  0.1030  0.0168  0.0000  0.0000  0.0000  0.0000  0.0000 </r>
        <r>  0.0124  0.0016  0.1030  0.0168  0.0000  0.0000  0.0000  0.0000  0.0000 </r>
       </set>
       <set comment="band 12">
        <r>  0.0110  0.0730  0.0350  0.0052  0.0000  0.0000  0.0000  0.0000  0.0000 </r>
        <r>  0.0104  0.0745  0.0335  0.0048  0.0000  0.0000  0.0000  0.0000  0.0000 </r>
       </set>
      </set>
      <set comment="kpoint 129">
       <set comment="band 1">
        <r>  0.2118  0.0103  0.0227  0.0015  0.0000  0.0000  0.0000  0.0000  0.0000 </r>
        <r>  0.2118  0.0103  0.0227  0.0015  0.0000  0.0000  0.0000  0.0000  0.0000 </r>
       </set>
       <set comment="band 2">
        <r>  0.1893  0.0105  0.0397  0.0024  0.0000  0.0000  0.0000  0.0000  0.0000 </r>
        <r>  0.1893  0.0105  0.0397  0.0024  0.0000  0.0000  0.0000  0.0000  0.0000 </r>
       </set>
       <set comment="band 3">
        <r>  0.0000  0.0520  0.0436  0.0611  0.0000  0.0000  0.0000  0.0000  0.0000 </r>
        <r>  0.0000  0.0520  0.0436  0.0611  0.0000  0.0000  0.0000  0.0000  0.0000 </r>
       </set>
       <set comment="band 4">
        <r>  0.0030  0.0803  0.0139  0.0850  0.0000  0.0000  0.0000  0.0000  0.0000 </r>
        <r>  0.0030  0.0803  0.0139  0.0850  0.0000  0.0000  0.0000  0.0000  0.0000 </r>
       </set>
       <set comment="band 5">
        <r>  0.0416  0.0091  0.0291  0.0267  0.0000  0.0000  0.0000  0.0000  0.0000 </r>
        <r>  0.0416  0.0091  0.0291  0.0267  0.0000  0.0000  0.0000  0.0000  0.0000 </r>
       </set>
       <set comment="band 6">
        <r>  0.0210  0.0245  0.0118  0.0497  0.0000  0.0000  0.0000  0.0000  0.0000 </r>
        <r>  0.0210  0.0245  0.0118  0.0497  0.0000  0.0000  0.0000  0.0000  0.0000 </r>
       </set>
       <set comment="band 7">
        <r>  0.0266  0.0449  0.0390  0.0392  0.0000  0.0000  0.0000  0.0000  0.0000 </r>
        <r>  0.0266  0.0449  0.0390  0.0392  0.0000  0.0000  0.0000  0.0000  0.0000 </r>
       </set>
       <set comment="band 8">
        <r>  0.0327  0.0230  0.0280  0.0498  0.0000  0.0000  0.0000  0.0000  0.0000 </r>
        <r>  0.0327  0.0230  0.0280  0.0498  0.0000  0.0000  0.0000  0.0000  0.0000 </r>
       </set>
       <set comment="band 9">
        <r>  0.0091  0.0354  0.0648  0.0338  0.0000  0.0000  0.0000  0.0000  0.0000 </r>
        <r>  0.0091  0.0354  0.0648  0.0338  0.0000  0.0000  0.0000  0.0000  0.0000 </r>
       </set>
       <set comment="band 10">
        <r>  0.0167  0.0762  0.0035  0.0181  0.0000  0.0000  0.0000  0.0000  0.0000 </r>
        <r>  0.0167  0.0762  0.0035  0.0181  0.0000  0.0000  0.0000  0.0000  0.0000 </r>
       </set>
       <set comment="band 11">
        <r>  0.0118  0.0024  0.1019  0.0174  0.0000  0.0000  0.0000  0.0000  0.0000 </r>
        <r>  0.0117  0.0023  0.1023  0.0174  0.0000  0.0000  0.0000  0.0000  0.0000 </r>
       </set>
       <set comment="band 12">
        <r>  0.0088  0.0754  0.0316  0.0051  0.0000  0.0000  0.0000  0.0000  0.0000 </r>
        <r>  0.0107  0.0723  0.0351  0.0060  0.0000  0.0000  0.0000  0.0000  0.0000 </r>
       </set>
      </set>
      <set comment="kpoint 130">
       <set comment="band 1">
        <r>  0.2120  0.0099  0.0228  0.0017  0.0000  0.0000  0.0000  0.0000  0.0000 </r>
        <r>  0.2120  0.0099  0.0228  0.0017  0.0000  0.0000  0.0000  0.0000  0.0000 </r>
       </set>
       <set comment="band 2">
        <r>  0.1886  0.0101  0.0402  0.0026  0.0000  0.0000  0.0000  0.0000  0.0000 </r>
        <r>  0.1886  0.0101  0.0402  0.0026  0.0000  0.0000  0.0000  0.0000  0.0000 </r>
       </set>
       <set comment="band 3">
        <r>  0.0000  0.0523  0.0435  0.0608  0.0000  0.0000  0.0000  0.0000  0.0000 </r>
        <r>  0.0000  0.0523  0.0435  0.0608  0.0000  0.0000  0.0000  0.0000  0.0000 </r>
       </set>
       <set comment="band 4">
        <r>  0.0029  0.0822  0.0125  0.0862  0.0000  0.0000  0.0000  0.0000  0.0000 </r>
        <r>  0.0029  0.0822  0.0125  0.0862  0.0000  0.0000  0.0000  0.0000  0.0000 </r>
       </set>
       <set comment="band 5">
        <r>  0.0427  0.0082  0.0300  0.0247  0.0000  0.0000  0.0000  0.0000  0.0000 </r>
        <r>  0.0427  0.0082  0.0300  0.0247  0.0000  0.0000  0.0000  0.0000  0.0000 </r>
       </set>
       <set comment="band 6">
        <r>  0.0214  0.0253  0.0120  0.0486  0.0000  0.0000  0.0000  0.0000  0.0000 </r>
        <r>  0.0214  0.0253  0.0120  0.0486  0.0000  0.0000  0.0000  0.0000  0.0000 </r>
       </set>
       <set comment="band 7">
        <r>  0.0253  0.0454  0.0384  0.0407  0.0000  0.0000  0.0000  0.0000  0.0000 </r>
        <r>  0.0253  0.0454  0.0383  0.0407  0.0000  0.0000  0.0000  0.0000  0.0000 </r>
       </set>
       <set comment="band 8">
        <r>  0.0323  0.0229  0.0276  0.0509  0.0000  0.0000  0.0000  0.0000  0.0000 </r>
        <r>  0.0323  0.0229  0.0276  0.0509  0.0000  0.0000  0.0000  0.0000  0.0000 </r>
       </set>
       <set comment="band 9">
        <r>  0.0100  0.0348  0.0654  0.0331  0.0000  0.0000  0.0000  0.0000  0.0000 </r>
        <r>  0.0100  0.0348  0.0654  0.0331  0.0000  0.0000  0.0000  0.0000  0.0000 </r>
       </set>
       <set comment="band 10">
        <r>  0.0172  0.0746  0.0044  0.0174  0.0000  0.0000  0.0000  0.0000  0.0000 </r>
        <r>  0.0172  0.0746  0.0044  0.0174  0.0000  0.0000  0.0000  0.0000  0.0000 </r>
       </set>
       <set comment="band 11">
        <r>  0.0110  0.0031  0.1011  0.0181  0.0000  0.0000  0.0000  0.0000  0.0000 </r>
        <r>  0.0110  0.0030  0.1014  0.0179  0.0000  0.0000  0.0000  0.0000  0.0000 </r>
       </set>
       <set comment="band 12">
        <r>  0.0090  0.0743  0.0330  0.0062  0.0000  0.0000  0.0000  0.0000  0.0000 </r>
        <r>  0.0093  0.0734  0.0318  0.0060  0.0000  0.0000  0.0000  0.0000  0.0000 </r>
       </set>
      </set>
      <set comment="kpoint 131">
       <set comment="band 1">
        <r>  0.2122  0.0095  0.0228  0.0018  0.0000  0.0000  0.0000  0.0000  0.0000 </r>
        <r>  0.2122  0.0095  0.0228  0.0018  0.0000  0.0000  0.0000  0.0000  0.0000 </r>
       </set>
       <set comment="band 2">
        <r>  0.1879  0.0097  0.0408  0.0028  0.0000  0.0000  0.0000  0.0000  0.0000 </r>
        <r>  0.1879  0.0097  0.0408  0.0028  0.0000  0.0000  0.0000  0.0000  0.0000 </r>
       </set>
       <set comment="band 3">
        <r>  0.0000  0.0525  0.0434  0.0605  0.0000  0.0000  0.0000  0.0000  0.0000 </r>
        <r>  0.0000  0.0525  0.0434  0.0605  0.0000  0.0000  0.0000  0.0000  0.0000 </r>
       </set>
       <set comment="band 4">
        <r>  0.0028  0.0841  0.0111  0.0875  0.0000  0.0000  0.0000  0.0000  0.0000 </r>
        <r>  0.0028  0.0841  0.0111  0.0875  0.0000  0.0000  0.0000  0.0000  0.0000 </r>
       </set>
       <set comment="band 5">
        <r>  0.0437  0.0072  0.0309  0.0227  0.0000  0.0000  0.0000  0.0000  0.0000 </r>
        <r>  0.0437  0.0072  0.0309  0.0227  0.0000  0.0000  0.0000  0.0000  0.0000 </r>
       </set>
       <set comment="band 6">
        <r>  0.0217  0.0262  0.0122  0.0475  0.0000  0.0000  0.0000  0.0000  0.0000 </r>
        <r>  0.0217  0.0262  0.0122  0.0475  0.0000  0.0000  0.0000  0.0000  0.0000 </r>
       </set>
       <set comment="band 7">
        <r>  0.0240  0.0460  0.0376  0.0421  0.0000  0.0000  0.0000  0.0000  0.0000 </r>
        <r>  0.0240  0.0460  0.0376  0.0421  0.0000  0.0000  0.0000  0.0000  0.0000 </r>
       </set>
       <set comment="band 8">
        <r>  0.0321  0.0228  0.0271  0.0520  0.0000  0.0000  0.0000  0.0000  0.0000 </r>
        <r>  0.0321  0.0228  0.0271  0.0520  0.0000  0.0000  0.0000  0.0000  0.0000 </r>
       </set>
       <set comment="band 9">
        <r>  0.0108  0.0340  0.0661  0.0323  0.0000  0.0000  0.0000  0.0000  0.0000 </r>
        <r>  0.0108  0.0340  0.0661  0.0323  0.0000  0.0000  0.0000  0.0000  0.0000 </r>
       </set>
       <set comment="band 10">
        <r>  0.0177  0.0731  0.0053  0.0168  0.0000  0.0000  0.0000  0.0000  0.0000 </r>
        <r>  0.0177  0.0731  0.0053  0.0168  0.0000  0.0000  0.0000  0.0000  0.0000 </r>
       </set>
       <set comment="band 11">
        <r>  0.0103  0.0039  0.1008  0.0186  0.0000  0.0000  0.0000  0.0000  0.0000 </r>
        <r>  0.0103  0.0039  0.1007  0.0187  0.0000  0.0000  0.0000  0.0000  0.0000 </r>
       </set>
       <set comment="band 12">
        <r>  0.0078  0.0735  0.0319  0.0063  0.0000  0.0000  0.0000  0.0000  0.0000 </r>
        <r>  0.0082  0.0740  0.0318  0.0063  0.0000  0.0000  0.0000  0.0000  0.0000 </r>
       </set>
      </set>
      <set comment="kpoint 132">
       <set comment="band 1">
        <r>  0.2123  0.0091  0.0229  0.0020  0.0000  0.0000  0.0000  0.0000  0.0000 </r>
        <r>  0.2123  0.0091  0.0229  0.0020  0.0000  0.0000  0.0000  0.0000  0.0000 </r>
       </set>
       <set comment="band 2">
        <r>  0.1872  0.0093  0.0413  0.0030  0.0000  0.0000  0.0000  0.0000  0.0000 </r>
        <r>  0.1872  0.0093  0.0413  0.0030  0.0000  0.0000  0.0000  0.0000  0.0000 </r>
       </set>
       <set comment="band 3">
        <r>  0.0000  0.0528  0.0434  0.0601  0.0000  0.0000  0.0000  0.0000  0.0000 </r>
        <r>  0.0000  0.0528  0.0434  0.0601  0.0000  0.0000  0.0000  0.0000  0.0000 </r>
       </set>
       <set comment="band 4">
        <r>  0.0026  0.0859  0.0097  0.0888  0.0000  0.0000  0.0000  0.0000  0.0000 </r>
        <r>  0.0026  0.0859  0.0097  0.0888  0.0000  0.0000  0.0000  0.0000  0.0000 </r>
       </set>
       <set comment="band 5">
        <r>  0.0448  0.0062  0.0318  0.0206  0.0000  0.0000  0.0000  0.0000  0.0000 </r>
        <r>  0.0448  0.0062  0.0318  0.0206  0.0000  0.0000  0.0000  0.0000  0.0000 </r>
       </set>
       <set comment="band 6">
        <r>  0.0221  0.0270  0.0124  0.0465  0.0000  0.0000  0.0000  0.0000  0.0000 </r>
        <r>  0.0221  0.0270  0.0124  0.0465  0.0000  0.0000  0.0000  0.0000  0.0000 </r>
       </set>
       <set comment="band 7">
        <r>  0.0227  0.0467  0.0368  0.0436  0.0000  0.0000  0.0000  0.0000  0.0000 </r>
        <r>  0.0227  0.0467  0.0368  0.0436  0.0000  0.0000  0.0000  0.0000  0.0000 </r>
       </set>
       <set comment="band 8">
        <r>  0.0319  0.0228  0.0267  0.0532  0.0000  0.0000  0.0000  0.0000  0.0000 </r>
        <r>  0.0319  0.0228  0.0267  0.0532  0.0000  0.0000  0.0000  0.0000  0.0000 </r>
       </set>
       <set comment="band 9">
        <r>  0.0118  0.0332  0.0669  0.0314  0.0000  0.0000  0.0000  0.0000  0.0000 </r>
        <r>  0.0118  0.0332  0.0669  0.0314  0.0000  0.0000  0.0000  0.0000  0.0000 </r>
       </set>
       <set comment="band 10">
        <r>  0.0180  0.0715  0.0062  0.0161  0.0000  0.0000  0.0000  0.0000  0.0000 </r>
        <r>  0.0180  0.0715  0.0062  0.0161  0.0000  0.0000  0.0000  0.0000  0.0000 </r>
       </set>
       <set comment="band 11">
        <r>  0.0098  0.0049  0.1001  0.0192  0.0000  0.0000  0.0000  0.0000  0.0000 </r>
        <r>  0.0096  0.0047  0.1001  0.0193  0.0000  0.0000  0.0000  0.0000  0.0000 </r>
       </set>
       <set comment="band 12">
        <r>  0.0072  0.0693  0.0350  0.0079  0.0000  0.0000  0.0000  0.0000  0.0000 </r>
        <r>  0.0060  0.0769  0.0276  0.0057  0.0000  0.0000  0.0000  0.0000  0.0000 </r>
       </set>
      </set>
      <set comment="kpoint 133">
       <set comment="band 1">
        <r>  0.2125  0.0087  0.0229  0.0022  0.0000  0.0000  0.0000  0.0000  0.0000 </r>
        <r>  0.2125  0.0087  0.0229  0.0022  0.0000  0.0000  0.0000  0.0000  0.0000 </r>
       </set>
       <set comment="band 2">
        <r>  0.1866  0.0089  0.0417  0.0032  0.0000  0.0000  0.0000  0.0000  0.0000 </r>
        <r>  0.1866  0.0089  0.0417  0.0032  0.0000  0.0000  0.0000  0.0000  0.0000 </r>
       </set>
       <set comment="band 3">
        <r>  0.0000  0.0531  0.0433  0.0598  0.0000  0.0000  0.0000  0.0000  0.0000 </r>
        <r>  0.0000  0.0531  0.0433  0.0598  0.0000  0.0000  0.0000  0.0000  0.0000 </r>
       </set>
       <set comment="band 4">
        <r>  0.0024  0.0878  0.0084  0.0901  0.0000  0.0000  0.0000  0.0000  0.0000 </r>
        <r>  0.0024  0.0878  0.0084  0.0901  0.0000  0.0000  0.0000  0.0000  0.0000 </r>
       </set>
       <set comment="band 5">
        <r>  0.0458  0.0053  0.0327  0.0186  0.0000  0.0000  0.0000  0.0000  0.0000 </r>
        <r>  0.0458  0.0053  0.0327  0.0186  0.0000  0.0000  0.0000  0.0000  0.0000 </r>
       </set>
       <set comment="band 6">
        <r>  0.0223  0.0278  0.0126  0.0455  0.0000  0.0000  0.0000  0.0000  0.0000 </r>
        <r>  0.0223  0.0278  0.0126  0.0455  0.0000  0.0000  0.0000  0.0000  0.0000 </r>
       </set>
       <set comment="band 7">
        <r>  0.0213  0.0476  0.0359  0.0452  0.0000  0.0000  0.0000  0.0000  0.0000 </r>
        <r>  0.0213  0.0476  0.0359  0.0452  0.0000  0.0000  0.0000  0.0000  0.0000 </r>
       </set>
       <set comment="band 8">
        <r>  0.0317  0.0228  0.0263  0.0543  0.0000  0.0000  0.0000  0.0000  0.0000 </r>
        <r>  0.0317  0.0228  0.0263  0.0543  0.0000  0.0000  0.0000  0.0000  0.0000 </r>
       </set>
       <set comment="band 9">
        <r>  0.0128  0.0322  0.0678  0.0304  0.0000  0.0000  0.0000  0.0000  0.0000 </r>
        <r>  0.0128  0.0322  0.0678  0.0304  0.0000  0.0000  0.0000  0.0000  0.0000 </r>
       </set>
       <set comment="band 10">
        <r>  0.0183  0.0698  0.0070  0.0155  0.0000  0.0000  0.0000  0.0000  0.0000 </r>
        <r>  0.0183  0.0698  0.0070  0.0155  0.0000  0.0000  0.0000  0.0000  0.0000 </r>
       </set>
       <set comment="band 11">
        <r>  0.0091  0.0057  0.0996  0.0198  0.0000  0.0000  0.0000  0.0000  0.0000 </r>
        <r>  0.0091  0.0058  0.0993  0.0199  0.0000  0.0000  0.0000  0.0000  0.0000 </r>
       </set>
       <set comment="band 12">
        <r>  0.0036  0.0916  0.0161  0.0030  0.0000  0.0000  0.0000  0.0000  0.0000 </r>
        <r>  0.0081  0.0471  0.0419  0.0125  0.0000  0.0000  0.0000  0.0000  0.0000 </r>
       </set>
      </set>
      <set comment="kpoint 134">
       <set comment="band 1">
        <r>  0.2127  0.0083  0.0229  0.0024  0.0000  0.0000  0.0000  0.0000  0.0000 </r>
        <r>  0.2127  0.0083  0.0229  0.0024  0.0000  0.0000  0.0000  0.0000  0.0000 </r>
       </set>
       <set comment="band 2">
        <r>  0.1861  0.0086  0.0421  0.0034  0.0000  0.0000  0.0000  0.0000  0.0000 </r>
        <r>  0.1861  0.0086  0.0421  0.0034  0.0000  0.0000  0.0000  0.0000  0.0000 </r>
       </set>
       <set comment="band 3">
        <r>  0.0000  0.0534  0.0433  0.0595  0.0000  0.0000  0.0000  0.0000  0.0000 </r>
        <r>  0.0000  0.0534  0.0433  0.0595  0.0000  0.0000  0.0000  0.0000  0.0000 </r>
       </set>
       <set comment="band 4">
        <r>  0.0022  0.0896  0.0072  0.0915  0.0000  0.0000  0.0000  0.0000  0.0000 </r>
        <r>  0.0022  0.0896  0.0072  0.0915  0.0000  0.0000  0.0000  0.0000  0.0000 </r>
       </set>
       <set comment="band 5">
        <r>  0.0468  0.0043  0.0336  0.0165  0.0000  0.0000  0.0000  0.0000  0.0000 </r>
        <r>  0.0468  0.0043  0.0336  0.0165  0.0000  0.0000  0.0000  0.0000  0.0000 </r>
       </set>
       <set comment="band 6">
        <r>  0.0226  0.0285  0.0127  0.0445  0.0000  0.0000  0.0000  0.0000  0.0000 </r>
        <r>  0.0226  0.0285  0.0127  0.0445  0.0000  0.0000  0.0000  0.0000  0.0000 </r>
       </set>
       <set comment="band 7">
        <r>  0.0199  0.0486  0.0348  0.0469  0.0000  0.0000  0.0000  0.0000  0.0000 </r>
        <r>  0.0199  0.0486  0.0348  0.0469  0.0000  0.0000  0.0000  0.0000  0.0000 </r>
       </set>
       <set comment="band 8">
        <r>  0.0316  0.0229  0.0260  0.0555  0.0000  0.0000  0.0000  0.0000  0.0000 </r>
        <r>  0.0316  0.0229  0.0260  0.0555  0.0000  0.0000  0.0000  0.0000  0.0000 </r>
       </set>
       <set comment="band 9">
        <r>  0.0139  0.0311  0.0689  0.0293  0.0000  0.0000  0.0000  0.0000  0.0000 </r>
        <r>  0.0139  0.0311  0.0689  0.0293  0.0000  0.0000  0.0000  0.0000  0.0000 </r>
       </set>
       <set comment="band 10">
        <r>  0.0186  0.0682  0.0078  0.0149  0.0000  0.0000  0.0000  0.0000  0.0000 </r>
        <r>  0.0186  0.0682  0.0078  0.0149  0.0000  0.0000  0.0000  0.0000  0.0000 </r>
       </set>
       <set comment="band 11">
        <r>  0.0086  0.0066  0.0987  0.0204  0.0000  0.0000  0.0000  0.0000  0.0000 </r>
        <r>  0.0086  0.0066  0.0988  0.0204  0.0000  0.0000  0.0000  0.0000  0.0000 </r>
       </set>
       <set comment="band 12">
        <r>  0.0052  0.0749  0.0268  0.0086  0.0000  0.0000  0.0000  0.0000  0.0000 </r>
        <r>  0.0056  0.0733  0.0279  0.0089  0.0000  0.0000  0.0000  0.0000  0.0000 </r>
       </set>
      </set>
      <set comment="kpoint 135">
       <set comment="band 1">
        <r>  0.2128  0.0079  0.0230  0.0026  0.0000  0.0000  0.0000  0.0000  0.0000 </r>
        <r>  0.2128  0.0079  0.0230  0.0026  0.0000  0.0000  0.0000  0.0000  0.0000 </r>
       </set>
       <set comment="band 2">
        <r>  0.1856  0.0083  0.0425  0.0036  0.0000  0.0000  0.0000  0.0000  0.0000 </r>
        <r>  0.1856  0.0083  0.0425  0.0036  0.0000  0.0000  0.0000  0.0000  0.0000 </r>
       </set>
       <set comment="band 3">
        <r>  0.0000  0.0537  0.0433  0.0591  0.0000  0.0000  0.0000  0.0000  0.0000 </r>
        <r>  0.0000  0.0537  0.0433  0.0591  0.0000  0.0000  0.0000  0.0000  0.0000 </r>
       </set>
       <set comment="band 4">
        <r>  0.0019  0.0913  0.0060  0.0928  0.0000  0.0000  0.0000  0.0000  0.0000 </r>
        <r>  0.0019  0.0913  0.0060  0.0928  0.0000  0.0000  0.0000  0.0000  0.0000 </r>
       </set>
       <set comment="band 5">
        <r>  0.0477  0.0034  0.0344  0.0145  0.0000  0.0000  0.0000  0.0000  0.0000 </r>
        <r>  0.0477  0.0034  0.0344  0.0145  0.0000  0.0000  0.0000  0.0000  0.0000 </r>
       </set>
       <set comment="band 6">
        <r>  0.0228  0.0293  0.0128  0.0436  0.0000  0.0000  0.0000  0.0000  0.0000 </r>
        <r>  0.0228  0.0293  0.0128  0.0436  0.0000  0.0000  0.0000  0.0000  0.0000 </r>
       </set>
       <set comment="band 7">
        <r>  0.0185  0.0498  0.0335  0.0486  0.0000  0.0000  0.0000  0.0000  0.0000 </r>
        <r>  0.0185  0.0498  0.0335  0.0486  0.0000  0.0000  0.0000  0.0000  0.0000 </r>
       </set>
       <set comment="band 8">
        <r>  0.0315  0.0231  0.0257  0.0568  0.0000  0.0000  0.0000  0.0000  0.0000 </r>
        <r>  0.0315  0.0231  0.0257  0.0568  0.0000  0.0000  0.0000  0.0000  0.0000 </r>
       </set>
       <set comment="band 9">
        <r>  0.0151  0.0298  0.0702  0.0279  0.0000  0.0000  0.0000  0.0000  0.0000 </r>
        <r>  0.0151  0.0298  0.0702  0.0279  0.0000  0.0000  0.0000  0.0000  0.0000 </r>
       </set>
       <set comment="band 10">
        <r>  0.0187  0.0665  0.0085  0.0143  0.0000  0.0000  0.0000  0.0000  0.0000 </r>
        <r>  0.0187  0.0665  0.0085  0.0143  0.0000  0.0000  0.0000  0.0000  0.0000 </r>
       </set>
       <set comment="band 11">
        <r>  0.0077  0.0070  0.0996  0.0213  0.0000  0.0000  0.0000  0.0000  0.0000 </r>
        <r>  0.0083  0.0084  0.0971  0.0205  0.0000  0.0000  0.0000  0.0000  0.0000 </r>
       </set>
       <set comment="band 12">
        <r>  0.0003  0.0659  0.0035  0.0027  0.0000  0.0000  0.0000  0.0000  0.0000 </r>
        <r>  0.0055  0.0006  0.0495  0.0214  0.0000  0.0000  0.0000  0.0000  0.0000 </r>
       </set>
      </set>
      <set comment="kpoint 136">
       <set comment="band 1">
        <r>  0.2129  0.0075  0.0230  0.0028  0.0000  0.0000  0.0000  0.0000  0.0000 </r>
        <r>  0.2129  0.0075  0.0230  0.0028  0.0000  0.0000  0.0000  0.0000  0.0000 </r>
       </set>
       <set comment="band 2">
        <r>  0.1851  0.0079  0.0428  0.0038  0.0000  0.0000  0.0000  0.0000  0.0000 </r>
        <r>  0.1851  0.0079  0.0428  0.0038  0.0000  0.0000  0.0000  0.0000  0.0000 </r>
       </set>
       <set comment="band 3">
        <r>  0.0000  0.0540  0.0432  0.0588  0.0000  0.0000  0.0000  0.0000  0.0000 </r>
        <r>  0.0000  0.0540  0.0432  0.0588  0.0000  0.0000  0.0000  0.0000  0.0000 </r>
       </set>
       <set comment="band 4">
        <r>  0.0016  0.0930  0.0049  0.0941  0.0000  0.0000  0.0000  0.0000  0.0000 </r>
        <r>  0.0016  0.0930  0.0049  0.0941  0.0000  0.0000  0.0000  0.0000  0.0000 </r>
       </set>
       <set comment="band 5">
        <r>  0.0486  0.0025  0.0352  0.0125  0.0000  0.0000  0.0000  0.0000  0.0000 </r>
        <r>  0.0486  0.0025  0.0352  0.0125  0.0000  0.0000  0.0000  0.0000  0.0000 </r>
       </set>
       <set comment="band 6">
        <r>  0.0230  0.0301  0.0129  0.0427  0.0000  0.0000  0.0000  0.0000  0.0000 </r>
        <r>  0.0230  0.0301  0.0129  0.0427  0.0000  0.0000  0.0000  0.0000  0.0000 </r>
       </set>
       <set comment="band 7">
        <r>  0.0170  0.0514  0.0319  0.0506  0.0000  0.0000  0.0000  0.0000  0.0000 </r>
        <r>  0.0170  0.0514  0.0319  0.0506  0.0000  0.0000  0.0000  0.0000  0.0000 </r>
       </set>
       <set comment="band 8">
        <r>  0.0316  0.0235  0.0254  0.0582  0.0000  0.0000  0.0000  0.0000  0.0000 </r>
        <r>  0.0315  0.0235  0.0254  0.0582  0.0000  0.0000  0.0000  0.0000  0.0000 </r>
       </set>
       <set comment="band 9">
        <r>  0.0164  0.0282  0.0718  0.0264  0.0000  0.0000  0.0000  0.0000  0.0000 </r>
        <r>  0.0164  0.0282  0.0718  0.0264  0.0000  0.0000  0.0000  0.0000  0.0000 </r>
       </set>
       <set comment="band 10">
        <r>  0.0188  0.0647  0.0091  0.0136  0.0000  0.0000  0.0000  0.0000  0.0000 </r>
        <r>  0.0188  0.0647  0.0091  0.0136  0.0000  0.0000  0.0000  0.0000  0.0000 </r>
       </set>
       <set comment="band 11">
        <r>  0.0074  0.0075  0.0937  0.0205  0.0000  0.0000  0.0000  0.0000  0.0000 </r>
        <r>  0.0077  0.0079  0.0938  0.0203  0.0000  0.0000  0.0000  0.0000  0.0000 </r>
       </set>
       <set comment="band 12">
        <r>  0.0044  0.0687  0.0266  0.0116  0.0000  0.0000  0.0000  0.0000  0.0000 </r>
        <r>  0.0026  0.0779  0.0225  0.0088  0.0000  0.0000  0.0000  0.0000  0.0000 </r>
       </set>
      </set>
      <set comment="kpoint 137">
       <set comment="band 1">
        <r>  0.2130  0.0071  0.0230  0.0030  0.0000  0.0000  0.0000  0.0000  0.0000 </r>
        <r>  0.2130  0.0071  0.0230  0.0030  0.0000  0.0000  0.0000  0.0000  0.0000 </r>
       </set>
       <set comment="band 2">
        <r>  0.1847  0.0076  0.0431  0.0040  0.0000  0.0000  0.0000  0.0000  0.0000 </r>
        <r>  0.1847  0.0076  0.0431  0.0040  0.0000  0.0000  0.0000  0.0000  0.0000 </r>
       </set>
       <set comment="band 3">
        <r>  0.0000  0.0543  0.0432  0.0585  0.0000  0.0000  0.0000  0.0000  0.0000 </r>
        <r>  0.0000  0.0543  0.0432  0.0585  0.0000  0.0000  0.0000  0.0000  0.0000 </r>
       </set>
       <set comment="band 4">
        <r>  0.0013  0.0945  0.0038  0.0954  0.0000  0.0000  0.0000  0.0000  0.0000 </r>
        <r>  0.0013  0.0945  0.0038  0.0954  0.0000  0.0000  0.0000  0.0000  0.0000 </r>
       </set>
       <set comment="band 5">
        <r>  0.0494  0.0017  0.0360  0.0106  0.0000  0.0000  0.0000  0.0000  0.0000 </r>
        <r>  0.0494  0.0017  0.0360  0.0106  0.0000  0.0000  0.0000  0.0000  0.0000 </r>
       </set>
       <set comment="band 6">
        <r>  0.0232  0.0308  0.0130  0.0418  0.0000  0.0000  0.0000  0.0000  0.0000 </r>
        <r>  0.0232  0.0308  0.0130  0.0418  0.0000  0.0000  0.0000  0.0000  0.0000 </r>
       </set>
       <set comment="band 7">
        <r>  0.0153  0.0532  0.0299  0.0529  0.0000  0.0000  0.0000  0.0000  0.0000 </r>
        <r>  0.0153  0.0532  0.0299  0.0529  0.0000  0.0000  0.0000  0.0000  0.0000 </r>
       </set>
       <set comment="band 8">
        <r>  0.0317  0.0240  0.0252  0.0596  0.0000  0.0000  0.0000  0.0000  0.0000 </r>
        <r>  0.0317  0.0240  0.0252  0.0596  0.0000  0.0000  0.0000  0.0000  0.0000 </r>
       </set>
       <set comment="band 9">
        <r>  0.0178  0.0263  0.0737  0.0245  0.0000  0.0000  0.0000  0.0000  0.0000 </r>
        <r>  0.0178  0.0263  0.0737  0.0245  0.0000  0.0000  0.0000  0.0000  0.0000 </r>
       </set>
       <set comment="band 10">
        <r>  0.0187  0.0628  0.0097  0.0129  0.0000  0.0000  0.0000  0.0000  0.0000 </r>
        <r>  0.0187  0.0628  0.0097  0.0129  0.0000  0.0000  0.0000  0.0000  0.0000 </r>
       </set>
       <set comment="band 11">
        <r>  0.0076  0.0094  0.0919  0.0211  0.0000  0.0000  0.0000  0.0000  0.0000 </r>
        <r>  0.0076  0.0082  0.0959  0.0204  0.0000  0.0000  0.0000  0.0000  0.0000 </r>
       </set>
       <set comment="band 12">
        <r>  0.0027  0.0711  0.0121  0.0061  0.0000  0.0000  0.0000  0.0000  0.0000 </r>
        <r>  0.0035  0.0411  0.0332  0.0159  0.0000  0.0000  0.0000  0.0000  0.0000 </r>
       </set>
      </set>
      <set comment="kpoint 138">
       <set comment="band 1">
        <r>  0.2131  0.0068  0.0230  0.0033  0.0000  0.0000  0.0000  0.0000  0.0000 </r>
        <r>  0.2131  0.0068  0.0230  0.0033  0.0000  0.0000  0.0000  0.0000  0.0000 </r>
       </set>
       <set comment="band 2">
        <r>  0.1844  0.0073  0.0433  0.0043  0.0000  0.0000  0.0000  0.0000  0.0000 </r>
        <r>  0.1844  0.0073  0.0433  0.0043  0.0000  0.0000  0.0000  0.0000  0.0000 </r>
       </set>
       <set comment="band 3">
        <r>  0.0000  0.0546  0.0432  0.0582  0.0000  0.0000  0.0000  0.0000  0.0000 </r>
        <r>  0.0000  0.0546  0.0432  0.0582  0.0000  0.0000  0.0000  0.0000  0.0000 </r>
       </set>
       <set comment="band 4">
        <r>  0.0010  0.0959  0.0029  0.0965  0.0000  0.0000  0.0000  0.0000  0.0000 </r>
        <r>  0.0010  0.0959  0.0029  0.0965  0.0000  0.0000  0.0000  0.0000  0.0000 </r>
       </set>
       <set comment="band 5">
        <r>  0.0502  0.0011  0.0367  0.0087  0.0000  0.0000  0.0000  0.0000  0.0000 </r>
        <r>  0.0502  0.0011  0.0367  0.0087  0.0000  0.0000  0.0000  0.0000  0.0000 </r>
       </set>
       <set comment="band 6">
        <r>  0.0233  0.0316  0.0131  0.0409  0.0000  0.0000  0.0000  0.0000  0.0000 </r>
        <r>  0.0233  0.0316  0.0131  0.0409  0.0000  0.0000  0.0000  0.0000  0.0000 </r>
       </set>
       <set comment="band 7">
        <r>  0.0135  0.0555  0.0273  0.0555  0.0000  0.0000  0.0000  0.0000  0.0000 </r>
        <r>  0.0135  0.0555  0.0273  0.0555  0.0000  0.0000  0.0000  0.0000  0.0000 </r>
       </set>
       <set comment="band 8">
        <r>  0.0320  0.0248  0.0251  0.0613  0.0000  0.0000  0.0000  0.0000  0.0000 </r>
        <r>  0.0320  0.0248  0.0250  0.0613  0.0000  0.0000  0.0000  0.0000  0.0000 </r>
       </set>
       <set comment="band 9">
        <r>  0.0195  0.0240  0.0763  0.0221  0.0000  0.0000  0.0000  0.0000  0.0000 </r>
        <r>  0.0195  0.0240  0.0763  0.0221  0.0000  0.0000  0.0000  0.0000  0.0000 </r>
       </set>
       <set comment="band 10">
        <r>  0.0184  0.0607  0.0100  0.0120  0.0000  0.0000  0.0000  0.0000  0.0000 </r>
        <r>  0.0184  0.0607  0.0100  0.0120  0.0000  0.0000  0.0000  0.0000  0.0000 </r>
       </set>
       <set comment="band 11">
        <r>  0.0062  0.0108  0.0947  0.0225  0.0000  0.0000  0.0000  0.0000  0.0000 </r>
        <r>  0.0062  0.0101  0.0969  0.0226  0.0000  0.0000  0.0000  0.0000  0.0000 </r>
       </set>
       <set comment="band 12">
        <r>  0.0013  0.0576  0.0112  0.0055  0.0000  0.0000  0.0000  0.0000  0.0000 </r>
        <r>  0.0029  0.0128  0.0418  0.0192  0.0000  0.0000  0.0000  0.0000  0.0000 </r>
       </set>
      </set>
      <set comment="kpoint 139">
       <set comment="band 1">
        <r>  0.2132  0.0064  0.0231  0.0035  0.0000  0.0000  0.0000  0.0000  0.0000 </r>
        <r>  0.2132  0.0064  0.0231  0.0035  0.0000  0.0000  0.0000  0.0000  0.0000 </r>
       </set>
       <set comment="band 2">
        <r>  0.1841  0.0070  0.0435  0.0045  0.0000  0.0000  0.0000  0.0000  0.0000 </r>
        <r>  0.1841  0.0070  0.0435  0.0045  0.0000  0.0000  0.0000  0.0000  0.0000 </r>
       </set>
       <set comment="band 3">
        <r>  0.0000  0.0548  0.0431  0.0579  0.0000  0.0000  0.0000  0.0000  0.0000 </r>
        <r>  0.0000  0.0548  0.0431  0.0579  0.0000  0.0000  0.0000  0.0000  0.0000 </r>
       </set>
       <set comment="band 4">
        <r>  0.0008  0.0972  0.0020  0.0976  0.0000  0.0000  0.0000  0.0000  0.0000 </r>
        <r>  0.0008  0.0972  0.0020  0.0976  0.0000  0.0000  0.0000  0.0000  0.0000 </r>
       </set>
       <set comment="band 5">
        <r>  0.0509  0.0005  0.0373  0.0070  0.0000  0.0000  0.0000  0.0000  0.0000 </r>
        <r>  0.0509  0.0005  0.0373  0.0070  0.0000  0.0000  0.0000  0.0000  0.0000 </r>
       </set>
       <set comment="band 6">
        <r>  0.0235  0.0323  0.0131  0.0401  0.0000  0.0000  0.0000  0.0000  0.0000 </r>
        <r>  0.0235  0.0323  0.0131  0.0401  0.0000  0.0000  0.0000  0.0000  0.0000 </r>
       </set>
       <set comment="band 7">
        <r>  0.0115  0.0583  0.0241  0.0586  0.0000  0.0000  0.0000  0.0000  0.0000 </r>
        <r>  0.0115  0.0583  0.0241  0.0586  0.0000  0.0000  0.0000  0.0000  0.0000 </r>
       </set>
       <set comment="band 8">
        <r>  0.0326  0.0260  0.0250  0.0632  0.0000  0.0000  0.0000  0.0000  0.0000 </r>
        <r>  0.0326  0.0261  0.0251  0.0632  0.0000  0.0000  0.0000  0.0000  0.0000 </r>
       </set>
       <set comment="band 9">
        <r>  0.0213  0.0211  0.0795  0.0193  0.0000  0.0000  0.0000  0.0000  0.0000 </r>
        <r>  0.0214  0.0211  0.0795  0.0193  0.0000  0.0000  0.0000  0.0000  0.0000 </r>
       </set>
       <set comment="band 10">
        <r>  0.0179  0.0582  0.0102  0.0109  0.0000  0.0000  0.0000  0.0000  0.0000 </r>
        <r>  0.0179  0.0582  0.0102  0.0109  0.0000  0.0000  0.0000  0.0000  0.0000 </r>
       </set>
       <set comment="band 11">
        <r>  0.0062  0.0148  0.0991  0.0223  0.0000  0.0000  0.0000  0.0000  0.0000 </r>
        <r>  0.0057  0.0105  0.1019  0.0265  0.0000  0.0000  0.0000  0.0000  0.0000 </r>
       </set>
       <set comment="band 12">
        <r>  0.0008  0.0036  0.0599  0.0230  0.0000  0.0000  0.0000  0.0000  0.0000 </r>
        <r>  0.0000  0.0530  0.0246  0.0053  0.0000  0.0000  0.0000  0.0000  0.0000 </r>
       </set>
      </set>
      <set comment="kpoint 140">
       <set comment="band 1">
        <r>  0.2133  0.0061  0.0231  0.0038  0.0000  0.0000  0.0000  0.0000  0.0000 </r>
        <r>  0.2133  0.0061  0.0231  0.0038  0.0000  0.0000  0.0000  0.0000  0.0000 </r>
       </set>
       <set comment="band 2">
        <r>  0.1838  0.0067  0.0437  0.0047  0.0000  0.0000  0.0000  0.0000  0.0000 </r>
        <r>  0.1838  0.0067  0.0437  0.0047  0.0000  0.0000  0.0000  0.0000  0.0000 </r>
       </set>
       <set comment="band 3">
        <r>  0.0000  0.0551  0.0431  0.0575  0.0000  0.0000  0.0000  0.0000  0.0000 </r>
        <r>  0.0000  0.0551  0.0431  0.0575  0.0000  0.0000  0.0000  0.0000  0.0000 </r>
       </set>
       <set comment="band 4">
        <r>  0.0005  0.0983  0.0013  0.0986  0.0000  0.0000  0.0000  0.0000  0.0000 </r>
        <r>  0.0005  0.0983  0.0013  0.0986  0.0000  0.0000  0.0000  0.0000  0.0000 </r>
       </set>
       <set comment="band 5">
        <r>  0.0515  0.0002  0.0379  0.0054  0.0000  0.0000  0.0000  0.0000  0.0000 </r>
        <r>  0.0515  0.0002  0.0379  0.0054  0.0000  0.0000  0.0000  0.0000  0.0000 </r>
       </set>
       <set comment="band 6">
        <r>  0.0236  0.0331  0.0132  0.0393  0.0000  0.0000  0.0000  0.0000  0.0000 </r>
        <r>  0.0236  0.0331  0.0132  0.0393  0.0000  0.0000  0.0000  0.0000  0.0000 </r>
       </set>
       <set comment="band 7">
        <r>  0.0091  0.0619  0.0199  0.0625  0.0000  0.0000  0.0000  0.0000  0.0000 </r>
        <r>  0.0092  0.0619  0.0199  0.0625  0.0000  0.0000  0.0000  0.0000  0.0000 </r>
       </set>
       <set comment="band 8">
        <r>  0.0336  0.0279  0.0253  0.0656  0.0000  0.0000  0.0000  0.0000  0.0000 </r>
        <r>  0.0335  0.0280  0.0254  0.0655  0.0000  0.0000  0.0000  0.0000  0.0000 </r>
       </set>
       <set comment="band 9">
        <r>  0.0236  0.0174  0.0837  0.0157  0.0000  0.0000  0.0000  0.0000  0.0000 </r>
        <r>  0.0236  0.0174  0.0837  0.0157  0.0000  0.0000  0.0000  0.0000  0.0000 </r>
       </set>
       <set comment="band 10">
        <r>  0.0169  0.0551  0.0101  0.0094  0.0000  0.0000  0.0000  0.0000  0.0000 </r>
        <r>  0.0169  0.0551  0.0101  0.0094  0.0000  0.0000  0.0000  0.0000  0.0000 </r>
       </set>
       <set comment="band 11">
        <r>  0.0053  0.0126  0.1049  0.0274  0.0000  0.0000  0.0000  0.0000  0.0000 </r>
        <r>  0.0056  0.0167  0.0998  0.0237  0.0000  0.0000  0.0000  0.0000  0.0000 </r>
       </set>
       <set comment="band 12">
        <r>  0.0001  0.0233  0.0410  0.0123  0.0000  0.0000  0.0000  0.0000  0.0000 </r>
        <r>  0.0001  0.0200  0.0446  0.0131  0.0000  0.0000  0.0000  0.0000  0.0000 </r>
       </set>
      </set>
      <set comment="kpoint 141">
       <set comment="band 1">
        <r>  0.2133  0.0058  0.0231  0.0040  0.0000  0.0000  0.0000  0.0000  0.0000 </r>
        <r>  0.2133  0.0058  0.0231  0.0040  0.0000  0.0000  0.0000  0.0000  0.0000 </r>
       </set>
       <set comment="band 2">
        <r>  0.1837  0.0065  0.0439  0.0050  0.0000  0.0000  0.0000  0.0000  0.0000 </r>
        <r>  0.1837  0.0065  0.0439  0.0050  0.0000  0.0000  0.0000  0.0000  0.0000 </r>
       </set>
       <set comment="band 3">
        <r>  0.0000  0.0554  0.0431  0.0572  0.0000  0.0000  0.0000  0.0000  0.0000 </r>
        <r>  0.0000  0.0554  0.0431  0.0572  0.0000  0.0000  0.0000  0.0000  0.0000 </r>
       </set>
       <set comment="band 4">
        <r>  0.0003  0.0992  0.0008  0.0993  0.0000  0.0000  0.0000  0.0000  0.0000 </r>
        <r>  0.0003  0.0992  0.0008  0.0993  0.0000  0.0000  0.0000  0.0000  0.0000 </r>
       </set>
       <set comment="band 5">
        <r>  0.0519  0.0000  0.0383  0.0039  0.0000  0.0000  0.0000  0.0000  0.0000 </r>
        <r>  0.0519  0.0000  0.0383  0.0039  0.0000  0.0000  0.0000  0.0000  0.0000 </r>
       </set>
       <set comment="band 6">
        <r>  0.0236  0.0338  0.0132  0.0385  0.0000  0.0000  0.0000  0.0000  0.0000 </r>
        <r>  0.0236  0.0338  0.0132  0.0385  0.0000  0.0000  0.0000  0.0000  0.0000 </r>
       </set>
       <set comment="band 7">
        <r>  0.0065  0.0664  0.0146  0.0671  0.0000  0.0000  0.0000  0.0000  0.0000 </r>
        <r>  0.0065  0.0664  0.0146  0.0671  0.0000  0.0000  0.0000  0.0000  0.0000 </r>
       </set>
       <set comment="band 8">
        <r>  0.0353  0.0311  0.0262  0.0686  0.0000  0.0000  0.0000  0.0000  0.0000 </r>
        <r>  0.0353  0.0312  0.0262  0.0685  0.0000  0.0000  0.0000  0.0000  0.0000 </r>
       </set>
       <set comment="band 9">
        <r>  0.0261  0.0128  0.0889  0.0113  0.0000  0.0000  0.0000  0.0000  0.0000 </r>
        <r>  0.0261  0.0128  0.0889  0.0113  0.0000  0.0000  0.0000  0.0000  0.0000 </r>
       </set>
       <set comment="band 10">
        <r>  0.0152  0.0508  0.0094  0.0072  0.0000  0.0000  0.0000  0.0000  0.0000 </r>
        <r>  0.0152  0.0508  0.0094  0.0072  0.0000  0.0000  0.0000  0.0000  0.0000 </r>
       </set>
       <set comment="band 11">
        <r>  0.0042  0.0173  0.1044  0.0273  0.0000  0.0000  0.0000  0.0000  0.0000 </r>
        <r>  0.0040  0.0166  0.1044  0.0278  0.0000  0.0000  0.0000  0.0000  0.0000 </r>
       </set>
       <set comment="band 12">
        <r>  0.0009  0.0069  0.0598  0.0164  0.0000  0.0000  0.0000  0.0000  0.0000 </r>
        <r>  0.0019  0.0444  0.0244  0.0049  0.0000  0.0000  0.0000  0.0000  0.0000 </r>
       </set>
      </set>
      <set comment="kpoint 142">
       <set comment="band 1">
        <r>  0.2133  0.0055  0.0231  0.0043  0.0000  0.0000  0.0000  0.0000  0.0000 </r>
        <r>  0.2133  0.0055  0.0231  0.0043  0.0000  0.0000  0.0000  0.0000  0.0000 </r>
       </set>
       <set comment="band 2">
        <r>  0.1835  0.0062  0.0439  0.0052  0.0000  0.0000  0.0000  0.0000  0.0000 </r>
        <r>  0.1835  0.0062  0.0439  0.0052  0.0000  0.0000  0.0000  0.0000  0.0000 </r>
       </set>
       <set comment="band 3">
        <r>  0.0000  0.0557  0.0431  0.0569  0.0000  0.0000  0.0000  0.0000  0.0000 </r>
        <r>  0.0000  0.0557  0.0431  0.0569  0.0000  0.0000  0.0000  0.0000  0.0000 </r>
       </set>
       <set comment="band 4">
        <r>  0.0001  0.0998  0.0003  0.0999  0.0000  0.0000  0.0000  0.0000  0.0000 </r>
        <r>  0.0001  0.0998  0.0003  0.0999  0.0000  0.0000  0.0000  0.0000  0.0000 </r>
       </set>
       <set comment="band 5">
        <r>  0.0523  0.0001  0.0386  0.0027  0.0000  0.0000  0.0000  0.0000  0.0000 </r>
        <r>  0.0523  0.0001  0.0386  0.0027  0.0000  0.0000  0.0000  0.0000  0.0000 </r>
       </set>
       <set comment="band 6">
        <r>  0.0237  0.0346  0.0132  0.0377  0.0000  0.0000  0.0000  0.0000  0.0000 </r>
        <r>  0.0237  0.0346  0.0132  0.0377  0.0000  0.0000  0.0000  0.0000  0.0000 </r>
       </set>
       <set comment="band 7">
        <r>  0.0036  0.0717  0.0084  0.0723  0.0000  0.0000  0.0000  0.0000  0.0000 </r>
        <r>  0.0036  0.0717  0.0084  0.0723  0.0000  0.0000  0.0000  0.0000  0.0000 </r>
       </set>
       <set comment="band 8">
        <r>  0.0289  0.0075  0.0952  0.0063  0.0000  0.0000  0.0000  0.0000  0.0000 </r>
        <r>  0.0289  0.0075  0.0951  0.0063  0.0000  0.0000  0.0000  0.0000  0.0000 </r>
       </set>
       <set comment="band 9">
        <r>  0.0385  0.0371  0.0280  0.0727  0.0000  0.0000  0.0000  0.0000  0.0000 </r>
        <r>  0.0385  0.0371  0.0280  0.0727  0.0000  0.0000  0.0000  0.0000  0.0000 </r>
       </set>
       <set comment="band 10">
        <r>  0.0120  0.0436  0.0077  0.0041  0.0000  0.0000  0.0000  0.0000  0.0000 </r>
        <r>  0.0120  0.0436  0.0077  0.0041  0.0000  0.0000  0.0000  0.0000  0.0000 </r>
       </set>
       <set comment="band 11">
        <r>  0.0041  0.0198  0.1076  0.0285  0.0000  0.0000  0.0000  0.0000  0.0000 </r>
        <r>  0.0038  0.0181  0.1082  0.0297  0.0000  0.0000  0.0000  0.0000  0.0000 </r>
       </set>
       <set comment="band 12">
        <r>  0.0006  0.0253  0.0411  0.0076  0.0000  0.0000  0.0000  0.0000  0.0000 </r>
        <r>  0.0003  0.0134  0.0480  0.0120  0.0000  0.0000  0.0000  0.0000  0.0000 </r>
       </set>
      </set>
      <set comment="kpoint 143">
       <set comment="band 1">
        <r>  0.2134  0.0052  0.0231  0.0046  0.0000  0.0000  0.0000  0.0000  0.0000 </r>
        <r>  0.2134  0.0052  0.0231  0.0046  0.0000  0.0000  0.0000  0.0000  0.0000 </r>
       </set>
       <set comment="band 2">
        <r>  0.1834  0.0059  0.0440  0.0054  0.0000  0.0000  0.0000  0.0000  0.0000 </r>
        <r>  0.1834  0.0059  0.0440  0.0054  0.0000  0.0000  0.0000  0.0000  0.0000 </r>
       </set>
       <set comment="band 3">
        <r>  0.0000  0.0560  0.0431  0.0566  0.0000  0.0000  0.0000  0.0000  0.0000 </r>
        <r>  0.0000  0.0560  0.0431  0.0566  0.0000  0.0000  0.0000  0.0000  0.0000 </r>
       </set>
       <set comment="band 4">
        <r>  0.0000  0.1002  0.0001  0.1002  0.0000  0.0000  0.0000  0.0000  0.0000 </r>
        <r>  0.0000  0.1002  0.0001  0.1002  0.0000  0.0000  0.0000  0.0000  0.0000 </r>
       </set>
       <set comment="band 5">
        <r>  0.0525  0.0004  0.0388  0.0017  0.0000  0.0000  0.0000  0.0000  0.0000 </r>
        <r>  0.0525  0.0004  0.0388  0.0017  0.0000  0.0000  0.0000  0.0000  0.0000 </r>
       </set>
       <set comment="band 6">
        <r>  0.0237  0.0353  0.0133  0.0369  0.0000  0.0000  0.0000  0.0000  0.0000 </r>
        <r>  0.0237  0.0353  0.0133  0.0369  0.0000  0.0000  0.0000  0.0000  0.0000 </r>
       </set>
       <set comment="band 7">
        <r>  0.0011  0.0766  0.0026  0.0769  0.0000  0.0000  0.0000  0.0000  0.0000 </r>
        <r>  0.0011  0.0766  0.0026  0.0769  0.0000  0.0000  0.0000  0.0000  0.0000 </r>
       </set>
       <set comment="band 8">
        <r>  0.0314  0.0024  0.1010  0.0018  0.0000  0.0000  0.0000  0.0000  0.0000 </r>
        <r>  0.0314  0.0024  0.1010  0.0018  0.0000  0.0000  0.0000  0.0000  0.0000 </r>
       </set>
       <set comment="band 9">
        <r>  0.0446  0.0500  0.0319  0.0774  0.0000  0.0000  0.0000  0.0000  0.0000 </r>
        <r>  0.0446  0.0500  0.0319  0.0774  0.0000  0.0000  0.0000  0.0000  0.0000 </r>
       </set>
       <set comment="band 10">
        <r>  0.0059  0.0297  0.0039  0.0003  0.0000  0.0000  0.0000  0.0000  0.0000 </r>
        <r>  0.0059  0.0297  0.0039  0.0003  0.0000  0.0000  0.0000  0.0000  0.0000 </r>
       </set>
       <set comment="band 11">
        <r>  0.0036  0.0205  0.1242  0.0328  0.0000  0.0000  0.0000  0.0000  0.0000 </r>
        <r>  0.0040  0.0288  0.1145  0.0317  0.0000  0.0000  0.0000  0.0000  0.0000 </r>
       </set>
       <set comment="band 12">
        <r>  0.0007  0.0197  0.0299  0.0047  0.0000  0.0000  0.0000  0.0000  0.0000 </r>
        <r>  0.0009  0.0089  0.0393  0.0072  0.0000  0.0000  0.0000  0.0000  0.0000 </r>
       </set>
      </set>
      <set comment="kpoint 144">
       <set comment="band 1">
        <r>  0.2134  0.0049  0.0231  0.0049  0.0000  0.0000  0.0000  0.0000  0.0000 </r>
        <r>  0.2134  0.0049  0.0231  0.0049  0.0000  0.0000  0.0000  0.0000  0.0000 </r>
       </set>
       <set comment="band 2">
        <r>  0.1834  0.0057  0.0440  0.0057  0.0000  0.0000  0.0000  0.0000  0.0000 </r>
        <r>  0.1834  0.0057  0.0440  0.0057  0.0000  0.0000  0.0000  0.0000  0.0000 </r>
       </set>
       <set comment="band 3">
        <r>  0.0000  0.0563  0.0431  0.0563  0.0000  0.0000  0.0000  0.0000  0.0000 </r>
        <r>  0.0000  0.0563  0.0431  0.0563  0.0000  0.0000  0.0000  0.0000  0.0000 </r>
       </set>
       <set comment="band 4">
        <r>  0.0000  0.1003  0.0000  0.1003  0.0000  0.0000  0.0000  0.0000  0.0000 </r>
        <r>  0.0000  0.1003  0.0000  0.1003  0.0000  0.0000  0.0000  0.0000  0.0000 </r>
       </set>
       <set comment="band 5">
        <r>  0.0525  0.0009  0.0389  0.0009  0.0000  0.0000  0.0000  0.0000  0.0000 </r>
        <r>  0.0525  0.0009  0.0389  0.0009  0.0000  0.0000  0.0000  0.0000  0.0000 </r>
       </set>
       <set comment="band 6">
        <r>  0.0237  0.0361  0.0133  0.0361  0.0000  0.0000  0.0000  0.0000  0.0000 </r>
        <r>  0.0237  0.0361  0.0133  0.0361  0.0000  0.0000  0.0000  0.0000  0.0000 </r>
       </set>
       <set comment="band 7">
        <r>  0.0000  0.0789  0.0000  0.0789  0.0000  0.0000  0.0000  0.0000  0.0000 </r>
        <r>  0.0000  0.0789  0.0000  0.0789  0.0000  0.0000  0.0000  0.0000  0.0000 </r>
       </set>
       <set comment="band 8">
        <r>  0.0325  0.0000  0.1035  0.0000  0.0000  0.0000  0.0000  0.0000  0.0000 </r>
        <r>  0.0325  0.0000  0.1035  0.0000  0.0000  0.0000  0.0000  0.0000  0.0000 </r>
       </set>
       <set comment="band 9">
        <r>  0.0505  0.0719  0.0358  0.0719  0.0000  0.0000  0.0000  0.0000  0.0000 </r>
        <r>  0.0505  0.0719  0.0358  0.0719  0.0000  0.0000  0.0000  0.0000  0.0000 </r>
       </set>
       <set comment="band 10">
        <r>  0.0000  0.0067  0.0000  0.0067  0.0000  0.0000  0.0000  0.0000  0.0000 </r>
        <r>  0.0000  0.0067  0.0000  0.0067  0.0000  0.0000  0.0000  0.0000  0.0000 </r>
       </set>
       <set comment="band 11">
        <r>  0.0036  0.0327  0.1565  0.0391  0.0000  0.0000  0.0000  0.0000  0.0000 </r>
        <r>  0.0034  0.0410  0.1451  0.0357  0.0000  0.0000  0.0000  0.0000  0.0000 </r>
       </set>
       <set comment="band 12">
        <r>  0.0001  0.0000  0.0003  0.0010  0.0000  0.0000  0.0000  0.0000  0.0000 </r>
        <r>  0.0001  0.0034  0.0003  0.0022  0.0000  0.0000  0.0000  0.0000  0.0000 </r>
       </set>
      </set>
      <set comment="kpoint 145">
       <set comment="band 1">
        <r>  0.2134  0.0049  0.0231  0.0049  0.0000  0.0000  0.0000  0.0000  0.0000 </r>
        <r>  0.2134  0.0049  0.0231  0.0049  0.0000  0.0000  0.0000  0.0000  0.0000 </r>
       </set>
       <set comment="band 2">
        <r>  0.1834  0.0057  0.0440  0.0057  0.0000  0.0000  0.0000  0.0000  0.0000 </r>
        <r>  0.1834  0.0057  0.0440  0.0057  0.0000  0.0000  0.0000  0.0000  0.0000 </r>
       </set>
       <set comment="band 3">
        <r>  0.0000  0.0563  0.0431  0.0563  0.0000  0.0000  0.0000  0.0000  0.0000 </r>
        <r>  0.0000  0.0563  0.0431  0.0563  0.0000  0.0000  0.0000  0.0000  0.0000 </r>
       </set>
       <set comment="band 4">
        <r>  0.0000  0.1003  0.0000  0.1003  0.0000  0.0000  0.0000  0.0000  0.0000 </r>
        <r>  0.0000  0.1003  0.0000  0.1003  0.0000  0.0000  0.0000  0.0000  0.0000 </r>
       </set>
       <set comment="band 5">
        <r>  0.0525  0.0009  0.0389  0.0009  0.0000  0.0000  0.0000  0.0000  0.0000 </r>
        <r>  0.0525  0.0009  0.0389  0.0009  0.0000  0.0000  0.0000  0.0000  0.0000 </r>
       </set>
       <set comment="band 6">
        <r>  0.0237  0.0361  0.0133  0.0361  0.0000  0.0000  0.0000  0.0000  0.0000 </r>
        <r>  0.0237  0.0361  0.0133  0.0361  0.0000  0.0000  0.0000  0.0000  0.0000 </r>
       </set>
       <set comment="band 7">
        <r>  0.0000  0.0789  0.0000  0.0789  0.0000  0.0000  0.0000  0.0000  0.0000 </r>
        <r>  0.0000  0.0789  0.0000  0.0789  0.0000  0.0000  0.0000  0.0000  0.0000 </r>
       </set>
       <set comment="band 8">
        <r>  0.0325  0.0000  0.1035  0.0000  0.0000  0.0000  0.0000  0.0000  0.0000 </r>
        <r>  0.0325  0.0000  0.1036  0.0000  0.0000  0.0000  0.0000  0.0000  0.0000 </r>
       </set>
       <set comment="band 9">
        <r>  0.0505  0.0719  0.0358  0.0719  0.0000  0.0000  0.0000  0.0000  0.0000 </r>
        <r>  0.0505  0.0719  0.0358  0.0719  0.0000  0.0000  0.0000  0.0000  0.0000 </r>
       </set>
       <set comment="band 10">
        <r>  0.0000  0.0067  0.0000  0.0067  0.0000  0.0000  0.0000  0.0000  0.0000 </r>
        <r>  0.0000  0.0067  0.0000  0.0067  0.0000  0.0000  0.0000  0.0000  0.0000 </r>
       </set>
       <set comment="band 11">
        <r>  0.0041  0.0296  0.1337  0.0326  0.0000  0.0000  0.0000  0.0000  0.0000 </r>
        <r>  0.0039  0.0295  0.1286  0.0358  0.0000  0.0000  0.0000  0.0000  0.0000 </r>
       </set>
       <set comment="band 12">
        <r>  0.0014  0.0100  0.0210  0.0001  0.0000  0.0000  0.0000  0.0000  0.0000 </r>
        <r>  0.0012  0.0037  0.0097  0.0094  0.0000  0.0000  0.0000  0.0000  0.0000 </r>
       </set>
      </set>
      <set comment="kpoint 146">
       <set comment="band 1">
        <r>  0.2143  0.0057  0.0199  0.0057  0.0000  0.0000  0.0000  0.0000  0.0000 </r>
        <r>  0.2143  0.0057  0.0199  0.0057  0.0000  0.0000  0.0000  0.0000  0.0000 </r>
       </set>
       <set comment="band 2">
        <r>  0.1817  0.0067  0.0438  0.0067  0.0000  0.0000  0.0000  0.0000  0.0000 </r>
        <r>  0.1817  0.0067  0.0438  0.0067  0.0000  0.0000  0.0000  0.0000  0.0000 </r>
       </set>
       <set comment="band 3">
        <r>  0.0004  0.0534  0.0477  0.0534  0.0000  0.0000  0.0000  0.0000  0.0000 </r>
        <r>  0.0004  0.0534  0.0477  0.0534  0.0000  0.0000  0.0000  0.0000  0.0000 </r>
       </set>
       <set comment="band 4">
        <r>  0.0000  0.1006  0.0000  0.1006  0.0000  0.0000  0.0000  0.0000  0.0000 </r>
        <r>  0.0000  0.1006  0.0000  0.1006  0.0000  0.0000  0.0000  0.0000  0.0000 </r>
       </set>
       <set comment="band 5">
        <r>  0.0528  0.0010  0.0398  0.0010  0.0000  0.0000  0.0000  0.0000  0.0000 </r>
        <r>  0.0528  0.0010  0.0398  0.0010  0.0000  0.0000  0.0000  0.0000  0.0000 </r>
       </set>
       <set comment="band 6">
        <r>  0.0204  0.0377  0.0110  0.0377  0.0000  0.0000  0.0000  0.0000  0.0000 </r>
        <r>  0.0204  0.0377  0.0110  0.0377  0.0000  0.0000  0.0000  0.0000  0.0000 </r>
       </set>
       <set comment="band 7">
        <r>  0.0000  0.0780  0.0000  0.0780  0.0000  0.0000  0.0000  0.0000  0.0000 </r>
        <r>  0.0000  0.0780  0.0000  0.0780  0.0000  0.0000  0.0000  0.0000  0.0000 </r>
       </set>
       <set comment="band 8">
        <r>  0.0347  0.0000  0.1083  0.0000  0.0000  0.0000  0.0000  0.0000  0.0000 </r>
        <r>  0.0346  0.0000  0.1084  0.0000  0.0000  0.0000  0.0000  0.0000  0.0000 </r>
       </set>
       <set comment="band 9">
        <r>  0.0542  0.0688  0.0365  0.0688  0.0000  0.0000  0.0000  0.0000  0.0000 </r>
        <r>  0.0542  0.0688  0.0365  0.0688  0.0000  0.0000  0.0000  0.0000  0.0000 </r>
       </set>
       <set comment="band 10">
        <r>  0.0000  0.0068  0.0000  0.0068  0.0000  0.0000  0.0000  0.0000  0.0000 </r>
        <r>  0.0000  0.0068  0.0000  0.0068  0.0000  0.0000  0.0000  0.0000  0.0000 </r>
       </set>
       <set comment="band 11">
        <r>  0.0001  0.0315  0.1142  0.0424  0.0000  0.0000  0.0000  0.0000  0.0000 </r>
        <r>  0.0002  0.0371  0.1244  0.0295  0.0000  0.0000  0.0000  0.0000  0.0000 </r>
       </set>
       <set comment="band 12">
        <r>  0.0001  0.0016  0.0009  0.0006  0.0000  0.0000  0.0000  0.0000  0.0000 </r>
        <r>  0.0008  0.0030  0.0046  0.0024  0.0000  0.0000  0.0000  0.0000  0.0000 </r>
       </set>
      </set>
      <set comment="kpoint 147">
       <set comment="band 1">
        <r>  0.2147  0.0066  0.0169  0.0066  0.0000  0.0000  0.0000  0.0000  0.0000 </r>
        <r>  0.2147  0.0066  0.0169  0.0066  0.0000  0.0000  0.0000  0.0000  0.0000 </r>
       </set>
       <set comment="band 2">
        <r>  0.1798  0.0078  0.0435  0.0078  0.0000  0.0000  0.0000  0.0000  0.0000 </r>
        <r>  0.1798  0.0078  0.0435  0.0078  0.0000  0.0000  0.0000  0.0000  0.0000 </r>
       </set>
       <set comment="band 3">
        <r>  0.0013  0.0507  0.0520  0.0507  0.0000  0.0000  0.0000  0.0000  0.0000 </r>
        <r>  0.0013  0.0507  0.0520  0.0507  0.0000  0.0000  0.0000  0.0000  0.0000 </r>
       </set>
       <set comment="band 4">
        <r>  0.0000  0.1010  0.0000  0.1010  0.0000  0.0000  0.0000  0.0000  0.0000 </r>
        <r>  0.0000  0.1010  0.0000  0.1010  0.0000  0.0000  0.0000  0.0000  0.0000 </r>
       </set>
       <set comment="band 5">
        <r>  0.0531  0.0012  0.0407  0.0012  0.0000  0.0000  0.0000  0.0000  0.0000 </r>
        <r>  0.0531  0.0012  0.0407  0.0012  0.0000  0.0000  0.0000  0.0000  0.0000 </r>
       </set>
       <set comment="band 6">
        <r>  0.0165  0.0389  0.0081  0.0389  0.0000  0.0000  0.0000  0.0000  0.0000 </r>
        <r>  0.0165  0.0389  0.0081  0.0389  0.0000  0.0000  0.0000  0.0000  0.0000 </r>
       </set>
       <set comment="band 7">
        <r>  0.0000  0.0771  0.0000  0.0772  0.0000  0.0000  0.0000  0.0000  0.0000 </r>
        <r>  0.0000  0.0772  0.0000  0.0771  0.0000  0.0000  0.0000  0.0000  0.0000 </r>
       </set>
       <set comment="band 8">
        <r>  0.0372  0.0004  0.1136  0.0004  0.0000  0.0000  0.0000  0.0000  0.0000 </r>
        <r>  0.0372  0.0004  0.1135  0.0004  0.0000  0.0000  0.0000  0.0000  0.0000 </r>
       </set>
       <set comment="band 9">
        <r>  0.0576  0.0658  0.0368  0.0658  0.0000  0.0000  0.0000  0.0000  0.0000 </r>
        <r>  0.0576  0.0658  0.0368  0.0658  0.0000  0.0000  0.0000  0.0000  0.0000 </r>
       </set>
       <set comment="band 10">
        <r>  0.0000  0.0067  0.0000  0.0067  0.0000  0.0000  0.0000  0.0000  0.0000 </r>
        <r>  0.0000  0.0067  0.0000  0.0067  0.0000  0.0000  0.0000  0.0000  0.0000 </r>
       </set>
       <set comment="band 11">
        <r>  0.0032  0.0191  0.0549  0.0211  0.0000  0.0000  0.0000  0.0000  0.0000 </r>
        <r>  0.0048  0.0258  0.0468  0.0223  0.0000  0.0000  0.0000  0.0000  0.0000 </r>
       </set>
       <set comment="band 12">
        <r>  0.0071  0.0032  0.0312  0.0025  0.0000  0.0000  0.0000  0.0000  0.0000 </r>
        <r>  0.0013  0.0070  0.0046  0.0135  0.0000  0.0000  0.0000  0.0000  0.0000 </r>
       </set>
      </set>
      <set comment="kpoint 148">
       <set comment="band 1">
        <r>  0.2147  0.0074  0.0142  0.0074  0.0000  0.0000  0.0000  0.0000  0.0000 </r>
        <r>  0.2147  0.0074  0.0142  0.0074  0.0000  0.0000  0.0000  0.0000  0.0000 </r>
       </set>
       <set comment="band 2">
        <r>  0.1777  0.0089  0.0432  0.0089  0.0000  0.0000  0.0000  0.0000  0.0000 </r>
        <r>  0.1777  0.0089  0.0432  0.0089  0.0000  0.0000  0.0000  0.0000  0.0000 </r>
       </set>
       <set comment="band 3">
        <r>  0.0024  0.0482  0.0561  0.0482  0.0000  0.0000  0.0000  0.0000  0.0000 </r>
        <r>  0.0024  0.0482  0.0561  0.0482  0.0000  0.0000  0.0000  0.0000  0.0000 </r>
       </set>
       <set comment="band 4">
        <r>  0.0000  0.1014  0.0000  0.1014  0.0000  0.0000  0.0000  0.0000  0.0000 </r>
        <r>  0.0000  0.1014  0.0000  0.1013  0.0000  0.0000  0.0000  0.0000  0.0000 </r>
       </set>
       <set comment="band 5">
        <r>  0.0535  0.0013  0.0418  0.0013  0.0000  0.0000  0.0000  0.0000  0.0000 </r>
        <r>  0.0535  0.0013  0.0418  0.0013  0.0000  0.0000  0.0000  0.0000  0.0000 </r>
       </set>
       <set comment="band 6">
        <r>  0.0116  0.0392  0.0042  0.0392  0.0000  0.0000  0.0000  0.0000  0.0000 </r>
        <r>  0.0116  0.0392  0.0042  0.0392  0.0000  0.0000  0.0000  0.0000  0.0000 </r>
       </set>
       <set comment="band 7">
        <r>  0.0000  0.0765  0.0000  0.0765  0.0000  0.0000  0.0000  0.0000  0.0000 </r>
        <r>  0.0000  0.0765  0.0000  0.0765  0.0000  0.0000  0.0000  0.0000  0.0000 </r>
       </set>
       <set comment="band 8">
        <r>  0.0407  0.0015  0.1195  0.0015  0.0000  0.0000  0.0000  0.0000  0.0000 </r>
        <r>  0.0407  0.0015  0.1196  0.0015  0.0000  0.0000  0.0000  0.0000  0.0000 </r>
       </set>
       <set comment="band 9">
        <r>  0.0608  0.0631  0.0368  0.0631  0.0000  0.0000  0.0000  0.0000  0.0000 </r>
        <r>  0.0608  0.0631  0.0368  0.0631  0.0000  0.0000  0.0000  0.0000  0.0000 </r>
       </set>
       <set comment="band 10">
        <r>  0.0000  0.0067  0.0000  0.0067  0.0000  0.0000  0.0000  0.0000  0.0000 </r>
        <r>  0.0000  0.0067  0.0000  0.0067  0.0000  0.0000  0.0000  0.0000  0.0000 </r>
       </set>
       <set comment="band 11">
        <r>  0.0097  0.0148  0.0246  0.0149  0.0000  0.0000  0.0000  0.0000  0.0000 </r>
        <r>  0.0096  0.0150  0.0250  0.0143  0.0000  0.0000  0.0000  0.0000  0.0000 </r>
       </set>
       <set comment="band 12">
        <r>  0.0115  0.0116  0.0275  0.0130  0.0000  0.0000  0.0000  0.0000  0.0000 </r>
        <r>  0.0108  0.0133  0.0240  0.0135  0.0000  0.0000  0.0000  0.0000  0.0000 </r>
       </set>
      </set>
      <set comment="kpoint 149">
       <set comment="band 1">
        <r>  0.2143  0.0080  0.0118  0.0080  0.0000  0.0000  0.0000  0.0000  0.0000 </r>
        <r>  0.2143  0.0080  0.0118  0.0080  0.0000  0.0000  0.0000  0.0000  0.0000 </r>
       </set>
       <set comment="band 2">
        <r>  0.1755  0.0102  0.0428  0.0102  0.0000  0.0000  0.0000  0.0000  0.0000 </r>
        <r>  0.1755  0.0102  0.0428  0.0102  0.0000  0.0000  0.0000  0.0000  0.0000 </r>
       </set>
       <set comment="band 3">
        <r>  0.0038  0.0460  0.0599  0.0460  0.0000  0.0000  0.0000  0.0000  0.0000 </r>
        <r>  0.0038  0.0460  0.0599  0.0460  0.0000  0.0000  0.0000  0.0000  0.0000 </r>
       </set>
       <set comment="band 4">
        <r>  0.0000  0.1018  0.0000  0.1018  0.0000  0.0000  0.0000  0.0000  0.0000 </r>
        <r>  0.0000  0.1018  0.0000  0.1018  0.0000  0.0000  0.0000  0.0000  0.0000 </r>
       </set>
       <set comment="band 5">
        <r>  0.0540  0.0014  0.0430  0.0014  0.0000  0.0000  0.0000  0.0000  0.0000 </r>
        <r>  0.0540  0.0014  0.0430  0.0014  0.0000  0.0000  0.0000  0.0000  0.0000 </r>
       </set>
       <set comment="band 6">
        <r>  0.0051  0.0369  0.0002  0.0369  0.0000  0.0000  0.0000  0.0000  0.0000 </r>
        <r>  0.0051  0.0369  0.0002  0.0369  0.0000  0.0000  0.0000  0.0000  0.0000 </r>
       </set>
       <set comment="band 7">
        <r>  0.0000  0.0760  0.0000  0.0760  0.0000  0.0000  0.0000  0.0000  0.0000 </r>
        <r>  0.0000  0.0760  0.0000  0.0760  0.0000  0.0000  0.0000  0.0000  0.0000 </r>
       </set>
       <set comment="band 8">
        <r>  0.0457  0.0052  0.1257  0.0052  0.0000  0.0000  0.0000  0.0000  0.0000 </r>
        <r>  0.0458  0.0052  0.1256  0.0052  0.0000  0.0000  0.0000  0.0000  0.0000 </r>
       </set>
       <set comment="band 9">
        <r>  0.0637  0.0605  0.0366  0.0605  0.0000  0.0000  0.0000  0.0000  0.0000 </r>
        <r>  0.0637  0.0605  0.0366  0.0605  0.0000  0.0000  0.0000  0.0000  0.0000 </r>
       </set>
       <set comment="band 10">
        <r>  0.0000  0.0065  0.0000  0.0065  0.0000  0.0000  0.0000  0.0000  0.0000 </r>
        <r>  0.0000  0.0065  0.0000  0.0065  0.0000  0.0000  0.0000  0.0000  0.0000 </r>
       </set>
       <set comment="band 11">
        <r>  0.0133  0.0113  0.0157  0.0112  0.0000  0.0000  0.0000  0.0000  0.0000 </r>
        <r>  0.0133  0.0113  0.0156  0.0112  0.0000  0.0000  0.0000  0.0000  0.0000 </r>
       </set>
       <set comment="band 12">
        <r>  0.0145  0.0108  0.0273  0.0103  0.0000  0.0000  0.0000  0.0000  0.0000 </r>
        <r>  0.0132  0.0131  0.0197  0.0131  0.0000  0.0000  0.0000  0.0000  0.0000 </r>
       </set>
      </set>
      <set comment="kpoint 150">
       <set comment="band 1">
        <r>  0.2136  0.0085  0.0097  0.0085  0.0000  0.0000  0.0000  0.0000  0.0000 </r>
        <r>  0.2136  0.0085  0.0097  0.0085  0.0000  0.0000  0.0000  0.0000  0.0000 </r>
       </set>
       <set comment="band 2">
        <r>  0.1732  0.0115  0.0425  0.0115  0.0000  0.0000  0.0000  0.0000  0.0000 </r>
        <r>  0.1732  0.0115  0.0425  0.0115  0.0000  0.0000  0.0000  0.0000  0.0000 </r>
       </set>
       <set comment="band 3">
        <r>  0.0054  0.0440  0.0634  0.0440  0.0000  0.0000  0.0000  0.0000  0.0000 </r>
        <r>  0.0054  0.0440  0.0634  0.0440  0.0000  0.0000  0.0000  0.0000  0.0000 </r>
       </set>
       <set comment="band 4">
        <r>  0.0000  0.1022  0.0000  0.1022  0.0000  0.0000  0.0000  0.0000  0.0000 </r>
        <r>  0.0000  0.1022  0.0000  0.1022  0.0000  0.0000  0.0000  0.0000  0.0000 </r>
       </set>
       <set comment="band 5">
        <r>  0.0547  0.0015  0.0444  0.0015  0.0000  0.0000  0.0000  0.0000  0.0000 </r>
        <r>  0.0547  0.0015  0.0444  0.0015  0.0000  0.0000  0.0000  0.0000  0.0000 </r>
       </set>
       <set comment="band 6">
        <r>  0.0000  0.0255  0.0092  0.0255  0.0000  0.0000  0.0000  0.0000  0.0000 </r>
        <r>  0.0000  0.0255  0.0092  0.0255  0.0000  0.0000  0.0000  0.0000  0.0000 </r>
       </set>
       <set comment="band 7">
        <r>  0.0000  0.0756  0.0000  0.0756  0.0000  0.0000  0.0000  0.0000  0.0000 </r>
        <r>  0.0000  0.0756  0.0000  0.0756  0.0000  0.0000  0.0000  0.0000  0.0000 </r>
       </set>
       <set comment="band 8">
        <r>  0.0492  0.0178  0.1185  0.0178  0.0000  0.0000  0.0000  0.0000  0.0000 </r>
        <r>  0.0492  0.0178  0.1186  0.0178  0.0000  0.0000  0.0000  0.0000  0.0000 </r>
       </set>
       <set comment="band 9">
        <r>  0.0663  0.0581  0.0360  0.0581  0.0000  0.0000  0.0000  0.0000  0.0000 </r>
        <r>  0.0663  0.0581  0.0360  0.0581  0.0000  0.0000  0.0000  0.0000  0.0000 </r>
       </set>
       <set comment="band 10">
        <r>  0.0000  0.0063  0.0000  0.0063  0.0000  0.0000  0.0000  0.0000  0.0000 </r>
        <r>  0.0000  0.0063  0.0000  0.0063  0.0000  0.0000  0.0000  0.0000  0.0000 </r>
       </set>
       <set comment="band 11">
        <r>  0.0163  0.0088  0.0107  0.0089  0.0000  0.0000  0.0000  0.0000  0.0000 </r>
        <r>  0.0163  0.0088  0.0107  0.0088  0.0000  0.0000  0.0000  0.0000  0.0000 </r>
       </set>
       <set comment="band 12">
        <r>  0.0163  0.0108  0.0208  0.0109  0.0000  0.0000  0.0000  0.0000  0.0000 </r>
        <r>  0.0166  0.0101  0.0233  0.0100  0.0000  0.0000  0.0000  0.0000  0.0000 </r>
       </set>
      </set>
      <set comment="kpoint 151">
       <set comment="band 1">
        <r>  0.2129  0.0089  0.0079  0.0089  0.0000  0.0000  0.0000  0.0000  0.0000 </r>
        <r>  0.2129  0.0089  0.0079  0.0089  0.0000  0.0000  0.0000  0.0000  0.0000 </r>
       </set>
       <set comment="band 2">
        <r>  0.1707  0.0129  0.0421  0.0129  0.0000  0.0000  0.0000  0.0000  0.0000 </r>
        <r>  0.1707  0.0129  0.0421  0.0129  0.0000  0.0000  0.0000  0.0000  0.0000 </r>
       </set>
       <set comment="band 3">
        <r>  0.0070  0.0423  0.0665  0.0423  0.0000  0.0000  0.0000  0.0000  0.0000 </r>
        <r>  0.0070  0.0423  0.0665  0.0423  0.0000  0.0000  0.0000  0.0000  0.0000 </r>
       </set>
       <set comment="band 4">
        <r>  0.0000  0.1027  0.0000  0.1027  0.0000  0.0000  0.0000  0.0000  0.0000 </r>
        <r>  0.0000  0.1027  0.0000  0.1027  0.0000  0.0000  0.0000  0.0000  0.0000 </r>
       </set>
       <set comment="band 5">
        <r>  0.0554  0.0016  0.0460  0.0016  0.0000  0.0000  0.0000  0.0000  0.0000 </r>
        <r>  0.0554  0.0016  0.0460  0.0016  0.0000  0.0000  0.0000  0.0000  0.0000 </r>
       </set>
       <set comment="band 6">
        <r>  0.0000  0.0753  0.0000  0.0753  0.0000  0.0000  0.0000  0.0000  0.0000 </r>
        <r>  0.0000  0.0753  0.0000  0.0753  0.0000  0.0000  0.0000  0.0000  0.0000 </r>
       </set>
       <set comment="band 7">
        <r>  0.0090  0.0086  0.0497  0.0086  0.0000  0.0000  0.0000  0.0000  0.0000 </r>
        <r>  0.0090  0.0086  0.0497  0.0086  0.0000  0.0000  0.0000  0.0000  0.0000 </r>
       </set>
       <set comment="band 8">
        <r>  0.0687  0.0559  0.0352  0.0559  0.0000  0.0000  0.0000  0.0000  0.0000 </r>
        <r>  0.0686  0.0560  0.0352  0.0559  0.0000  0.0000  0.0000  0.0000  0.0000 </r>
       </set>
       <set comment="band 9">
        <r>  0.0384  0.0361  0.0801  0.0361  0.0000  0.0000  0.0000  0.0000  0.0000 </r>
        <r>  0.0384  0.0361  0.0801  0.0361  0.0000  0.0000  0.0000  0.0000  0.0000 </r>
       </set>
       <set comment="band 10">
        <r>  0.0000  0.0061  0.0000  0.0061  0.0000  0.0000  0.0000  0.0000  0.0000 </r>
        <r>  0.0000  0.0061  0.0000  0.0061  0.0000  0.0000  0.0000  0.0000  0.0000 </r>
       </set>
       <set comment="band 11">
        <r>  0.0187  0.0074  0.0083  0.0073  0.0000  0.0000  0.0000  0.0000  0.0000 </r>
        <r>  0.0186  0.0073  0.0083  0.0073  0.0000  0.0000  0.0000  0.0000  0.0000 </r>
       </set>
       <set comment="band 12">
        <r>  0.0190  0.0097  0.0200  0.0096  0.0000  0.0000  0.0000  0.0000  0.0000 </r>
        <r>  0.0190  0.0095  0.0203  0.0095  0.0000  0.0000  0.0000  0.0000  0.0000 </r>
       </set>
      </set>
      <set comment="kpoint 152">
       <set comment="band 1">
        <r>  0.2121  0.0091  0.0064  0.0091  0.0000  0.0000  0.0000  0.0000  0.0000 </r>
        <r>  0.2121  0.0091  0.0064  0.0091  0.0000  0.0000  0.0000  0.0000  0.0000 </r>
       </set>
       <set comment="band 2">
        <r>  0.1681  0.0144  0.0417  0.0144  0.0000  0.0000  0.0000  0.0000  0.0000 </r>
        <r>  0.1681  0.0144  0.0417  0.0144  0.0000  0.0000  0.0000  0.0000  0.0000 </r>
       </set>
       <set comment="band 3">
        <r>  0.0086  0.0408  0.0695  0.0408  0.0000  0.0000  0.0000  0.0000  0.0000 </r>
        <r>  0.0086  0.0408  0.0695  0.0408  0.0000  0.0000  0.0000  0.0000  0.0000 </r>
       </set>
       <set comment="band 4">
        <r>  0.0000  0.1032  0.0000  0.1032  0.0000  0.0000  0.0000  0.0000  0.0000 </r>
        <r>  0.0000  0.1032  0.0000  0.1032  0.0000  0.0000  0.0000  0.0000  0.0000 </r>
       </set>
       <set comment="band 5">
        <r>  0.0564  0.0017  0.0479  0.0017  0.0000  0.0000  0.0000  0.0000  0.0000 </r>
        <r>  0.0564  0.0017  0.0479  0.0017  0.0000  0.0000  0.0000  0.0000  0.0000 </r>
       </set>
       <set comment="band 6">
        <r>  0.0000  0.0750  0.0000  0.0750  0.0000  0.0000  0.0000  0.0000  0.0000 </r>
        <r>  0.0000  0.0750  0.0000  0.0750  0.0000  0.0000  0.0000  0.0000  0.0000 </r>
       </set>
       <set comment="band 7">
        <r>  0.0186  0.0023  0.0767  0.0023  0.0000  0.0000  0.0000  0.0000  0.0000 </r>
        <r>  0.0186  0.0023  0.0767  0.0023  0.0000  0.0000  0.0000  0.0000  0.0000 </r>
       </set>
       <set comment="band 8">
        <r>  0.0707  0.0539  0.0342  0.0539  0.0000  0.0000  0.0000  0.0000  0.0000 </r>
        <r>  0.0707  0.0539  0.0342  0.0539  0.0000  0.0000  0.0000  0.0000  0.0000 </r>
       </set>
       <set comment="band 9">
        <r>  0.0000  0.0058  0.0000  0.0058  0.0000  0.0000  0.0000  0.0000  0.0000 </r>
        <r>  0.0000  0.0058  0.0000  0.0058  0.0000  0.0000  0.0000  0.0000  0.0000 </r>
       </set>
       <set comment="band 10">
        <r>  0.0270  0.0437  0.0549  0.0437  0.0000  0.0000  0.0000  0.0000  0.0000 </r>
        <r>  0.0270  0.0437  0.0549  0.0437  0.0000  0.0000  0.0000  0.0000  0.0000 </r>
       </set>
       <set comment="band 11">
        <r>  0.0208  0.0064  0.0071  0.0065  0.0000  0.0000  0.0000  0.0000  0.0000 </r>
        <r>  0.0208  0.0065  0.0072  0.0064  0.0000  0.0000  0.0000  0.0000  0.0000 </r>
       </set>
       <set comment="band 12">
        <r>  0.0216  0.0085  0.0186  0.0084  0.0000  0.0000  0.0000  0.0000  0.0000 </r>
        <r>  0.0216  0.0086  0.0185  0.0084  0.0000  0.0000  0.0000  0.0000  0.0000 </r>
       </set>
      </set>
      <set comment="kpoint 153">
       <set comment="band 1">
        <r>  0.2113  0.0092  0.0052  0.0092  0.0000  0.0000  0.0000  0.0000  0.0000 </r>
        <r>  0.2113  0.0092  0.0052  0.0092  0.0000  0.0000  0.0000  0.0000  0.0000 </r>
       </set>
       <set comment="band 2">
        <r>  0.1654  0.0159  0.0413  0.0159  0.0000  0.0000  0.0000  0.0000  0.0000 </r>
        <r>  0.1654  0.0159  0.0413  0.0159  0.0000  0.0000  0.0000  0.0000  0.0000 </r>
       </set>
       <set comment="band 3">
        <r>  0.0100  0.0396  0.0722  0.0396  0.0000  0.0000  0.0000  0.0000  0.0000 </r>
        <r>  0.0100  0.0396  0.0722  0.0396  0.0000  0.0000  0.0000  0.0000  0.0000 </r>
       </set>
       <set comment="band 4">
        <r>  0.0000  0.1037  0.0000  0.1037  0.0000  0.0000  0.0000  0.0000  0.0000 </r>
        <r>  0.0000  0.1037  0.0000  0.1037  0.0000  0.0000  0.0000  0.0000  0.0000 </r>
       </set>
       <set comment="band 5">
        <r>  0.0576  0.0018  0.0499  0.0018  0.0000  0.0000  0.0000  0.0000  0.0000 </r>
        <r>  0.0576  0.0018  0.0499  0.0018  0.0000  0.0000  0.0000  0.0000  0.0000 </r>
       </set>
       <set comment="band 6">
        <r>  0.0000  0.0748  0.0000  0.0749  0.0000  0.0000  0.0000  0.0000  0.0000 </r>
        <r>  0.0000  0.0749  0.0000  0.0748  0.0000  0.0000  0.0000  0.0000  0.0000 </r>
       </set>
       <set comment="band 7">
        <r>  0.0236  0.0005  0.0892  0.0005  0.0000  0.0000  0.0000  0.0000  0.0000 </r>
        <r>  0.0236  0.0005  0.0892  0.0005  0.0000  0.0000  0.0000  0.0000  0.0000 </r>
       </set>
       <set comment="band 8">
        <r>  0.0723  0.0521  0.0328  0.0521  0.0000  0.0000  0.0000  0.0000  0.0000 </r>
        <r>  0.0723  0.0521  0.0328  0.0521  0.0000  0.0000  0.0000  0.0000  0.0000 </r>
       </set>
       <set comment="band 9">
        <r>  0.0000  0.0055  0.0000  0.0055  0.0000  0.0000  0.0000  0.0000  0.0000 </r>
        <r>  0.0000  0.0055  0.0000  0.0055  0.0000  0.0000  0.0000  0.0000  0.0000 </r>
       </set>
       <set comment="band 10">
        <r>  0.0199  0.0469  0.0444  0.0469  0.0000  0.0000  0.0000  0.0000  0.0000 </r>
        <r>  0.0199  0.0469  0.0444  0.0469  0.0000  0.0000  0.0000  0.0000  0.0000 </r>
       </set>
       <set comment="band 11">
        <r>  0.0228  0.0056  0.0063  0.0056  0.0000  0.0000  0.0000  0.0000  0.0000 </r>
        <r>  0.0227  0.0056  0.0063  0.0056  0.0000  0.0000  0.0000  0.0000  0.0000 </r>
       </set>
       <set comment="band 12">
        <r>  0.0246  0.0076  0.0167  0.0077  0.0000  0.0000  0.0000  0.0000  0.0000 </r>
        <r>  0.0238  0.0069  0.0175  0.0070  0.0000  0.0000  0.0000  0.0000  0.0000 </r>
       </set>
      </set>
      <set comment="kpoint 154">
       <set comment="band 1">
        <r>  0.2106  0.0091  0.0042  0.0091  0.0000  0.0000  0.0000  0.0000  0.0000 </r>
        <r>  0.2106  0.0091  0.0042  0.0091  0.0000  0.0000  0.0000  0.0000  0.0000 </r>
       </set>
       <set comment="band 2">
        <r>  0.1625  0.0175  0.0408  0.0175  0.0000  0.0000  0.0000  0.0000  0.0000 </r>
        <r>  0.1625  0.0175  0.0408  0.0175  0.0000  0.0000  0.0000  0.0000  0.0000 </r>
       </set>
       <set comment="band 3">
        <r>  0.0112  0.0385  0.0748  0.0385  0.0000  0.0000  0.0000  0.0000  0.0000 </r>
        <r>  0.0112  0.0385  0.0748  0.0385  0.0000  0.0000  0.0000  0.0000  0.0000 </r>
       </set>
       <set comment="band 4">
        <r>  0.0000  0.1043  0.0000  0.1043  0.0000  0.0000  0.0000  0.0000  0.0000 </r>
        <r>  0.0000  0.1043  0.0000  0.1043  0.0000  0.0000  0.0000  0.0000  0.0000 </r>
       </set>
       <set comment="band 5">
        <r>  0.0590  0.0018  0.0523  0.0018  0.0000  0.0000  0.0000  0.0000  0.0000 </r>
        <r>  0.0590  0.0018  0.0523  0.0018  0.0000  0.0000  0.0000  0.0000  0.0000 </r>
       </set>
       <set comment="band 6">
        <r>  0.0000  0.0747  0.0000  0.0747  0.0000  0.0000  0.0000  0.0000  0.0000 </r>
        <r>  0.0000  0.0747  0.0000  0.0747  0.0000  0.0000  0.0000  0.0000  0.0000 </r>
       </set>
       <set comment="band 7">
        <r>  0.0265  0.0000  0.0960  0.0000  0.0000  0.0000  0.0000  0.0000  0.0000 </r>
        <r>  0.0265  0.0000  0.0960  0.0000  0.0000  0.0000  0.0000  0.0000  0.0000 </r>
       </set>
       <set comment="band 8">
        <r>  0.0737  0.0504  0.0311  0.0504  0.0000  0.0000  0.0000  0.0000  0.0000 </r>
        <r>  0.0737  0.0504  0.0311  0.0504  0.0000  0.0000  0.0000  0.0000  0.0000 </r>
       </set>
       <set comment="band 9">
        <r>  0.0000  0.0051  0.0000  0.0051  0.0000  0.0000  0.0000  0.0000  0.0000 </r>
        <r>  0.0000  0.0051  0.0000  0.0051  0.0000  0.0000  0.0000  0.0000  0.0000 </r>
       </set>
       <set comment="band 10">
        <r>  0.0147  0.0489  0.0396  0.0489  0.0000  0.0000  0.0000  0.0000  0.0000 </r>
        <r>  0.0147  0.0489  0.0396  0.0489  0.0000  0.0000  0.0000  0.0000  0.0000 </r>
       </set>
       <set comment="band 11">
        <r>  0.0255  0.0055  0.0063  0.0056  0.0000  0.0000  0.0000  0.0000  0.0000 </r>
        <r>  0.0254  0.0055  0.0063  0.0055  0.0000  0.0000  0.0000  0.0000  0.0000 </r>
       </set>
       <set comment="band 12">
        <r>  0.0258  0.0050  0.0166  0.0048  0.0000  0.0000  0.0000  0.0000  0.0000 </r>
        <r>  0.0286  0.0072  0.0138  0.0070  0.0000  0.0000  0.0000  0.0000  0.0000 </r>
       </set>
      </set>
      <set comment="kpoint 155">
       <set comment="band 1">
        <r>  0.2100  0.0090  0.0033  0.0090  0.0000  0.0000  0.0000  0.0000  0.0000 </r>
        <r>  0.2100  0.0090  0.0033  0.0090  0.0000  0.0000  0.0000  0.0000  0.0000 </r>
       </set>
       <set comment="band 2">
        <r>  0.1594  0.0192  0.0403  0.0192  0.0000  0.0000  0.0000  0.0000  0.0000 </r>
        <r>  0.1594  0.0192  0.0403  0.0192  0.0000  0.0000  0.0000  0.0000  0.0000 </r>
       </set>
       <set comment="band 3">
        <r>  0.0122  0.0376  0.0773  0.0376  0.0000  0.0000  0.0000  0.0000  0.0000 </r>
        <r>  0.0122  0.0376  0.0773  0.0376  0.0000  0.0000  0.0000  0.0000  0.0000 </r>
       </set>
       <set comment="band 4">
        <r>  0.0000  0.1049  0.0000  0.1049  0.0000  0.0000  0.0000  0.0000  0.0000 </r>
        <r>  0.0000  0.1049  0.0000  0.1049  0.0000  0.0000  0.0000  0.0000  0.0000 </r>
       </set>
       <set comment="band 5">
        <r>  0.0607  0.0018  0.0549  0.0018  0.0000  0.0000  0.0000  0.0000  0.0000 </r>
        <r>  0.0607  0.0018  0.0549  0.0018  0.0000  0.0000  0.0000  0.0000  0.0000 </r>
       </set>
       <set comment="band 6">
        <r>  0.0000  0.0746  0.0000  0.0746  0.0000  0.0000  0.0000  0.0000  0.0000 </r>
        <r>  0.0000  0.0746  0.0000  0.0746  0.0000  0.0000  0.0000  0.0000  0.0000 </r>
       </set>
       <set comment="band 7">
        <r>  0.0284  0.0000  0.1002  0.0000  0.0000  0.0000  0.0000  0.0000  0.0000 </r>
        <r>  0.0284  0.0000  0.1002  0.0000  0.0000  0.0000  0.0000  0.0000  0.0000 </r>
       </set>
       <set comment="band 8">
        <r>  0.0746  0.0489  0.0291  0.0489  0.0000  0.0000  0.0000  0.0000  0.0000 </r>
        <r>  0.0746  0.0489  0.0291  0.0489  0.0000  0.0000  0.0000  0.0000  0.0000 </r>
       </set>
       <set comment="band 9">
        <r>  0.0000  0.0047  0.0000  0.0047  0.0000  0.0000  0.0000  0.0000  0.0000 </r>
        <r>  0.0000  0.0047  0.0000  0.0047  0.0000  0.0000  0.0000  0.0000  0.0000 </r>
       </set>
       <set comment="band 10">
        <r>  0.0104  0.0506  0.0376  0.0506  0.0000  0.0000  0.0000  0.0000  0.0000 </r>
        <r>  0.0104  0.0506  0.0376  0.0506  0.0000  0.0000  0.0000  0.0000  0.0000 </r>
       </set>
       <set comment="band 11">
        <r>  0.0284  0.0056  0.0065  0.0055  0.0000  0.0000  0.0000  0.0000  0.0000 </r>
        <r>  0.0284  0.0056  0.0065  0.0057  0.0000  0.0000  0.0000  0.0000  0.0000 </r>
       </set>
       <set comment="band 12">
        <r>  0.0296  0.0043  0.0132  0.0043  0.0000  0.0000  0.0000  0.0000  0.0000 </r>
        <r>  0.0309  0.0047  0.0132  0.0047  0.0000  0.0000  0.0000  0.0000  0.0000 </r>
       </set>
      </set>
      <set comment="kpoint 156">
       <set comment="band 1">
        <r>  0.2095  0.0087  0.0026  0.0087  0.0000  0.0000  0.0000  0.0000  0.0000 </r>
        <r>  0.2095  0.0087  0.0026  0.0087  0.0000  0.0000  0.0000  0.0000  0.0000 </r>
       </set>
       <set comment="band 2">
        <r>  0.1562  0.0210  0.0398  0.0210  0.0000  0.0000  0.0000  0.0000  0.0000 </r>
        <r>  0.1562  0.0210  0.0398  0.0210  0.0000  0.0000  0.0000  0.0000  0.0000 </r>
       </set>
       <set comment="band 3">
        <r>  0.0130  0.0368  0.0798  0.0368  0.0000  0.0000  0.0000  0.0000  0.0000 </r>
        <r>  0.0130  0.0368  0.0798  0.0368  0.0000  0.0000  0.0000  0.0000  0.0000 </r>
       </set>
       <set comment="band 4">
        <r>  0.0000  0.1055  0.0000  0.1055  0.0000  0.0000  0.0000  0.0000  0.0000 </r>
        <r>  0.0000  0.1055  0.0000  0.1055  0.0000  0.0000  0.0000  0.0000  0.0000 </r>
       </set>
       <set comment="band 5">
        <r>  0.0628  0.0018  0.0579  0.0018  0.0000  0.0000  0.0000  0.0000  0.0000 </r>
        <r>  0.0628  0.0018  0.0579  0.0018  0.0000  0.0000  0.0000  0.0000  0.0000 </r>
       </set>
       <set comment="band 6">
        <r>  0.0000  0.0745  0.0000  0.0746  0.0000  0.0000  0.0000  0.0000  0.0000 </r>
        <r>  0.0000  0.0746  0.0000  0.0745  0.0000  0.0000  0.0000  0.0000  0.0000 </r>
       </set>
       <set comment="band 7">
        <r>  0.0297  0.0003  0.1030  0.0003  0.0000  0.0000  0.0000  0.0000  0.0000 </r>
        <r>  0.0297  0.0003  0.1029  0.0003  0.0000  0.0000  0.0000  0.0000  0.0000 </r>
       </set>
       <set comment="band 8">
        <r>  0.0751  0.0476  0.0267  0.0476  0.0000  0.0000  0.0000  0.0000  0.0000 </r>
        <r>  0.0751  0.0476  0.0267  0.0476  0.0000  0.0000  0.0000  0.0000  0.0000 </r>
       </set>
       <set comment="band 9">
        <r>  0.0000  0.0042  0.0000  0.0042  0.0000  0.0000  0.0000  0.0000  0.0000 </r>
        <r>  0.0000  0.0042  0.0000  0.0042  0.0000  0.0000  0.0000  0.0000  0.0000 </r>
       </set>
       <set comment="band 10">
        <r>  0.0066  0.0520  0.0371  0.0520  0.0000  0.0000  0.0000  0.0000  0.0000 </r>
        <r>  0.0066  0.0520  0.0371  0.0520  0.0000  0.0000  0.0000  0.0000  0.0000 </r>
       </set>
       <set comment="band 11">
        <r>  0.0337  0.0065  0.0071  0.0064  0.0000  0.0000  0.0000  0.0000  0.0000 </r>
        <r>  0.0316  0.0063  0.0076  0.0063  0.0000  0.0000  0.0000  0.0000  0.0000 </r>
       </set>
       <set comment="band 12">
        <r>  0.0109  0.0161  0.0255  0.0162  0.0000  0.0000  0.0000  0.0000  0.0000 </r>
        <r>  0.0462  0.0320  0.0060  0.0319  0.0000  0.0000  0.0000  0.0000  0.0000 </r>
       </set>
      </set>
      <set comment="kpoint 157">
       <set comment="band 1">
        <r>  0.2092  0.0084  0.0021  0.0084  0.0000  0.0000  0.0000  0.0000  0.0000 </r>
        <r>  0.2092  0.0084  0.0021  0.0084  0.0000  0.0000  0.0000  0.0000  0.0000 </r>
       </set>
       <set comment="band 2">
        <r>  0.1528  0.0229  0.0393  0.0229  0.0000  0.0000  0.0000  0.0000  0.0000 </r>
        <r>  0.1528  0.0229  0.0393  0.0229  0.0000  0.0000  0.0000  0.0000  0.0000 </r>
       </set>
       <set comment="band 3">
        <r>  0.0136  0.0361  0.0823  0.0361  0.0000  0.0000  0.0000  0.0000  0.0000 </r>
        <r>  0.0136  0.0361  0.0823  0.0362  0.0000  0.0000  0.0000  0.0000  0.0000 </r>
       </set>
       <set comment="band 4">
        <r>  0.0000  0.1061  0.0000  0.1062  0.0000  0.0000  0.0000  0.0000  0.0000 </r>
        <r>  0.0000  0.1061  0.0000  0.1061  0.0000  0.0000  0.0000  0.0000  0.0000 </r>
       </set>
       <set comment="band 5">
        <r>  0.0653  0.0017  0.0612  0.0017  0.0000  0.0000  0.0000  0.0000  0.0000 </r>
        <r>  0.0653  0.0017  0.0612  0.0017  0.0000  0.0000  0.0000  0.0000  0.0000 </r>
       </set>
       <set comment="band 6">
        <r>  0.0000  0.0745  0.0000  0.0745  0.0000  0.0000  0.0000  0.0000  0.0000 </r>
        <r>  0.0000  0.0745  0.0000  0.0745  0.0000  0.0000  0.0000  0.0000  0.0000 </r>
       </set>
       <set comment="band 7">
        <r>  0.0305  0.0007  0.1047  0.0007  0.0000  0.0000  0.0000  0.0000  0.0000 </r>
        <r>  0.0305  0.0007  0.1047  0.0007  0.0000  0.0000  0.0000  0.0000  0.0000 </r>
       </set>
       <set comment="band 8">
        <r>  0.0752  0.0465  0.0240  0.0465  0.0000  0.0000  0.0000  0.0000  0.0000 </r>
        <r>  0.0752  0.0465  0.0240  0.0465  0.0000  0.0000  0.0000  0.0000  0.0000 </r>
       </set>
       <set comment="band 9">
        <r>  0.0000  0.0037  0.0000  0.0037  0.0000  0.0000  0.0000  0.0000  0.0000 </r>
        <r>  0.0000  0.0037  0.0000  0.0037  0.0000  0.0000  0.0000  0.0000  0.0000 </r>
       </set>
       <set comment="band 10">
        <r>  0.0033  0.0532  0.0378  0.0532  0.0000  0.0000  0.0000  0.0000  0.0000 </r>
        <r>  0.0033  0.0532  0.0378  0.0532  0.0000  0.0000  0.0000  0.0000  0.0000 </r>
       </set>
       <set comment="band 11">
        <r>  0.0417  0.0103  0.0103  0.0103  0.0000  0.0000  0.0000  0.0000  0.0000 </r>
        <r>  0.0421  0.0104  0.0103  0.0103  0.0000  0.0000  0.0000  0.0000  0.0000 </r>
       </set>
       <set comment="band 12">
        <r>  0.0380  0.0430  0.0084  0.0435  0.0000  0.0000  0.0000  0.0000  0.0000 </r>
        <r>  0.0030  0.0314  0.0238  0.0304  0.0000  0.0000  0.0000  0.0000  0.0000 </r>
       </set>
      </set>
      <set comment="kpoint 158">
       <set comment="band 1">
        <r>  0.2090  0.0080  0.0017  0.0080  0.0000  0.0000  0.0000  0.0000  0.0000 </r>
        <r>  0.2090  0.0080  0.0017  0.0080  0.0000  0.0000  0.0000  0.0000  0.0000 </r>
       </set>
       <set comment="band 2">
        <r>  0.1493  0.0248  0.0387  0.0248  0.0000  0.0000  0.0000  0.0000  0.0000 </r>
        <r>  0.1493  0.0248  0.0387  0.0248  0.0000  0.0000  0.0000  0.0000  0.0000 </r>
       </set>
       <set comment="band 3">
        <r>  0.0139  0.0356  0.0848  0.0356  0.0000  0.0000  0.0000  0.0000  0.0000 </r>
        <r>  0.0139  0.0356  0.0848  0.0356  0.0000  0.0000  0.0000  0.0000  0.0000 </r>
       </set>
       <set comment="band 4">
        <r>  0.0000  0.1068  0.0000  0.1068  0.0000  0.0000  0.0000  0.0000  0.0000 </r>
        <r>  0.0000  0.1068  0.0000  0.1068  0.0000  0.0000  0.0000  0.0000  0.0000 </r>
       </set>
       <set comment="band 5">
        <r>  0.0683  0.0015  0.0649  0.0015  0.0000  0.0000  0.0000  0.0000  0.0000 </r>
        <r>  0.0683  0.0015  0.0649  0.0015  0.0000  0.0000  0.0000  0.0000  0.0000 </r>
       </set>
       <set comment="band 6">
        <r>  0.0000  0.0745  0.0000  0.0745  0.0000  0.0000  0.0000  0.0000  0.0000 </r>
        <r>  0.0000  0.0745  0.0000  0.0745  0.0000  0.0000  0.0000  0.0000  0.0000 </r>
       </set>
       <set comment="band 7">
        <r>  0.0311  0.0013  0.1059  0.0013  0.0000  0.0000  0.0000  0.0000  0.0000 </r>
        <r>  0.0311  0.0013  0.1059  0.0013  0.0000  0.0000  0.0000  0.0000  0.0000 </r>
       </set>
       <set comment="band 8">
        <r>  0.0748  0.0456  0.0209  0.0456  0.0000  0.0000  0.0000  0.0000  0.0000 </r>
        <r>  0.0748  0.0456  0.0209  0.0456  0.0000  0.0000  0.0000  0.0000  0.0000 </r>
       </set>
       <set comment="band 9">
        <r>  0.0000  0.0032  0.0000  0.0032  0.0000  0.0000  0.0000  0.0000  0.0000 </r>
        <r>  0.0000  0.0032  0.0000  0.0032  0.0000  0.0000  0.0000  0.0000  0.0000 </r>
       </set>
       <set comment="band 10">
        <r>  0.0008  0.0537  0.0390  0.0537  0.0000  0.0000  0.0000  0.0000  0.0000 </r>
        <r>  0.0008  0.0537  0.0390  0.0537  0.0000  0.0000  0.0000  0.0000  0.0000 </r>
       </set>
       <set comment="band 11">
        <r>  0.0611  0.0263  0.0193  0.0263  0.0000  0.0000  0.0000  0.0000  0.0000 </r>
        <r>  0.0603  0.0263  0.0194  0.0263  0.0000  0.0000  0.0000  0.0000  0.0000 </r>
       </set>
       <set comment="band 12">
        <r>  0.0026  0.0247  0.0076  0.0247  0.0000  0.0000  0.0000  0.0000  0.0000 </r>
        <r>  0.0035  0.0245  0.0070  0.0247  0.0000  0.0000  0.0000  0.0000  0.0000 </r>
       </set>
      </set>
      <set comment="kpoint 159">
       <set comment="band 1">
        <r>  0.2089  0.0076  0.0013  0.0076  0.0000  0.0000  0.0000  0.0000  0.0000 </r>
        <r>  0.2089  0.0076  0.0013  0.0076  0.0000  0.0000  0.0000  0.0000  0.0000 </r>
       </set>
       <set comment="band 2">
        <r>  0.1456  0.0268  0.0381  0.0268  0.0000  0.0000  0.0000  0.0000  0.0000 </r>
        <r>  0.1456  0.0268  0.0381  0.0268  0.0000  0.0000  0.0000  0.0000  0.0000 </r>
       </set>
       <set comment="band 3">
        <r>  0.0140  0.0351  0.0874  0.0351  0.0000  0.0000  0.0000  0.0000  0.0000 </r>
        <r>  0.0141  0.0351  0.0874  0.0351  0.0000  0.0000  0.0000  0.0000  0.0000 </r>
       </set>
       <set comment="band 4">
        <r>  0.0000  0.1074  0.0000  0.1074  0.0000  0.0000  0.0000  0.0000  0.0000 </r>
        <r>  0.0000  0.1074  0.0000  0.1074  0.0000  0.0000  0.0000  0.0000  0.0000 </r>
       </set>
       <set comment="band 5">
        <r>  0.0717  0.0014  0.0689  0.0014  0.0000  0.0000  0.0000  0.0000  0.0000 </r>
        <r>  0.0717  0.0014  0.0689  0.0014  0.0000  0.0000  0.0000  0.0000  0.0000 </r>
       </set>
       <set comment="band 6">
        <r>  0.0000  0.0745  0.0000  0.0745  0.0000  0.0000  0.0000  0.0000  0.0000 </r>
        <r>  0.0000  0.0745  0.0000  0.0745  0.0000  0.0000  0.0000  0.0000  0.0000 </r>
       </set>
       <set comment="band 7">
        <r>  0.0315  0.0021  0.1066  0.0021  0.0000  0.0000  0.0000  0.0000  0.0000 </r>
        <r>  0.0315  0.0021  0.1066  0.0021  0.0000  0.0000  0.0000  0.0000  0.0000 </r>
       </set>
       <set comment="band 8">
        <r>  0.0740  0.0450  0.0176  0.0450  0.0000  0.0000  0.0000  0.0000  0.0000 </r>
        <r>  0.0740  0.0450  0.0176  0.0450  0.0000  0.0000  0.0000  0.0000  0.0000 </r>
       </set>
       <set comment="band 9">
        <r>  0.0000  0.0027  0.0000  0.0027  0.0000  0.0000  0.0000  0.0000  0.0000 </r>
        <r>  0.0000  0.0027  0.0000  0.0027  0.0000  0.0000  0.0000  0.0000  0.0000 </r>
       </set>
       <set comment="band 10">
        <r>  0.0000  0.0531  0.0401  0.0531  0.0000  0.0000  0.0000  0.0000  0.0000 </r>
        <r>  0.0000  0.0531  0.0401  0.0531  0.0000  0.0000  0.0000  0.0000  0.0000 </r>
       </set>
       <set comment="band 11">
        <r>  0.0644  0.0431  0.0255  0.0431  0.0000  0.0000  0.0000  0.0000  0.0000 </r>
        <r>  0.0643  0.0432  0.0255  0.0432  0.0000  0.0000  0.0000  0.0000  0.0000 </r>
       </set>
       <set comment="band 12">
        <r>  0.0033  0.0054  0.0002  0.0053  0.0000  0.0000  0.0000  0.0000  0.0000 </r>
        <r>  0.0032  0.0053  0.0002  0.0053  0.0000  0.0000  0.0000  0.0000  0.0000 </r>
       </set>
      </set>
      <set comment="kpoint 160">
       <set comment="band 1">
        <r>  0.2088  0.0071  0.0010  0.0071  0.0000  0.0000  0.0000  0.0000  0.0000 </r>
        <r>  0.2088  0.0071  0.0010  0.0071  0.0000  0.0000  0.0000  0.0000  0.0000 </r>
       </set>
       <set comment="band 2">
        <r>  0.1418  0.0289  0.0375  0.0289  0.0000  0.0000  0.0000  0.0000  0.0000 </r>
        <r>  0.1417  0.0289  0.0375  0.0289  0.0000  0.0000  0.0000  0.0000  0.0000 </r>
       </set>
       <set comment="band 3">
        <r>  0.0140  0.0346  0.0901  0.0346  0.0000  0.0000  0.0000  0.0000  0.0000 </r>
        <r>  0.0140  0.0346  0.0901  0.0346  0.0000  0.0000  0.0000  0.0000  0.0000 </r>
       </set>
       <set comment="band 4">
        <r>  0.0000  0.1080  0.0000  0.1080  0.0000  0.0000  0.0000  0.0000  0.0000 </r>
        <r>  0.0000  0.1080  0.0000  0.1080  0.0000  0.0000  0.0000  0.0000  0.0000 </r>
       </set>
       <set comment="band 5">
        <r>  0.0755  0.0012  0.0732  0.0012  0.0000  0.0000  0.0000  0.0000  0.0000 </r>
        <r>  0.0755  0.0012  0.0732  0.0012  0.0000  0.0000  0.0000  0.0000  0.0000 </r>
       </set>
       <set comment="band 6">
        <r>  0.0000  0.0746  0.0000  0.0746  0.0000  0.0000  0.0000  0.0000  0.0000 </r>
        <r>  0.0000  0.0746  0.0000  0.0746  0.0000  0.0000  0.0000  0.0000  0.0000 </r>
       </set>
       <set comment="band 7">
        <r>  0.0316  0.0030  0.1068  0.0030  0.0000  0.0000  0.0000  0.0000  0.0000 </r>
        <r>  0.0316  0.0030  0.1068  0.0030  0.0000  0.0000  0.0000  0.0000  0.0000 </r>
       </set>
       <set comment="band 8">
        <r>  0.0729  0.0446  0.0142  0.0446  0.0000  0.0000  0.0000  0.0000  0.0000 </r>
        <r>  0.0729  0.0446  0.0142  0.0446  0.0000  0.0000  0.0000  0.0000  0.0000 </r>
       </set>
       <set comment="band 9">
        <r>  0.0000  0.0022  0.0000  0.0022  0.0000  0.0000  0.0000  0.0000  0.0000 </r>
        <r>  0.0000  0.0022  0.0000  0.0022  0.0000  0.0000  0.0000  0.0000  0.0000 </r>
       </set>
       <set comment="band 10">
        <r>  0.0017  0.0509  0.0402  0.0509  0.0000  0.0000  0.0000  0.0000  0.0000 </r>
        <r>  0.0017  0.0509  0.0402  0.0509  0.0000  0.0000  0.0000  0.0000  0.0000 </r>
       </set>
       <set comment="band 11">
        <r>  0.0610  0.0444  0.0248  0.0443  0.0000  0.0000  0.0000  0.0000  0.0000 </r>
        <r>  0.0607  0.0444  0.0248  0.0444  0.0000  0.0000  0.0000  0.0000  0.0000 </r>
       </set>
       <set comment="band 12">
        <r>  0.0102  0.0015  0.0002  0.0015  0.0000  0.0000  0.0000  0.0000  0.0000 </r>
        <r>  0.0104  0.0016  0.0002  0.0016  0.0000  0.0000  0.0000  0.0000  0.0000 </r>
       </set>
      </set>
      <set comment="kpoint 161">
       <set comment="band 1">
        <r>  0.2089  0.0066  0.0008  0.0066  0.0000  0.0000  0.0000  0.0000  0.0000 </r>
        <r>  0.2089  0.0066  0.0008  0.0066  0.0000  0.0000  0.0000  0.0000  0.0000 </r>
       </set>
       <set comment="band 2">
        <r>  0.1377  0.0311  0.0368  0.0311  0.0000  0.0000  0.0000  0.0000  0.0000 </r>
        <r>  0.1377  0.0311  0.0368  0.0311  0.0000  0.0000  0.0000  0.0000  0.0000 </r>
       </set>
       <set comment="band 3">
        <r>  0.0137  0.0342  0.0930  0.0342  0.0000  0.0000  0.0000  0.0000  0.0000 </r>
        <r>  0.0137  0.0342  0.0930  0.0342  0.0000  0.0000  0.0000  0.0000  0.0000 </r>
       </set>
       <set comment="band 4">
        <r>  0.0000  0.1086  0.0000  0.1086  0.0000  0.0000  0.0000  0.0000  0.0000 </r>
        <r>  0.0000  0.1086  0.0000  0.1086  0.0000  0.0000  0.0000  0.0000  0.0000 </r>
       </set>
       <set comment="band 5">
        <r>  0.0798  0.0010  0.0775  0.0010  0.0000  0.0000  0.0000  0.0000  0.0000 </r>
        <r>  0.0798  0.0010  0.0775  0.0010  0.0000  0.0000  0.0000  0.0000  0.0000 </r>
       </set>
       <set comment="band 6">
        <r>  0.0000  0.0746  0.0000  0.0746  0.0000  0.0000  0.0000  0.0000  0.0000 </r>
        <r>  0.0000  0.0746  0.0000  0.0746  0.0000  0.0000  0.0000  0.0000  0.0000 </r>
       </set>
       <set comment="band 7">
        <r>  0.0316  0.0042  0.1065  0.0042  0.0000  0.0000  0.0000  0.0000  0.0000 </r>
        <r>  0.0316  0.0042  0.1065  0.0042  0.0000  0.0000  0.0000  0.0000  0.0000 </r>
       </set>
       <set comment="band 8">
        <r>  0.0716  0.0444  0.0106  0.0444  0.0000  0.0000  0.0000  0.0000  0.0000 </r>
        <r>  0.0717  0.0444  0.0106  0.0444  0.0000  0.0000  0.0000  0.0000  0.0000 </r>
       </set>
       <set comment="band 9">
        <r>  0.0000  0.0017  0.0000  0.0017  0.0000  0.0000  0.0000  0.0000  0.0000 </r>
        <r>  0.0000  0.0017  0.0000  0.0017  0.0000  0.0000  0.0000  0.0000  0.0000 </r>
       </set>
       <set comment="band 10">
        <r>  0.0058  0.0475  0.0388  0.0475  0.0000  0.0000  0.0000  0.0000  0.0000 </r>
        <r>  0.0058  0.0475  0.0388  0.0475  0.0000  0.0000  0.0000  0.0000  0.0000 </r>
       </set>
       <set comment="band 11">
        <r>  0.0601  0.0425  0.0241  0.0425  0.0000  0.0000  0.0000  0.0000  0.0000 </r>
        <r>  0.0600  0.0426  0.0241  0.0426  0.0000  0.0000  0.0000  0.0000  0.0000 </r>
       </set>
       <set comment="band 12">
        <r>  0.0141  0.0009  0.0006  0.0009  0.0000  0.0000  0.0000  0.0000  0.0000 </r>
        <r>  0.0143  0.0009  0.0006  0.0009  0.0000  0.0000  0.0000  0.0000  0.0000 </r>
       </set>
      </set>
      <set comment="kpoint 162">
       <set comment="band 1">
        <r>  0.2091  0.0060  0.0006  0.0060  0.0000  0.0000  0.0000  0.0000  0.0000 </r>
        <r>  0.2091  0.0060  0.0006  0.0060  0.0000  0.0000  0.0000  0.0000  0.0000 </r>
       </set>
       <set comment="band 2">
        <r>  0.1335  0.0334  0.0361  0.0334  0.0000  0.0000  0.0000  0.0000  0.0000 </r>
        <r>  0.1335  0.0334  0.0361  0.0334  0.0000  0.0000  0.0000  0.0000  0.0000 </r>
       </set>
       <set comment="band 3">
        <r>  0.0132  0.0338  0.0961  0.0338  0.0000  0.0000  0.0000  0.0000  0.0000 </r>
        <r>  0.0132  0.0338  0.0961  0.0338  0.0000  0.0000  0.0000  0.0000  0.0000 </r>
       </set>
       <set comment="band 4">
        <r>  0.0000  0.1091  0.0000  0.1091  0.0000  0.0000  0.0000  0.0000  0.0000 </r>
        <r>  0.0000  0.1091  0.0000  0.1091  0.0000  0.0000  0.0000  0.0000  0.0000 </r>
       </set>
       <set comment="band 5">
        <r>  0.0842  0.0008  0.0819  0.0008  0.0000  0.0000  0.0000  0.0000  0.0000 </r>
        <r>  0.0842  0.0008  0.0819  0.0008  0.0000  0.0000  0.0000  0.0000  0.0000 </r>
       </set>
       <set comment="band 6">
        <r>  0.0000  0.0747  0.0000  0.0747  0.0000  0.0000  0.0000  0.0000  0.0000 </r>
        <r>  0.0000  0.0747  0.0000  0.0747  0.0000  0.0000  0.0000  0.0000  0.0000 </r>
       </set>
       <set comment="band 7">
        <r>  0.0314  0.0055  0.1057  0.0055  0.0000  0.0000  0.0000  0.0000  0.0000 </r>
        <r>  0.0314  0.0055  0.1057  0.0055  0.0000  0.0000  0.0000  0.0000  0.0000 </r>
       </set>
       <set comment="band 8">
        <r>  0.0705  0.0446  0.0073  0.0446  0.0000  0.0000  0.0000  0.0000  0.0000 </r>
        <r>  0.0705  0.0446  0.0073  0.0446  0.0000  0.0000  0.0000  0.0000  0.0000 </r>
       </set>
       <set comment="band 9">
        <r>  0.0000  0.0013  0.0000  0.0013  0.0000  0.0000  0.0000  0.0000  0.0000 </r>
        <r>  0.0000  0.0013  0.0000  0.0013  0.0000  0.0000  0.0000  0.0000  0.0000 </r>
       </set>
       <set comment="band 10">
        <r>  0.0606  0.0399  0.0235  0.0399  0.0000  0.0000  0.0000  0.0000  0.0000 </r>
        <r>  0.0606  0.0399  0.0235  0.0399  0.0000  0.0000  0.0000  0.0000  0.0000 </r>
       </set>
       <set comment="band 11">
        <r>  0.0116  0.0437  0.0361  0.0437  0.0000  0.0000  0.0000  0.0000  0.0000 </r>
        <r>  0.0116  0.0437  0.0361  0.0437  0.0000  0.0000  0.0000  0.0000  0.0000 </r>
       </set>
       <set comment="band 12">
        <r>  0.0165  0.0008  0.0009  0.0008  0.0000  0.0000  0.0000  0.0000  0.0000 </r>
        <r>  0.0165  0.0008  0.0009  0.0008  0.0000  0.0000  0.0000  0.0000  0.0000 </r>
       </set>
      </set>
      <set comment="kpoint 163">
       <set comment="band 1">
        <r>  0.2093  0.0055  0.0005  0.0055  0.0000  0.0000  0.0000  0.0000  0.0000 </r>
        <r>  0.2093  0.0055  0.0005  0.0055  0.0000  0.0000  0.0000  0.0000  0.0000 </r>
       </set>
       <set comment="band 2">
        <r>  0.1290  0.0358  0.0354  0.0358  0.0000  0.0000  0.0000  0.0000  0.0000 </r>
        <r>  0.1290  0.0358  0.0354  0.0358  0.0000  0.0000  0.0000  0.0000  0.0000 </r>
       </set>
       <set comment="band 3">
        <r>  0.0126  0.0333  0.0995  0.0333  0.0000  0.0000  0.0000  0.0000  0.0000 </r>
        <r>  0.0126  0.0333  0.0995  0.0333  0.0000  0.0000  0.0000  0.0000  0.0000 </r>
       </set>
       <set comment="band 4">
        <r>  0.0000  0.1096  0.0000  0.1096  0.0000  0.0000  0.0000  0.0000  0.0000 </r>
        <r>  0.0000  0.1096  0.0000  0.1096  0.0000  0.0000  0.0000  0.0000  0.0000 </r>
       </set>
       <set comment="band 5">
        <r>  0.0887  0.0006  0.0860  0.0006  0.0000  0.0000  0.0000  0.0000  0.0000 </r>
        <r>  0.0887  0.0006  0.0860  0.0006  0.0000  0.0000  0.0000  0.0000  0.0000 </r>
       </set>
       <set comment="band 6">
        <r>  0.0000  0.0747  0.0000  0.0747  0.0000  0.0000  0.0000  0.0000  0.0000 </r>
        <r>  0.0000  0.0747  0.0000  0.0747  0.0000  0.0000  0.0000  0.0000  0.0000 </r>
       </set>
       <set comment="band 7">
        <r>  0.0310  0.0071  0.1045  0.0071  0.0000  0.0000  0.0000  0.0000  0.0000 </r>
        <r>  0.0310  0.0071  0.1045  0.0071  0.0000  0.0000  0.0000  0.0000  0.0000 </r>
       </set>
       <set comment="band 8">
        <r>  0.0700  0.0451  0.0043  0.0451  0.0000  0.0000  0.0000  0.0000  0.0000 </r>
        <r>  0.0699  0.0451  0.0043  0.0451  0.0000  0.0000  0.0000  0.0000  0.0000 </r>
       </set>
       <set comment="band 9">
        <r>  0.0000  0.0009  0.0000  0.0009  0.0000  0.0000  0.0000  0.0000  0.0000 </r>
        <r>  0.0000  0.0009  0.0000  0.0009  0.0000  0.0000  0.0000  0.0000  0.0000 </r>
       </set>
       <set comment="band 10">
        <r>  0.0613  0.0367  0.0229  0.0367  0.0000  0.0000  0.0000  0.0000  0.0000 </r>
        <r>  0.0612  0.0367  0.0229  0.0367  0.0000  0.0000  0.0000  0.0000  0.0000 </r>
       </set>
       <set comment="band 11">
        <r>  0.0180  0.0402  0.0326  0.0402  0.0000  0.0000  0.0000  0.0000  0.0000 </r>
        <r>  0.0180  0.0402  0.0326  0.0402  0.0000  0.0000  0.0000  0.0000  0.0000 </r>
       </set>
       <set comment="band 12">
        <r>  0.0179  0.0009  0.0010  0.0009  0.0000  0.0000  0.0000  0.0000  0.0000 </r>
        <r>  0.0179  0.0009  0.0010  0.0009  0.0000  0.0000  0.0000  0.0000  0.0000 </r>
       </set>
      </set>
      <set comment="kpoint 164">
       <set comment="band 1">
        <r>  0.2095  0.0050  0.0003  0.0050  0.0000  0.0000  0.0000  0.0000  0.0000 </r>
        <r>  0.2095  0.0050  0.0003  0.0050  0.0000  0.0000  0.0000  0.0000  0.0000 </r>
       </set>
       <set comment="band 2">
        <r>  0.1244  0.0383  0.0345  0.0383  0.0000  0.0000  0.0000  0.0000  0.0000 </r>
        <r>  0.1244  0.0383  0.0345  0.0383  0.0000  0.0000  0.0000  0.0000  0.0000 </r>
       </set>
       <set comment="band 3">
        <r>  0.0118  0.0327  0.1032  0.0327  0.0000  0.0000  0.0000  0.0000  0.0000 </r>
        <r>  0.0118  0.0327  0.1032  0.0327  0.0000  0.0000  0.0000  0.0000  0.0000 </r>
       </set>
       <set comment="band 4">
        <r>  0.0000  0.1099  0.0000  0.1099  0.0000  0.0000  0.0000  0.0000  0.0000 </r>
        <r>  0.0000  0.1099  0.0000  0.1099  0.0000  0.0000  0.0000  0.0000  0.0000 </r>
       </set>
       <set comment="band 5">
        <r>  0.0930  0.0004  0.0897  0.0004  0.0000  0.0000  0.0000  0.0000  0.0000 </r>
        <r>  0.0930  0.0004  0.0897  0.0004  0.0000  0.0000  0.0000  0.0000  0.0000 </r>
       </set>
       <set comment="band 6">
        <r>  0.0000  0.0748  0.0000  0.0748  0.0000  0.0000  0.0000  0.0000  0.0000 </r>
        <r>  0.0000  0.0748  0.0000  0.0748  0.0000  0.0000  0.0000  0.0000  0.0000 </r>
       </set>
       <set comment="band 7">
        <r>  0.0303  0.0090  0.1027  0.0090  0.0000  0.0000  0.0000  0.0000  0.0000 </r>
        <r>  0.0303  0.0090  0.1027  0.0090  0.0000  0.0000  0.0000  0.0000  0.0000 </r>
       </set>
       <set comment="band 8">
        <r>  0.0705  0.0459  0.0020  0.0459  0.0000  0.0000  0.0000  0.0000  0.0000 </r>
        <r>  0.0705  0.0459  0.0020  0.0459  0.0000  0.0000  0.0000  0.0000  0.0000 </r>
       </set>
       <set comment="band 9">
        <r>  0.0000  0.0006  0.0000  0.0006  0.0000  0.0000  0.0000  0.0000  0.0000 </r>
        <r>  0.0000  0.0006  0.0000  0.0006  0.0000  0.0000  0.0000  0.0000  0.0000 </r>
       </set>
       <set comment="band 10">
        <r>  0.0616  0.0330  0.0223  0.0330  0.0000  0.0000  0.0000  0.0000  0.0000 </r>
        <r>  0.0615  0.0330  0.0223  0.0330  0.0000  0.0000  0.0000  0.0000  0.0000 </r>
       </set>
       <set comment="band 11">
        <r>  0.0247  0.0374  0.0288  0.0374  0.0000  0.0000  0.0000  0.0000  0.0000 </r>
        <r>  0.0246  0.0373  0.0288  0.0374  0.0000  0.0000  0.0000  0.0000  0.0000 </r>
       </set>
       <set comment="band 12">
        <r>  0.0188  0.0011  0.0011  0.0011  0.0000  0.0000  0.0000  0.0000  0.0000 </r>
        <r>  0.0188  0.0011  0.0011  0.0011  0.0000  0.0000  0.0000  0.0000  0.0000 </r>
       </set>
      </set>
      <set comment="kpoint 165">
       <set comment="band 1">
        <r>  0.2098  0.0045  0.0003  0.0045  0.0000  0.0000  0.0000  0.0000  0.0000 </r>
        <r>  0.2098  0.0045  0.0003  0.0045  0.0000  0.0000  0.0000  0.0000  0.0000 </r>
       </set>
       <set comment="band 2">
        <r>  0.1194  0.0409  0.0337  0.0409  0.0000  0.0000  0.0000  0.0000  0.0000 </r>
        <r>  0.1194  0.0409  0.0337  0.0409  0.0000  0.0000  0.0000  0.0000  0.0000 </r>
       </set>
       <set comment="band 3">
        <r>  0.0109  0.0321  0.1073  0.0321  0.0000  0.0000  0.0000  0.0000  0.0000 </r>
        <r>  0.0109  0.0321  0.1073  0.0321  0.0000  0.0000  0.0000  0.0000  0.0000 </r>
       </set>
       <set comment="band 4">
        <r>  0.0000  0.1102  0.0000  0.1102  0.0000  0.0000  0.0000  0.0000  0.0000 </r>
        <r>  0.0000  0.1102  0.0000  0.1102  0.0000  0.0000  0.0000  0.0000  0.0000 </r>
       </set>
       <set comment="band 5">
        <r>  0.0968  0.0003  0.0930  0.0003  0.0000  0.0000  0.0000  0.0000  0.0000 </r>
        <r>  0.0968  0.0003  0.0930  0.0003  0.0000  0.0000  0.0000  0.0000  0.0000 </r>
       </set>
       <set comment="band 6">
        <r>  0.0000  0.0749  0.0000  0.0749  0.0000  0.0000  0.0000  0.0000  0.0000 </r>
        <r>  0.0000  0.0749  0.0000  0.0749  0.0000  0.0000  0.0000  0.0000  0.0000 </r>
       </set>
       <set comment="band 7">
        <r>  0.0295  0.0112  0.1004  0.0112  0.0000  0.0000  0.0000  0.0000  0.0000 </r>
        <r>  0.0295  0.0112  0.1004  0.0112  0.0000  0.0000  0.0000  0.0000  0.0000 </r>
       </set>
       <set comment="band 8">
        <r>  0.0728  0.0472  0.0005  0.0472  0.0000  0.0000  0.0000  0.0000  0.0000 </r>
        <r>  0.0728  0.0472  0.0005  0.0472  0.0000  0.0000  0.0000  0.0000  0.0000 </r>
       </set>
       <set comment="band 9">
        <r>  0.0000  0.0003  0.0000  0.0003  0.0000  0.0000  0.0000  0.0000  0.0000 </r>
        <r>  0.0000  0.0003  0.0000  0.0003  0.0000  0.0000  0.0000  0.0000  0.0000 </r>
       </set>
       <set comment="band 10">
        <r>  0.0609  0.0287  0.0214  0.0287  0.0000  0.0000  0.0000  0.0000  0.0000 </r>
        <r>  0.0609  0.0287  0.0214  0.0287  0.0000  0.0000  0.0000  0.0000  0.0000 </r>
       </set>
       <set comment="band 11">
        <r>  0.0312  0.0349  0.0250  0.0349  0.0000  0.0000  0.0000  0.0000  0.0000 </r>
        <r>  0.0312  0.0349  0.0250  0.0349  0.0000  0.0000  0.0000  0.0000  0.0000 </r>
       </set>
       <set comment="band 12">
        <r>  0.0193  0.0015  0.0012  0.0015  0.0000  0.0000  0.0000  0.0000  0.0000 </r>
        <r>  0.0193  0.0015  0.0012  0.0015  0.0000  0.0000  0.0000  0.0000  0.0000 </r>
       </set>
      </set>
      <set comment="kpoint 166">
       <set comment="band 1">
        <r>  0.2102  0.0040  0.0002  0.0040  0.0000  0.0000  0.0000  0.0000  0.0000 </r>
        <r>  0.2102  0.0040  0.0002  0.0040  0.0000  0.0000  0.0000  0.0000  0.0000 </r>
       </set>
       <set comment="band 2">
        <r>  0.1143  0.0437  0.0327  0.0437  0.0000  0.0000  0.0000  0.0000  0.0000 </r>
        <r>  0.1143  0.0437  0.0327  0.0437  0.0000  0.0000  0.0000  0.0000  0.0000 </r>
       </set>
       <set comment="band 3">
        <r>  0.0099  0.0313  0.1118  0.0313  0.0000  0.0000  0.0000  0.0000  0.0000 </r>
        <r>  0.0099  0.0313  0.1118  0.0313  0.0000  0.0000  0.0000  0.0000  0.0000 </r>
       </set>
       <set comment="band 4">
        <r>  0.0000  0.1104  0.0000  0.1104  0.0000  0.0000  0.0000  0.0000  0.0000 </r>
        <r>  0.0000  0.1104  0.0000  0.1104  0.0000  0.0000  0.0000  0.0000  0.0000 </r>
       </set>
       <set comment="band 5">
        <r>  0.0999  0.0002  0.0957  0.0002  0.0000  0.0000  0.0000  0.0000  0.0000 </r>
        <r>  0.0999  0.0002  0.0957  0.0002  0.0000  0.0000  0.0000  0.0000  0.0000 </r>
       </set>
       <set comment="band 6">
        <r>  0.0000  0.0750  0.0000  0.0750  0.0000  0.0000  0.0000  0.0000  0.0000 </r>
        <r>  0.0000  0.0750  0.0000  0.0750  0.0000  0.0000  0.0000  0.0000  0.0000 </r>
       </set>
       <set comment="band 7">
        <r>  0.0285  0.0136  0.0975  0.0136  0.0000  0.0000  0.0000  0.0000  0.0000 </r>
        <r>  0.0285  0.0136  0.0975  0.0136  0.0000  0.0000  0.0000  0.0000  0.0000 </r>
       </set>
       <set comment="band 8">
        <r>  0.0779  0.0489  0.0000  0.0489  0.0000  0.0000  0.0000  0.0000  0.0000 </r>
        <r>  0.0779  0.0489  0.0000  0.0489  0.0000  0.0000  0.0000  0.0000  0.0000 </r>
       </set>
       <set comment="band 9">
        <r>  0.0000  0.0001  0.0000  0.0001  0.0000  0.0000  0.0000  0.0000  0.0000 </r>
        <r>  0.0000  0.0001  0.0000  0.0001  0.0000  0.0000  0.0000  0.0000  0.0000 </r>
       </set>
       <set comment="band 10">
        <r>  0.0586  0.0237  0.0202  0.0237  0.0000  0.0000  0.0000  0.0000  0.0000 </r>
        <r>  0.0586  0.0237  0.0202  0.0237  0.0000  0.0000  0.0000  0.0000  0.0000 </r>
       </set>
       <set comment="band 11">
        <r>  0.0379  0.0328  0.0211  0.0327  0.0000  0.0000  0.0000  0.0000  0.0000 </r>
        <r>  0.0379  0.0328  0.0211  0.0328  0.0000  0.0000  0.0000  0.0000  0.0000 </r>
       </set>
       <set comment="band 12">
        <r>  0.0195  0.0019  0.0012  0.0019  0.0000  0.0000  0.0000  0.0000  0.0000 </r>
        <r>  0.0195  0.0020  0.0011  0.0020  0.0000  0.0000  0.0000  0.0000  0.0000 </r>
       </set>
      </set>
      <set comment="kpoint 167">
       <set comment="band 1">
        <r>  0.2105  0.0035  0.0001  0.0035  0.0000  0.0000  0.0000  0.0000  0.0000 </r>
        <r>  0.2105  0.0035  0.0001  0.0035  0.0000  0.0000  0.0000  0.0000  0.0000 </r>
       </set>
       <set comment="band 2">
        <r>  0.1088  0.0466  0.0317  0.0466  0.0000  0.0000  0.0000  0.0000  0.0000 </r>
        <r>  0.1088  0.0466  0.0317  0.0466  0.0000  0.0000  0.0000  0.0000  0.0000 </r>
       </set>
       <set comment="band 3">
        <r>  0.0088  0.0304  0.1169  0.0304  0.0000  0.0000  0.0000  0.0000  0.0000 </r>
        <r>  0.0088  0.0304  0.1169  0.0304  0.0000  0.0000  0.0000  0.0000  0.0000 </r>
       </set>
       <set comment="band 4">
        <r>  0.0000  0.1105  0.0000  0.1105  0.0000  0.0000  0.0000  0.0000  0.0000 </r>
        <r>  0.0000  0.1105  0.0000  0.1105  0.0000  0.0000  0.0000  0.0000  0.0000 </r>
       </set>
       <set comment="band 5">
        <r>  0.1021  0.0002  0.0980  0.0002  0.0000  0.0000  0.0000  0.0000  0.0000 </r>
        <r>  0.1021  0.0002  0.0980  0.0002  0.0000  0.0000  0.0000  0.0000  0.0000 </r>
       </set>
       <set comment="band 6">
        <r>  0.0000  0.0751  0.0000  0.0751  0.0000  0.0000  0.0000  0.0000  0.0000 </r>
        <r>  0.0000  0.0751  0.0000  0.0751  0.0000  0.0000  0.0000  0.0000  0.0000 </r>
       </set>
       <set comment="band 7">
        <r>  0.0272  0.0165  0.0939  0.0165  0.0000  0.0000  0.0000  0.0000  0.0000 </r>
        <r>  0.0272  0.0165  0.0939  0.0165  0.0000  0.0000  0.0000  0.0000  0.0000 </r>
       </set>
       <set comment="band 8">
        <r>  0.0865  0.0510  0.0007  0.0510  0.0000  0.0000  0.0000  0.0000  0.0000 </r>
        <r>  0.0865  0.0510  0.0007  0.0510  0.0000  0.0000  0.0000  0.0000  0.0000 </r>
       </set>
       <set comment="band 9">
        <r>  0.0000  0.0000  0.0000  0.0000  0.0000  0.0000  0.0000  0.0000  0.0000 </r>
        <r>  0.0000  0.0000  0.0000  0.0000  0.0000  0.0000  0.0000  0.0000  0.0000 </r>
       </set>
       <set comment="band 10">
        <r>  0.0539  0.0182  0.0184  0.0182  0.0000  0.0000  0.0000  0.0000  0.0000 </r>
        <r>  0.0539  0.0182  0.0184  0.0182  0.0000  0.0000  0.0000  0.0000  0.0000 </r>
       </set>
       <set comment="band 11">
        <r>  0.0445  0.0307  0.0173  0.0307  0.0000  0.0000  0.0000  0.0000  0.0000 </r>
        <r>  0.0445  0.0307  0.0173  0.0307  0.0000  0.0000  0.0000  0.0000  0.0000 </r>
       </set>
       <set comment="band 12">
        <r>  0.0194  0.0026  0.0011  0.0026  0.0000  0.0000  0.0000  0.0000  0.0000 </r>
        <r>  0.0194  0.0026  0.0011  0.0026  0.0000  0.0000  0.0000  0.0000  0.0000 </r>
       </set>
      </set>
      <set comment="kpoint 168">
       <set comment="band 1">
        <r>  0.2109  0.0030  0.0001  0.0030  0.0000  0.0000  0.0000  0.0000  0.0000 </r>
        <r>  0.2109  0.0030  0.0001  0.0030  0.0000  0.0000  0.0000  0.0000  0.0000 </r>
       </set>
       <set comment="band 2">
        <r>  0.1029  0.0497  0.0305  0.0497  0.0000  0.0000  0.0000  0.0000  0.0000 </r>
        <r>  0.1029  0.0497  0.0305  0.0497  0.0000  0.0000  0.0000  0.0000  0.0000 </r>
       </set>
       <set comment="band 3">
        <r>  0.0077  0.0293  0.1225  0.0293  0.0000  0.0000  0.0000  0.0000  0.0000 </r>
        <r>  0.0077  0.0293  0.1225  0.0293  0.0000  0.0000  0.0000  0.0000  0.0000 </r>
       </set>
       <set comment="band 4">
        <r>  0.0000  0.1105  0.0000  0.1105  0.0000  0.0000  0.0000  0.0000  0.0000 </r>
        <r>  0.0000  0.1105  0.0000  0.1105  0.0000  0.0000  0.0000  0.0000  0.0000 </r>
       </set>
       <set comment="band 5">
        <r>  0.1032  0.0002  0.0999  0.0002  0.0000  0.0000  0.0000  0.0000  0.0000 </r>
        <r>  0.1032  0.0002  0.0999  0.0002  0.0000  0.0000  0.0000  0.0000  0.0000 </r>
       </set>
       <set comment="band 6">
        <r>  0.0000  0.0751  0.0000  0.0751  0.0000  0.0000  0.0000  0.0000  0.0000 </r>
        <r>  0.0000  0.0751  0.0000  0.0751  0.0000  0.0000  0.0000  0.0000  0.0000 </r>
       </set>
       <set comment="band 7">
        <r>  0.0257  0.0198  0.0896  0.0198  0.0000  0.0000  0.0000  0.0000  0.0000 </r>
        <r>  0.0257  0.0198  0.0896  0.0198  0.0000  0.0000  0.0000  0.0000  0.0000 </r>
       </set>
       <set comment="band 8">
        <r>  0.0993  0.0531  0.0026  0.0531  0.0000  0.0000  0.0000  0.0000  0.0000 </r>
        <r>  0.0993  0.0531  0.0026  0.0531  0.0000  0.0000  0.0000  0.0000  0.0000 </r>
       </set>
       <set comment="band 9">
        <r>  0.0000  0.0000  0.0000  0.0000  0.0000  0.0000  0.0000  0.0000  0.0000 </r>
        <r>  0.0000  0.0000  0.0000  0.0000  0.0000  0.0000  0.0000  0.0000  0.0000 </r>
       </set>
       <set comment="band 10">
        <r>  0.0464  0.0125  0.0159  0.0125  0.0000  0.0000  0.0000  0.0000  0.0000 </r>
        <r>  0.0464  0.0125  0.0159  0.0125  0.0000  0.0000  0.0000  0.0000  0.0000 </r>
       </set>
       <set comment="band 11">
        <r>  0.0510  0.0285  0.0138  0.0285  0.0000  0.0000  0.0000  0.0000  0.0000 </r>
        <r>  0.0510  0.0285  0.0138  0.0285  0.0000  0.0000  0.0000  0.0000  0.0000 </r>
       </set>
       <set comment="band 12">
        <r>  0.0190  0.0034  0.0011  0.0034  0.0000  0.0000  0.0000  0.0000  0.0000 </r>
        <r>  0.0190  0.0034  0.0011  0.0034  0.0000  0.0000  0.0000  0.0000  0.0000 </r>
       </set>
      </set>
      <set comment="kpoint 169">
       <set comment="band 1">
        <r>  0.2112  0.0025  0.0001  0.0025  0.0000  0.0000  0.0000  0.0000  0.0000 </r>
        <r>  0.2112  0.0025  0.0001  0.0025  0.0000  0.0000  0.0000  0.0000  0.0000 </r>
       </set>
       <set comment="band 2">
        <r>  0.0967  0.0530  0.0293  0.0530  0.0000  0.0000  0.0000  0.0000  0.0000 </r>
        <r>  0.0967  0.0530  0.0293  0.0530  0.0000  0.0000  0.0000  0.0000  0.0000 </r>
       </set>
       <set comment="band 3">
        <r>  0.0065  0.0279  0.1287  0.0279  0.0000  0.0000  0.0000  0.0000  0.0000 </r>
        <r>  0.0065  0.0279  0.1287  0.0279  0.0000  0.0000  0.0000  0.0000  0.0000 </r>
       </set>
       <set comment="band 4">
        <r>  0.0000  0.1105  0.0000  0.1105  0.0000  0.0000  0.0000  0.0000  0.0000 </r>
        <r>  0.0000  0.1104  0.0000  0.1105  0.0000  0.0000  0.0000  0.0000  0.0000 </r>
       </set>
       <set comment="band 5">
        <r>  0.1030  0.0002  0.1017  0.0002  0.0000  0.0000  0.0000  0.0000  0.0000 </r>
        <r>  0.1030  0.0002  0.1017  0.0002  0.0000  0.0000  0.0000  0.0000  0.0000 </r>
       </set>
       <set comment="band 6">
        <r>  0.0000  0.0752  0.0000  0.0752  0.0000  0.0000  0.0000  0.0000  0.0000 </r>
        <r>  0.0000  0.0752  0.0000  0.0752  0.0000  0.0000  0.0000  0.0000  0.0000 </r>
       </set>
       <set comment="band 7">
        <r>  0.0239  0.0235  0.0845  0.0235  0.0000  0.0000  0.0000  0.0000  0.0000 </r>
        <r>  0.0239  0.0235  0.0845  0.0235  0.0000  0.0000  0.0000  0.0000  0.0000 </r>
       </set>
       <set comment="band 8">
        <r>  0.1162  0.0544  0.0055  0.0544  0.0000  0.0000  0.0000  0.0000  0.0000 </r>
        <r>  0.1162  0.0544  0.0055  0.0544  0.0000  0.0000  0.0000  0.0000  0.0000 </r>
       </set>
       <set comment="band 9">
        <r>  0.0000  0.0001  0.0000  0.0001  0.0000  0.0000  0.0000  0.0000  0.0000 </r>
        <r>  0.0000  0.0001  0.0000  0.0001  0.0000  0.0000  0.0000  0.0000  0.0000 </r>
       </set>
       <set comment="band 10">
        <r>  0.0366  0.0073  0.0127  0.0073  0.0000  0.0000  0.0000  0.0000  0.0000 </r>
        <r>  0.0366  0.0073  0.0127  0.0073  0.0000  0.0000  0.0000  0.0000  0.0000 </r>
       </set>
       <set comment="band 11">
        <r>  0.0574  0.0262  0.0106  0.0261  0.0000  0.0000  0.0000  0.0000  0.0000 </r>
        <r>  0.0574  0.0261  0.0106  0.0262  0.0000  0.0000  0.0000  0.0000  0.0000 </r>
       </set>
       <set comment="band 12">
        <r>  0.0185  0.0042  0.0011  0.0044  0.0000  0.0000  0.0000  0.0000  0.0000 </r>
        <r>  0.0181  0.0045  0.0009  0.0046  0.0000  0.0000  0.0000  0.0000  0.0000 </r>
       </set>
      </set>
      <set comment="kpoint 170">
       <set comment="band 1">
        <r>  0.2116  0.0021  0.0000  0.0021  0.0000  0.0000  0.0000  0.0000  0.0000 </r>
        <r>  0.2116  0.0021  0.0000  0.0021  0.0000  0.0000  0.0000  0.0000  0.0000 </r>
       </set>
       <set comment="band 2">
        <r>  0.0900  0.0566  0.0279  0.0566  0.0000  0.0000  0.0000  0.0000  0.0000 </r>
        <r>  0.0900  0.0566  0.0279  0.0566  0.0000  0.0000  0.0000  0.0000  0.0000 </r>
       </set>
       <set comment="band 3">
        <r>  0.0053  0.0263  0.1356  0.0263  0.0000  0.0000  0.0000  0.0000  0.0000 </r>
        <r>  0.0053  0.0263  0.1356  0.0263  0.0000  0.0000  0.0000  0.0000  0.0000 </r>
       </set>
       <set comment="band 4">
        <r>  0.0000  0.1103  0.0000  0.1103  0.0000  0.0000  0.0000  0.0000  0.0000 </r>
        <r>  0.0000  0.1103  0.0000  0.1103  0.0000  0.0000  0.0000  0.0000  0.0000 </r>
       </set>
       <set comment="band 5">
        <r>  0.0000  0.0753  0.0000  0.0753  0.0000  0.0000  0.0000  0.0000  0.0000 </r>
        <r>  0.0000  0.0753  0.0000  0.0753  0.0000  0.0000  0.0000  0.0000  0.0000 </r>
       </set>
       <set comment="band 6">
        <r>  0.1014  0.0003  0.1035  0.0003  0.0000  0.0000  0.0000  0.0000  0.0000 </r>
        <r>  0.1014  0.0003  0.1035  0.0003  0.0000  0.0000  0.0000  0.0000  0.0000 </r>
       </set>
       <set comment="band 7">
        <r>  0.0219  0.0277  0.0786  0.0277  0.0000  0.0000  0.0000  0.0000  0.0000 </r>
        <r>  0.0219  0.0277  0.0786  0.0277  0.0000  0.0000  0.0000  0.0000  0.0000 </r>
       </set>
       <set comment="band 8">
        <r>  0.1358  0.0540  0.0089  0.0540  0.0000  0.0000  0.0000  0.0000  0.0000 </r>
        <r>  0.1358  0.0540  0.0089  0.0540  0.0000  0.0000  0.0000  0.0000  0.0000 </r>
       </set>
       <set comment="band 9">
        <r>  0.0000  0.0002  0.0000  0.0002  0.0000  0.0000  0.0000  0.0000  0.0000 </r>
        <r>  0.0000  0.0002  0.0000  0.0002  0.0000  0.0000  0.0000  0.0000  0.0000 </r>
       </set>
       <set comment="band 10">
        <r>  0.0259  0.0033  0.0092  0.0033  0.0000  0.0000  0.0000  0.0000  0.0000 </r>
        <r>  0.0259  0.0033  0.0092  0.0033  0.0000  0.0000  0.0000  0.0000  0.0000 </r>
       </set>
       <set comment="band 11">
        <r>  0.0635  0.0235  0.0078  0.0235  0.0000  0.0000  0.0000  0.0000  0.0000 </r>
        <r>  0.0635  0.0235  0.0078  0.0235  0.0000  0.0000  0.0000  0.0000  0.0000 </r>
       </set>
       <set comment="band 12">
        <r>  0.0173  0.0056  0.0009  0.0056  0.0000  0.0000  0.0000  0.0000  0.0000 </r>
        <r>  0.0174  0.0055  0.0010  0.0055  0.0000  0.0000  0.0000  0.0000  0.0000 </r>
       </set>
      </set>
      <set comment="kpoint 171">
       <set comment="band 1">
        <r>  0.2119  0.0017  0.0000  0.0017  0.0000  0.0000  0.0000  0.0000  0.0000 </r>
        <r>  0.2119  0.0017  0.0000  0.0017  0.0000  0.0000  0.0000  0.0000  0.0000 </r>
       </set>
       <set comment="band 2">
        <r>  0.0828  0.0604  0.0263  0.0604  0.0000  0.0000  0.0000  0.0000  0.0000 </r>
        <r>  0.0828  0.0604  0.0263  0.0604  0.0000  0.0000  0.0000  0.0000  0.0000 </r>
       </set>
       <set comment="band 3">
        <r>  0.0042  0.0243  0.1433  0.0243  0.0000  0.0000  0.0000  0.0000  0.0000 </r>
        <r>  0.0042  0.0243  0.1433  0.0243  0.0000  0.0000  0.0000  0.0000  0.0000 </r>
       </set>
       <set comment="band 4">
        <r>  0.0000  0.1100  0.0000  0.1100  0.0000  0.0000  0.0000  0.0000  0.0000 </r>
        <r>  0.0000  0.1100  0.0000  0.1100  0.0000  0.0000  0.0000  0.0000  0.0000 </r>
       </set>
       <set comment="band 5">
        <r>  0.0000  0.0754  0.0000  0.0754  0.0000  0.0000  0.0000  0.0000  0.0000 </r>
        <r>  0.0000  0.0754  0.0000  0.0754  0.0000  0.0000  0.0000  0.0000  0.0000 </r>
       </set>
       <set comment="band 6">
        <r>  0.0981  0.0005  0.1056  0.0005  0.0000  0.0000  0.0000  0.0000  0.0000 </r>
        <r>  0.0981  0.0005  0.1056  0.0005  0.0000  0.0000  0.0000  0.0000  0.0000 </r>
       </set>
       <set comment="band 7">
        <r>  0.0196  0.0324  0.0716  0.0324  0.0000  0.0000  0.0000  0.0000  0.0000 </r>
        <r>  0.0196  0.0324  0.0716  0.0324  0.0000  0.0000  0.0000  0.0000  0.0000 </r>
       </set>
       <set comment="band 8">
        <r>  0.1563  0.0516  0.0118  0.0515  0.0000  0.0000  0.0000  0.0000  0.0000 </r>
        <r>  0.1563  0.0516  0.0118  0.0515  0.0000  0.0000  0.0000  0.0000  0.0000 </r>
       </set>
       <set comment="band 9">
        <r>  0.0000  0.0003  0.0000  0.0003  0.0000  0.0000  0.0000  0.0000  0.0000 </r>
        <r>  0.0000  0.0003  0.0000  0.0003  0.0000  0.0000  0.0000  0.0000  0.0000 </r>
       </set>
       <set comment="band 10">
        <r>  0.0166  0.0011  0.0060  0.0011  0.0000  0.0000  0.0000  0.0000  0.0000 </r>
        <r>  0.0166  0.0011  0.0060  0.0011  0.0000  0.0000  0.0000  0.0000  0.0000 </r>
       </set>
       <set comment="band 11">
        <r>  0.0694  0.0207  0.0055  0.0207  0.0000  0.0000  0.0000  0.0000  0.0000 </r>
        <r>  0.0694  0.0207  0.0055  0.0207  0.0000  0.0000  0.0000  0.0000  0.0000 </r>
       </set>
       <set comment="band 12">
        <r>  0.0160  0.0069  0.0008  0.0069  0.0000  0.0000  0.0000  0.0000  0.0000 </r>
        <r>  0.0161  0.0069  0.0008  0.0069  0.0000  0.0000  0.0000  0.0000  0.0000 </r>
       </set>
      </set>
      <set comment="kpoint 172">
       <set comment="band 1">
        <r>  0.2122  0.0014  0.0000  0.0014  0.0000  0.0000  0.0000  0.0000  0.0000 </r>
        <r>  0.2122  0.0014  0.0000  0.0014  0.0000  0.0000  0.0000  0.0000  0.0000 </r>
       </set>
       <set comment="band 2">
        <r>  0.0749  0.0647  0.0244  0.0647  0.0000  0.0000  0.0000  0.0000  0.0000 </r>
        <r>  0.0749  0.0647  0.0244  0.0647  0.0000  0.0000  0.0000  0.0000  0.0000 </r>
       </set>
       <set comment="band 3">
        <r>  0.0031  0.0219  0.1518  0.0219  0.0000  0.0000  0.0000  0.0000  0.0000 </r>
        <r>  0.0031  0.0219  0.1518  0.0219  0.0000  0.0000  0.0000  0.0000  0.0000 </r>
       </set>
       <set comment="band 4">
        <r>  0.0000  0.1098  0.0000  0.1098  0.0000  0.0000  0.0000  0.0000  0.0000 </r>
        <r>  0.0000  0.1098  0.0000  0.1098  0.0000  0.0000  0.0000  0.0000  0.0000 </r>
       </set>
       <set comment="band 5">
        <r>  0.0000  0.0754  0.0000  0.0754  0.0000  0.0000  0.0000  0.0000  0.0000 </r>
        <r>  0.0000  0.0754  0.0000  0.0754  0.0000  0.0000  0.0000  0.0000  0.0000 </r>
       </set>
       <set comment="band 6">
        <r>  0.0926  0.0007  0.1082  0.0007  0.0000  0.0000  0.0000  0.0000  0.0000 </r>
        <r>  0.0926  0.0007  0.1082  0.0007  0.0000  0.0000  0.0000  0.0000  0.0000 </r>
       </set>
       <set comment="band 7">
        <r>  0.0171  0.0376  0.0638  0.0376  0.0000  0.0000  0.0000  0.0000  0.0000 </r>
        <r>  0.0171  0.0376  0.0638  0.0376  0.0000  0.0000  0.0000  0.0000  0.0000 </r>
       </set>
       <set comment="band 8">
        <r>  0.1773  0.0472  0.0138  0.0472  0.0000  0.0000  0.0000  0.0000  0.0000 </r>
        <r>  0.1772  0.0472  0.0138  0.0472  0.0000  0.0000  0.0000  0.0000  0.0000 </r>
       </set>
       <set comment="band 9">
        <r>  0.0000  0.0004  0.0000  0.0004  0.0000  0.0000  0.0000  0.0000  0.0000 </r>
        <r>  0.0000  0.0004  0.0000  0.0004  0.0000  0.0000  0.0000  0.0000  0.0000 </r>
       </set>
       <set comment="band 10">
        <r>  0.0098  0.0002  0.0036  0.0002  0.0000  0.0000  0.0000  0.0000  0.0000 </r>
        <r>  0.0098  0.0002  0.0036  0.0002  0.0000  0.0000  0.0000  0.0000  0.0000 </r>
       </set>
       <set comment="band 11">
        <r>  0.0751  0.0177  0.0037  0.0177  0.0000  0.0000  0.0000  0.0000  0.0000 </r>
        <r>  0.0751  0.0177  0.0037  0.0177  0.0000  0.0000  0.0000  0.0000  0.0000 </r>
       </set>
       <set comment="band 12">
        <r>  0.0144  0.0085  0.0006  0.0085  0.0000  0.0000  0.0000  0.0000  0.0000 </r>
        <r>  0.0144  0.0085  0.0007  0.0085  0.0000  0.0000  0.0000  0.0000  0.0000 </r>
       </set>
      </set>
      <set comment="kpoint 173">
       <set comment="band 1">
        <r>  0.2125  0.0011  0.0000  0.0011  0.0000  0.0000  0.0000  0.0000  0.0000 </r>
        <r>  0.2125  0.0011  0.0000  0.0011  0.0000  0.0000  0.0000  0.0000  0.0000 </r>
       </set>
       <set comment="band 2">
        <r>  0.0663  0.0693  0.0222  0.0693  0.0000  0.0000  0.0000  0.0000  0.0000 </r>
        <r>  0.0663  0.0693  0.0222  0.0693  0.0000  0.0000  0.0000  0.0000  0.0000 </r>
       </set>
       <set comment="band 3">
        <r>  0.0022  0.0191  0.1610  0.0191  0.0000  0.0000  0.0000  0.0000  0.0000 </r>
        <r>  0.0022  0.0191  0.1610  0.0191  0.0000  0.0000  0.0000  0.0000  0.0000 </r>
       </set>
       <set comment="band 4">
        <r>  0.0000  0.1095  0.0000  0.1095  0.0000  0.0000  0.0000  0.0000  0.0000 </r>
        <r>  0.0000  0.1095  0.0000  0.1095  0.0000  0.0000  0.0000  0.0000  0.0000 </r>
       </set>
       <set comment="band 5">
        <r>  0.0000  0.0755  0.0000  0.0755  0.0000  0.0000  0.0000  0.0000  0.0000 </r>
        <r>  0.0000  0.0755  0.0000  0.0755  0.0000  0.0000  0.0000  0.0000  0.0000 </r>
       </set>
       <set comment="band 6">
        <r>  0.0144  0.0432  0.0550  0.0432  0.0000  0.0000  0.0000  0.0000  0.0000 </r>
        <r>  0.0144  0.0432  0.0550  0.0432  0.0000  0.0000  0.0000  0.0000  0.0000 </r>
       </set>
       <set comment="band 7">
        <r>  0.0843  0.0011  0.1116  0.0011  0.0000  0.0000  0.0000  0.0000  0.0000 </r>
        <r>  0.0843  0.0011  0.1116  0.0011  0.0000  0.0000  0.0000  0.0000  0.0000 </r>
       </set>
       <set comment="band 8">
        <r>  0.1993  0.0415  0.0144  0.0415  0.0000  0.0000  0.0000  0.0000  0.0000 </r>
        <r>  0.1993  0.0415  0.0144  0.0415  0.0000  0.0000  0.0000  0.0000  0.0000 </r>
       </set>
       <set comment="band 9">
        <r>  0.0000  0.0005  0.0000  0.0006  0.0000  0.0000  0.0000  0.0000  0.0000 </r>
        <r>  0.0000  0.0006  0.0000  0.0005  0.0000  0.0000  0.0000  0.0000  0.0000 </r>
       </set>
       <set comment="band 10">
        <r>  0.0053  0.0000  0.0020  0.0000  0.0000  0.0000  0.0000  0.0000  0.0000 </r>
        <r>  0.0053  0.0000  0.0020  0.0000  0.0000  0.0000  0.0000  0.0000  0.0000 </r>
       </set>
       <set comment="band 11">
        <r>  0.0804  0.0145  0.0023  0.0145  0.0000  0.0000  0.0000  0.0000  0.0000 </r>
        <r>  0.0804  0.0145  0.0023  0.0145  0.0000  0.0000  0.0000  0.0000  0.0000 </r>
       </set>
       <set comment="band 12">
        <r>  0.0129  0.0108  0.0026  0.0080  0.0000  0.0000  0.0000  0.0000  0.0000 </r>
        <r>  0.0114  0.0121  0.0002  0.0091  0.0000  0.0000  0.0000  0.0000  0.0000 </r>
       </set>
      </set>
      <set comment="kpoint 174">
       <set comment="band 1">
        <r>  0.2127  0.0008  0.0000  0.0008  0.0000  0.0000  0.0000  0.0000  0.0000 </r>
        <r>  0.2127  0.0008  0.0000  0.0008  0.0000  0.0000  0.0000  0.0000  0.0000 </r>
       </set>
       <set comment="band 2">
        <r>  0.0568  0.0745  0.0197  0.0745  0.0000  0.0000  0.0000  0.0000  0.0000 </r>
        <r>  0.0568  0.0745  0.0197  0.0745  0.0000  0.0000  0.0000  0.0000  0.0000 </r>
       </set>
       <set comment="band 3">
        <r>  0.0014  0.0160  0.1710  0.0160  0.0000  0.0000  0.0000  0.0000  0.0000 </r>
        <r>  0.0014  0.0160  0.1710  0.0160  0.0000  0.0000  0.0000  0.0000  0.0000 </r>
       </set>
       <set comment="band 4">
        <r>  0.0000  0.1092  0.0000  0.1092  0.0000  0.0000  0.0000  0.0000  0.0000 </r>
        <r>  0.0000  0.1092  0.0000  0.1092  0.0000  0.0000  0.0000  0.0000  0.0000 </r>
       </set>
       <set comment="band 5">
        <r>  0.0000  0.0755  0.0000  0.0755  0.0000  0.0000  0.0000  0.0000  0.0000 </r>
        <r>  0.0000  0.0755  0.0000  0.0755  0.0000  0.0000  0.0000  0.0000  0.0000 </r>
       </set>
       <set comment="band 6">
        <r>  0.0116  0.0492  0.0453  0.0492  0.0000  0.0000  0.0000  0.0000  0.0000 </r>
        <r>  0.0116  0.0492  0.0453  0.0492  0.0000  0.0000  0.0000  0.0000  0.0000 </r>
       </set>
       <set comment="band 7">
        <r>  0.0725  0.0016  0.1162  0.0016  0.0000  0.0000  0.0000  0.0000  0.0000 </r>
        <r>  0.0725  0.0016  0.1162  0.0016  0.0000  0.0000  0.0000  0.0000  0.0000 </r>
       </set>
       <set comment="band 8">
        <r>  0.2239  0.0349  0.0137  0.0349  0.0000  0.0000  0.0000  0.0000  0.0000 </r>
        <r>  0.2239  0.0349  0.0137  0.0349  0.0000  0.0000  0.0000  0.0000  0.0000 </r>
       </set>
       <set comment="band 9">
        <r>  0.0000  0.0006  0.0000  0.0006  0.0000  0.0000  0.0000  0.0000  0.0000 </r>
        <r>  0.0000  0.0006  0.0000  0.0006  0.0000  0.0000  0.0000  0.0000  0.0000 </r>
       </set>
       <set comment="band 10">
        <r>  0.0027  0.0001  0.0010  0.0001  0.0000  0.0000  0.0000  0.0000  0.0000 </r>
        <r>  0.0027  0.0001  0.0010  0.0001  0.0000  0.0000  0.0000  0.0000  0.0000 </r>
       </set>
       <set comment="band 11">
        <r>  0.0854  0.0114  0.0013  0.0114  0.0000  0.0000  0.0000  0.0000  0.0000 </r>
        <r>  0.0854  0.0114  0.0013  0.0114  0.0000  0.0000  0.0000  0.0000  0.0000 </r>
       </set>
       <set comment="band 12">
        <r>  0.0104  0.0122  0.0004  0.0119  0.0000  0.0000  0.0000  0.0000  0.0000 </r>
        <r>  0.0104  0.0122  0.0005  0.0119  0.0000  0.0000  0.0000  0.0000  0.0000 </r>
       </set>
      </set>
      <set comment="kpoint 175">
       <set comment="band 1">
        <r>  0.2129  0.0005  0.0000  0.0005  0.0000  0.0000  0.0000  0.0000  0.0000 </r>
        <r>  0.2129  0.0005  0.0000  0.0005  0.0000  0.0000  0.0000  0.0000  0.0000 </r>
       </set>
       <set comment="band 2">
        <r>  0.0464  0.0804  0.0166  0.0804  0.0000  0.0000  0.0000  0.0000  0.0000 </r>
        <r>  0.0464  0.0804  0.0166  0.0804  0.0000  0.0000  0.0000  0.0000  0.0000 </r>
       </set>
       <set comment="band 3">
        <r>  0.0008  0.0126  0.1813  0.0126  0.0000  0.0000  0.0000  0.0000  0.0000 </r>
        <r>  0.0008  0.0126  0.1813  0.0126  0.0000  0.0000  0.0000  0.0000  0.0000 </r>
       </set>
       <set comment="band 4">
        <r>  0.0000  0.1089  0.0000  0.1089  0.0000  0.0000  0.0000  0.0000  0.0000 </r>
        <r>  0.0000  0.1089  0.0000  0.1089  0.0000  0.0000  0.0000  0.0000  0.0000 </r>
       </set>
       <set comment="band 5">
        <r>  0.0000  0.0756  0.0000  0.0756  0.0000  0.0000  0.0000  0.0000  0.0000 </r>
        <r>  0.0000  0.0756  0.0000  0.0756  0.0000  0.0000  0.0000  0.0000  0.0000 </r>
       </set>
       <set comment="band 6">
        <r>  0.0088  0.0554  0.0351  0.0554  0.0000  0.0000  0.0000  0.0000  0.0000 </r>
        <r>  0.0088  0.0554  0.0351  0.0554  0.0000  0.0000  0.0000  0.0000  0.0000 </r>
       </set>
       <set comment="band 7">
        <r>  0.0566  0.0023  0.1223  0.0023  0.0000  0.0000  0.0000  0.0000  0.0000 </r>
        <r>  0.0566  0.0023  0.1223  0.0023  0.0000  0.0000  0.0000  0.0000  0.0000 </r>
       </set>
       <set comment="band 8">
        <r>  0.2524  0.0275  0.0114  0.0275  0.0000  0.0000  0.0000  0.0000  0.0000 </r>
        <r>  0.2524  0.0275  0.0114  0.0275  0.0000  0.0000  0.0000  0.0000  0.0000 </r>
       </set>
       <set comment="band 9">
        <r>  0.0000  0.0006  0.0000  0.0006  0.0000  0.0000  0.0000  0.0000  0.0000 </r>
        <r>  0.0000  0.0006  0.0000  0.0006  0.0000  0.0000  0.0000  0.0000  0.0000 </r>
       </set>
       <set comment="band 10">
        <r>  0.0012  0.0002  0.0005  0.0002  0.0000  0.0000  0.0000  0.0000  0.0000 </r>
        <r>  0.0012  0.0002  0.0005  0.0002  0.0000  0.0000  0.0000  0.0000  0.0000 </r>
       </set>
       <set comment="band 11">
        <r>  0.0899  0.0084  0.0007  0.0084  0.0000  0.0000  0.0000  0.0000  0.0000 </r>
        <r>  0.0899  0.0084  0.0007  0.0084  0.0000  0.0000  0.0000  0.0000  0.0000 </r>
       </set>
       <set comment="band 12">
        <r>  0.0083  0.0135  0.0008  0.0138  0.0000  0.0000  0.0000  0.0000  0.0000 </r>
        <r>  0.0081  0.0139  0.0000  0.0141  0.0000  0.0000  0.0000  0.0000  0.0000 </r>
       </set>
      </set>
      <set comment="kpoint 176">
       <set comment="band 1">
        <r>  0.2131  0.0004  0.0000  0.0004  0.0000  0.0000  0.0000  0.0000  0.0000 </r>
        <r>  0.2131  0.0004  0.0000  0.0004  0.0000  0.0000  0.0000  0.0000  0.0000 </r>
       </set>
       <set comment="band 2">
        <r>  0.0351  0.0869  0.0131  0.0869  0.0000  0.0000  0.0000  0.0000  0.0000 </r>
        <r>  0.0351  0.0869  0.0131  0.0869  0.0000  0.0000  0.0000  0.0000  0.0000 </r>
       </set>
       <set comment="band 3">
        <r>  0.0004  0.0090  0.1916  0.0090  0.0000  0.0000  0.0000  0.0000  0.0000 </r>
        <r>  0.0004  0.0090  0.1916  0.0090  0.0000  0.0000  0.0000  0.0000  0.0000 </r>
       </set>
       <set comment="band 4">
        <r>  0.0000  0.1086  0.0000  0.1086  0.0000  0.0000  0.0000  0.0000  0.0000 </r>
        <r>  0.0000  0.1086  0.0000  0.1086  0.0000  0.0000  0.0000  0.0000  0.0000 </r>
       </set>
       <set comment="band 5">
        <r>  0.0000  0.0756  0.0000  0.0756  0.0000  0.0000  0.0000  0.0000  0.0000 </r>
        <r>  0.0000  0.0756  0.0000  0.0756  0.0000  0.0000  0.0000  0.0000  0.0000 </r>
       </set>
       <set comment="band 6">
        <r>  0.0061  0.0615  0.0248  0.0615  0.0000  0.0000  0.0000  0.0000  0.0000 </r>
        <r>  0.0061  0.0615  0.0248  0.0615  0.0000  0.0000  0.0000  0.0000  0.0000 </r>
       </set>
       <set comment="band 7">
        <r>  0.0372  0.0030  0.1299  0.0030  0.0000  0.0000  0.0000  0.0000  0.0000 </r>
        <r>  0.0372  0.0030  0.1299  0.0030  0.0000  0.0000  0.0000  0.0000  0.0000 </r>
       </set>
       <set comment="band 8">
        <r>  0.2845  0.0195  0.0078  0.0195  0.0000  0.0000  0.0000  0.0000  0.0000 </r>
        <r>  0.2845  0.0195  0.0078  0.0195  0.0000  0.0000  0.0000  0.0000  0.0000 </r>
       </set>
       <set comment="band 9">
        <r>  0.0000  0.0006  0.0000  0.0006  0.0000  0.0000  0.0000  0.0000  0.0000 </r>
        <r>  0.0000  0.0006  0.0000  0.0006  0.0000  0.0000  0.0000  0.0000  0.0000 </r>
       </set>
       <set comment="band 10">
        <r>  0.0005  0.0002  0.0002  0.0002  0.0000  0.0000  0.0000  0.0000  0.0000 </r>
        <r>  0.0005  0.0002  0.0002  0.0002  0.0000  0.0000  0.0000  0.0000  0.0000 </r>
       </set>
       <set comment="band 11">
        <r>  0.0939  0.0057  0.0003  0.0057  0.0000  0.0000  0.0000  0.0000  0.0000 </r>
        <r>  0.0939  0.0057  0.0003  0.0057  0.0000  0.0000  0.0000  0.0000  0.0000 </r>
       </set>
       <set comment="band 12">
        <r>  0.0058  0.0156  0.0000  0.0161  0.0000  0.0000  0.0000  0.0000  0.0000 </r>
        <r>  0.0060  0.0153  0.0008  0.0155  0.0000  0.0000  0.0000  0.0000  0.0000 </r>
       </set>
      </set>
      <set comment="kpoint 177">
       <set comment="band 1">
        <r>  0.2133  0.0002  0.0000  0.0002  0.0000  0.0000  0.0000  0.0000  0.0000 </r>
        <r>  0.2133  0.0002  0.0000  0.0002  0.0000  0.0000  0.0000  0.0000  0.0000 </r>
       </set>
       <set comment="band 2">
        <r>  0.0233  0.0938  0.0090  0.0938  0.0000  0.0000  0.0000  0.0000  0.0000 </r>
        <r>  0.0233  0.0938  0.0090  0.0938  0.0000  0.0000  0.0000  0.0000  0.0000 </r>
       </set>
       <set comment="band 3">
        <r>  0.0001  0.0056  0.2011  0.0056  0.0000  0.0000  0.0000  0.0000  0.0000 </r>
        <r>  0.0001  0.0056  0.2011  0.0056  0.0000  0.0000  0.0000  0.0000  0.0000 </r>
       </set>
       <set comment="band 4">
        <r>  0.0000  0.1084  0.0000  0.1084  0.0000  0.0000  0.0000  0.0000  0.0000 </r>
        <r>  0.0000  0.1084  0.0000  0.1084  0.0000  0.0000  0.0000  0.0000  0.0000 </r>
       </set>
       <set comment="band 5">
        <r>  0.0000  0.0757  0.0000  0.0757  0.0000  0.0000  0.0000  0.0000  0.0000 </r>
        <r>  0.0000  0.0757  0.0000  0.0757  0.0000  0.0000  0.0000  0.0000  0.0000 </r>
       </set>
       <set comment="band 6">
        <r>  0.0036  0.0670  0.0152  0.0671  0.0000  0.0000  0.0000  0.0000  0.0000 </r>
        <r>  0.0036  0.0671  0.0152  0.0671  0.0000  0.0000  0.0000  0.0000  0.0000 </r>
       </set>
       <set comment="band 7">
        <r>  0.0179  0.0032  0.1383  0.0032  0.0000  0.0000  0.0000  0.0000  0.0000 </r>
        <r>  0.0179  0.0032  0.1383  0.0032  0.0000  0.0000  0.0000  0.0000  0.0000 </r>
       </set>
       <set comment="band 8">
        <r>  0.3165  0.0117  0.0038  0.0117  0.0000  0.0000  0.0000  0.0000  0.0000 </r>
        <r>  0.3165  0.0117  0.0038  0.0117  0.0000  0.0000  0.0000  0.0000  0.0000 </r>
       </set>
       <set comment="band 9">
        <r>  0.0000  0.0004  0.0000  0.0004  0.0000  0.0000  0.0000  0.0000  0.0000 </r>
        <r>  0.0000  0.0004  0.0000  0.0004  0.0000  0.0000  0.0000  0.0000  0.0000 </r>
       </set>
       <set comment="band 10">
        <r>  0.0001  0.0001  0.0001  0.0001  0.0000  0.0000  0.0000  0.0000  0.0000 </r>
        <r>  0.0001  0.0001  0.0001  0.0001  0.0000  0.0000  0.0000  0.0000  0.0000 </r>
       </set>
       <set comment="band 11">
        <r>  0.0972  0.0033  0.0001  0.0033  0.0000  0.0000  0.0000  0.0000  0.0000 </r>
        <r>  0.0971  0.0033  0.0001  0.0033  0.0000  0.0000  0.0000  0.0000  0.0000 </r>
       </set>
       <set comment="band 12">
        <r>  0.0036  0.0169  0.0007  0.0171  0.0000  0.0000  0.0000  0.0000  0.0000 </r>
        <r>  0.0038  0.0167  0.0016  0.0169  0.0000  0.0000  0.0000  0.0000  0.0000 </r>
       </set>
      </set>
      <set comment="kpoint 178">
       <set comment="band 1">
        <r>  0.2134  0.0001  0.0000  0.0001  0.0000  0.0000  0.0000  0.0000  0.0000 </r>
        <r>  0.2134  0.0001  0.0000  0.0001  0.0000  0.0000  0.0000  0.0000  0.0000 </r>
       </set>
       <set comment="band 2">
        <r>  0.0120  0.1007  0.0048  0.1007  0.0000  0.0000  0.0000  0.0000  0.0000 </r>
        <r>  0.0120  0.1007  0.0048  0.1007  0.0000  0.0000  0.0000  0.0000  0.0000 </r>
       </set>
       <set comment="band 3">
        <r>  0.0000  0.0027  0.2090  0.0027  0.0000  0.0000  0.0000  0.0000  0.0000 </r>
        <r>  0.0000  0.0027  0.2090  0.0027  0.0000  0.0000  0.0000  0.0000  0.0000 </r>
       </set>
       <set comment="band 4">
        <r>  0.0000  0.1082  0.0000  0.1082  0.0000  0.0000  0.0000  0.0000  0.0000 </r>
        <r>  0.0000  0.1082  0.0000  0.1082  0.0000  0.0000  0.0000  0.0000  0.0000 </r>
       </set>
       <set comment="band 5">
        <r>  0.0000  0.0757  0.0000  0.0757  0.0000  0.0000  0.0000  0.0000  0.0000 </r>
        <r>  0.0000  0.0757  0.0000  0.0757  0.0000  0.0000  0.0000  0.0000  0.0000 </r>
       </set>
       <set comment="band 6">
        <r>  0.0017  0.0716  0.0072  0.0716  0.0000  0.0000  0.0000  0.0000  0.0000 </r>
        <r>  0.0017  0.0716  0.0072  0.0716  0.0000  0.0000  0.0000  0.0000  0.0000 </r>
       </set>
       <set comment="band 7">
        <r>  0.0049  0.0024  0.1455  0.0024  0.0000  0.0000  0.0000  0.0000  0.0000 </r>
        <r>  0.0049  0.0024  0.1455  0.0024  0.0000  0.0000  0.0000  0.0000  0.0000 </r>
       </set>
       <set comment="band 8">
        <r>  0.3415  0.0053  0.0010  0.0053  0.0000  0.0000  0.0000  0.0000  0.0000 </r>
        <r>  0.3415  0.0053  0.0010  0.0053  0.0000  0.0000  0.0000  0.0000  0.0000 </r>
       </set>
       <set comment="band 9">
        <r>  0.0000  0.0002  0.0000  0.0002  0.0000  0.0000  0.0000  0.0000  0.0000 </r>
        <r>  0.0000  0.0002  0.0000  0.0002  0.0000  0.0000  0.0000  0.0000  0.0000 </r>
       </set>
       <set comment="band 10">
        <r>  0.0000  0.0001  0.0000  0.0001  0.0000  0.0000  0.0000  0.0000  0.0000 </r>
        <r>  0.0000  0.0001  0.0000  0.0001  0.0000  0.0000  0.0000  0.0000  0.0000 </r>
       </set>
       <set comment="band 11">
        <r>  0.0996  0.0015  0.0000  0.0015  0.0000  0.0000  0.0000  0.0000  0.0000 </r>
        <r>  0.0996  0.0015  0.0000  0.0015  0.0000  0.0000  0.0000  0.0000  0.0000 </r>
       </set>
       <set comment="band 12">
        <r>  0.0012  0.0152  0.0085  0.0146  0.0000  0.0000  0.0000  0.0000  0.0000 </r>
        <r>  0.0013  0.0141  0.0107  0.0135  0.0000  0.0000  0.0000  0.0000  0.0000 </r>
       </set>
      </set>
      <set comment="kpoint 179">
       <set comment="band 1">
        <r>  0.2134  0.0000  0.0000  0.0000  0.0000  0.0000  0.0000  0.0000  0.0000 </r>
        <r>  0.2134  0.0000  0.0000  0.0000  0.0000  0.0000  0.0000  0.0000  0.0000 </r>
       </set>
       <set comment="band 2">
        <r>  0.0033  0.1060  0.0014  0.1060  0.0000  0.0000  0.0000  0.0000  0.0000 </r>
        <r>  0.0033  0.1060  0.0014  0.1060  0.0000  0.0000  0.0000  0.0000  0.0000 </r>
       </set>
       <set comment="band 3">
        <r>  0.0000  0.0007  0.2143  0.0007  0.0000  0.0000  0.0000  0.0000  0.0000 </r>
        <r>  0.0000  0.0007  0.2143  0.0007  0.0000  0.0000  0.0000  0.0000  0.0000 </r>
       </set>
       <set comment="band 4">
        <r>  0.0000  0.1081  0.0000  0.1081  0.0000  0.0000  0.0000  0.0000  0.0000 </r>
        <r>  0.0000  0.1081  0.0000  0.1081  0.0000  0.0000  0.0000  0.0000  0.0000 </r>
       </set>
       <set comment="band 5">
        <r>  0.0000  0.0757  0.0000  0.0757  0.0000  0.0000  0.0000  0.0000  0.0000 </r>
        <r>  0.0000  0.0757  0.0000  0.0757  0.0000  0.0000  0.0000  0.0000  0.0000 </r>
       </set>
       <set comment="band 6">
        <r>  0.0004  0.0746  0.0019  0.0746  0.0000  0.0000  0.0000  0.0000  0.0000 </r>
        <r>  0.0004  0.0746  0.0019  0.0746  0.0000  0.0000  0.0000  0.0000  0.0000 </r>
       </set>
       <set comment="band 7">
        <r>  0.0004  0.0009  0.1499  0.0009  0.0000  0.0000  0.0000  0.0000  0.0000 </r>
        <r>  0.0004  0.0009  0.1499  0.0009  0.0000  0.0000  0.0000  0.0000  0.0000 </r>
       </set>
       <set comment="band 8">
        <r>  0.3549  0.0013  0.0001  0.0013  0.0000  0.0000  0.0000  0.0000  0.0000 </r>
        <r>  0.3549  0.0013  0.0001  0.0013  0.0000  0.0000  0.0000  0.0000  0.0000 </r>
       </set>
       <set comment="band 9">
        <r>  0.0000  0.0001  0.0000  0.0001  0.0000  0.0000  0.0000  0.0000  0.0000 </r>
        <r>  0.0000  0.0001  0.0000  0.0001  0.0000  0.0000  0.0000  0.0000  0.0000 </r>
       </set>
       <set comment="band 10">
        <r>  0.0000  0.0000  0.0000  0.0000  0.0000  0.0000  0.0000  0.0000  0.0000 </r>
        <r>  0.0000  0.0000  0.0000  0.0000  0.0000  0.0000  0.0000  0.0000  0.0000 </r>
       </set>
       <set comment="band 11">
        <r>  0.1011  0.0004  0.0000  0.0004  0.0000  0.0000  0.0000  0.0000  0.0000 </r>
        <r>  0.1011  0.0004  0.0000  0.0004  0.0000  0.0000  0.0000  0.0000  0.0000 </r>
       </set>
       <set comment="band 12">
        <r>  0.0004  0.0212  0.0000  0.0183  0.0000  0.0000  0.0000  0.0000  0.0000 </r>
        <r>  0.0004  0.0212  0.0001  0.0183  0.0000  0.0000  0.0000  0.0000  0.0000 </r>
       </set>
      </set>
      <set comment="kpoint 180">
       <set comment="band 1">
        <r>  0.2135  0.0000  0.0000  0.0000  0.0000  0.0000  0.0000  0.0000  0.0000 </r>
        <r>  0.2135  0.0000  0.0000  0.0000  0.0000  0.0000  0.0000  0.0000  0.0000 </r>
       </set>
       <set comment="band 2">
        <r>  0.0000  0.0497  0.1556  0.0110  0.0000  0.0000  0.0000  0.0000  0.0000 </r>
        <r>  0.0000  0.0497  0.1556  0.0110  0.0000  0.0000  0.0000  0.0000  0.0000 </r>
       </set>
       <set comment="band 3">
        <r>  0.0000  0.1360  0.0406  0.0395  0.0000  0.0000  0.0000  0.0000  0.0000 </r>
        <r>  0.0000  0.1360  0.0406  0.0395  0.0000  0.0000  0.0000  0.0000  0.0000 </r>
       </set>
       <set comment="band 4">
        <r>  0.0000  0.0305  0.0200  0.1657  0.0000  0.0000  0.0000  0.0000  0.0000 </r>
        <r>  0.0000  0.0305  0.0200  0.1657  0.0000  0.0000  0.0000  0.0000  0.0000 </r>
       </set>
       <set comment="band 5">
        <r>  0.0000  0.0633  0.0660  0.0220  0.0000  0.0000  0.0000  0.0000  0.0000 </r>
        <r>  0.0000  0.0633  0.0660  0.0220  0.0000  0.0000  0.0000  0.0000  0.0000 </r>
       </set>
       <set comment="band 6">
        <r>  0.0000  0.0850  0.0400  0.0264  0.0000  0.0000  0.0000  0.0000  0.0000 </r>
        <r>  0.0000  0.0850  0.0400  0.0264  0.0000  0.0000  0.0000  0.0000  0.0000 </r>
       </set>
       <set comment="band 7">
        <r>  0.0000  0.0031  0.0454  0.1029  0.0000  0.0000  0.0000  0.0000  0.0000 </r>
        <r>  0.0000  0.0031  0.0454  0.1029  0.0000  0.0000  0.0000  0.0000  0.0000 </r>
       </set>
       <set comment="band 8">
        <r>  0.3587  0.0000  0.0000  0.0000  0.0000  0.0000  0.0000  0.0000  0.0000 </r>
        <r>  0.3587  0.0000  0.0000  0.0000  0.0000  0.0000  0.0000  0.0000  0.0000 </r>
       </set>
       <set comment="band 9">
        <r>  0.0000  0.0000  0.0000  0.0000  0.0000  0.0000  0.0000  0.0000  0.0000 </r>
        <r>  0.0000  0.0000  0.0000  0.0000  0.0000  0.0000  0.0000  0.0000  0.0000 </r>
       </set>
       <set comment="band 10">
        <r>  0.0000  0.0000  0.0000  0.0000  0.0000  0.0000  0.0000  0.0000  0.0000 </r>
        <r>  0.0000  0.0000  0.0000  0.0000  0.0000  0.0000  0.0000  0.0000  0.0000 </r>
       </set>
       <set comment="band 11">
        <r>  0.1017  0.0000  0.0000  0.0000  0.0000  0.0000  0.0000  0.0000  0.0000 </r>
        <r>  0.1017  0.0000  0.0000  0.0000  0.0000  0.0000  0.0000  0.0000  0.0000 </r>
       </set>
       <set comment="band 12">
        <r>  0.0000  0.0024  0.0113  0.0263  0.0000  0.0000  0.0000  0.0000  0.0000 </r>
        <r>  0.0000  0.0024  0.0113  0.0263  0.0000  0.0000  0.0000  0.0000  0.0000 </r>
       </set>
      </set>
     </set>
    </set>
   </array>
  </projected>
 </calculation>
 <structure name="finalpos" >
  <crystal>
   <varray name="basis" >
    <v>       0.00000000       2.71500000       2.71500000 </v>
    <v>       2.71500000       0.00000000       2.71500000 </v>
    <v>       2.71500000       2.71500000       0.00000000 </v>
   </varray>
   <i name="volume">     40.02575175 </i>
   <varray name="rec_basis" >
    <v>      -0.18416206       0.18416206       0.18416206 </v>
    <v>       0.18416206      -0.18416206       0.18416206 </v>
    <v>       0.18416206       0.18416206      -0.18416206 </v>
   </varray>
  </crystal>
  <varray name="positions" >
   <v>       0.00000000       0.00000000       0.00000000 </v>
   <v>       0.25000000       0.25000000       0.25000000 </v>
  </varray>
 </structure>
</modeling>
