 running    8 mpi-ranks, on    1 nodes
 distrk:  each k-point on    4 cores,    2 groups
 distr:  one band on    4 cores,    1 groups
 vasp.6.6.0 06Mar2026 (build Apr 30 2026 15:36:16) complex                      
  
 POSCAR found type information on POSCAR Si
 POSCAR found :  1 types and       2 ions
 Reading from existing POTCAR
 scaLAPACK will be used
 Reading from existing POTCAR
 LDA part: xc-table for (Slater+PW92), standard interpolation
 WARNING: stress and forces are not correct
 POSCAR, INCAR and KPOINTS ok, starting setup
 FFT: planning ... GRIDC
 FFT: planning ... GRID_SOFT
 FFT: planning ... GRID
 WAVECAR not read
 charge density read from file: CHGCAR, Si_diamond_PBE_band_vasp                
 WARNING: random wavefunctions but no delay for mixing, default for NELMDL
 entering main loop
       N       E                     dE             d eps       ncg     rms          rms(c)
DAV:   1     0.586206601591E+01    0.58621E+01   -0.27404E+03  4320   0.411E+02
DAV:   2    -0.836009803463E+01   -0.14222E+02   -0.13328E+02  5668   0.711E+01
DAV:   3    -0.884576140964E+01   -0.48566E+00   -0.47804E+00  5672   0.104E+01
DAV:   4    -0.884900599373E+01   -0.32446E-02   -0.32442E-02  5076   0.107E+00
DAV:   5    -0.884903454758E+01   -0.28554E-04   -0.28553E-04  5604   0.926E-02
RMM:   6    -0.884903483471E+01   -0.28713E-06   -0.28703E-06  3677   0.106E-02
   1 F= -.88490348E+01 E0= -.88490348E+01  d E =-.158315E-10
