 running    8 mpi-ranks, on    1 nodes
 distrk:  each k-point on    4 cores,    2 groups
 distr:  one band on    4 cores,    1 groups
 vasp.6.6.0 06Mar2026 (build Apr 30 2026 15:36:16) complex                      
  
 POSCAR found type information on POSCAR Si
 POSCAR found :  1 types and       2 ions
 Reading from existing POTCAR
 scaLAPACK will be used
 Reading from existing POTCAR
 LDA part: xc-table for (Slater+PW92), standard interpolation
 POSCAR, INCAR and KPOINTS ok, starting setup
 FFT: planning ... GRIDC
 FFT: planning ... GRID_SOFT
 FFT: planning ... GRID
 WAVECAR not read
 WARNING: random wavefunctions but no delay for mixing, default for NELMDL
 entering main loop
       N       E                     dE             d eps       ncg     rms          rms(c)
DAV:   1     0.528444286196E+01    0.52844E+01   -0.29864E+03   464   0.640E+02
DAV:   2    -0.108197015628E+02   -0.16104E+02   -0.15550E+02   728   0.749E+01
DAV:   3    -0.110205440678E+02   -0.20084E+00   -0.20084E+00   552   0.107E+01
DAV:   4    -0.110215629399E+02   -0.10189E-02   -0.10189E-02   800   0.868E-01
DAV:   5    -0.110215634493E+02   -0.50943E-06   -0.50979E-06   552   0.161E-02    0.302E+00
RMM:   6    -0.108960054540E+02    0.12556E+00   -0.49655E-02   465   0.138E+00    0.179E+00
RMM:   7    -0.108384321848E+02    0.57573E-01   -0.11268E-01   501   0.223E+00    0.153E-01
RMM:   8    -0.108402915947E+02   -0.18594E-02   -0.80614E-03   484   0.727E-01    0.301E-02
RMM:   9    -0.108404478415E+02   -0.15625E-03   -0.15670E-03   522   0.294E-01    0.335E-02
RMM:  10    -0.108405106697E+02   -0.62828E-04   -0.37573E-04   501   0.158E-01    0.176E-02
RMM:  11    -0.108405091595E+02    0.15102E-05   -0.86925E-05   544   0.812E-02    0.152E-03
RMM:  12    -0.108405118740E+02   -0.27145E-05   -0.23099E-05   518   0.432E-02    0.178E-03
RMM:  13    -0.108405119836E+02   -0.10963E-06   -0.48192E-06   444   0.196E-02
   1 F= -.10840512E+02 E0= -.10840512E+02  d E =-.145826E-11
