<?xml version="1.0" encoding="ISO-8859-1"?>
<modeling>
 <generator>
  <i name="program" type="string">vasp </i>
  <i name="version" type="string">6.6.0  </i>
  <i name="subversion" type="string">06Mar2026 (build Apr 30 2026 15:36:16) complex                        parallel </i>
  <i name="platform" type="string">LinuxIFC </i>
  <i name="date" type="string">2026 05 01 </i>
  <i name="time" type="string">10:49:49 </i>
 </generator>
 <incar>
  <i type="string" name="SYSTEM">Si_diamond_PBE_band_vasp</i>
  <i type="string" name="PREC">Accurate</i>
  <i type="string" name="ALGO">Fast</i>
  <i type="int" name="ICHARG">     2</i>
  <i type="int" name="NELM">   100</i>
  <i type="int" name="IBRION">    -1</i>
  <i name="EDIFF">      0.00000100</i>
  <i type="int" name="NSW">     0</i>
  <i name="ENCUT">    400.00000000</i>
  <i type="logical" name="LREAL"> F  </i>
  <i type="int" name="ISMEAR">     0</i>
  <i name="SIGMA">      0.05000000</i>
  <i type="logical" name="LWAVE"> F  </i>
  <i type="logical" name="LCHARG"> T  </i>
  <i type="string" name="GGA">PE</i>
 </incar>
 <primitive_cell>
  <structure name="primitive_cell" >
   <crystal>
    <varray name="basis" >
     <v>       0.00000000       2.71500000       2.71500000 </v>
     <v>       2.71500000       0.00000000       2.71500000 </v>
     <v>       2.71500000       2.71500000       0.00000000 </v>
    </varray>
    <i name="volume">     40.02575175 </i>
    <varray name="rec_basis" >
     <v>      -0.18416206       0.18416206       0.18416206 </v>
     <v>       0.18416206      -0.18416206       0.18416206 </v>
     <v>       0.18416206       0.18416206      -0.18416206 </v>
    </varray>
   </crystal>
   <varray name="positions" >
    <v>       0.00000000       0.00000000       0.00000000 </v>
    <v>       0.25000000       0.25000000       0.25000000 </v>
   </varray>
  </structure>
  <varray name="primitive_index" >
   <v type="int" >        1 </v>
   <v type="int" >        2 </v>
  </varray>
 </primitive_cell>
 <kpoints>
  <generation param="Gamma">
   <v type="int" name="divisions">       8        8        8 </v>
   <v name="usershift">      0.00000000       0.00000000       0.00000000 </v>
   <v name="genvec1">      0.12500000       0.00000000       0.00000000 </v>
   <v name="genvec2">      0.00000000       0.12500000      -0.00000000 </v>
   <v name="genvec3">     -0.00000000      -0.00000000       0.12500000 </v>
   <v name="shift">      0.00000000       0.00000000       0.00000000 </v>
  </generation>
  <varray name="kpointlist" >
   <v>       0.00000000       0.00000000       0.00000000 </v>
   <v>       0.12500000       0.00000000       0.00000000 </v>
   <v>       0.25000000       0.00000000       0.00000000 </v>
   <v>       0.37500000       0.00000000       0.00000000 </v>
   <v>       0.50000000       0.00000000       0.00000000 </v>
   <v>       0.12500000       0.12500000       0.00000000 </v>
   <v>       0.25000000       0.12500000       0.00000000 </v>
   <v>       0.37500000       0.12500000       0.00000000 </v>
   <v>       0.50000000       0.12500000       0.00000000 </v>
   <v>      -0.37500000       0.12500000       0.00000000 </v>
   <v>      -0.25000000       0.12500000       0.00000000 </v>
   <v>      -0.12500000       0.12500000       0.00000000 </v>
   <v>       0.25000000       0.25000000       0.00000000 </v>
   <v>       0.37500000       0.25000000       0.00000000 </v>
   <v>       0.50000000       0.25000000       0.00000000 </v>
   <v>      -0.37500000       0.25000000       0.00000000 </v>
   <v>      -0.25000000       0.25000000       0.00000000 </v>
   <v>       0.37500000       0.37500000       0.00000000 </v>
   <v>       0.50000000       0.37500000       0.00000000 </v>
   <v>      -0.37500000       0.37500000       0.00000000 </v>
   <v>       0.50000000       0.50000000       0.00000000 </v>
   <v>       0.37500000       0.25000000       0.12500000 </v>
   <v>       0.50000000       0.25000000       0.12500000 </v>
   <v>      -0.37500000       0.25000000       0.12500000 </v>
   <v>       0.50000000       0.37500000       0.12500000 </v>
   <v>      -0.37500000       0.37500000       0.12500000 </v>
   <v>      -0.25000000       0.37500000       0.12500000 </v>
   <v>      -0.37500000       0.50000000       0.12500000 </v>
   <v>      -0.25000000       0.50000000       0.25000000 </v>
  </varray>
  <varray name="weights" >
   <v>       0.00195312 </v>
   <v>       0.01562500 </v>
   <v>       0.01562500 </v>
   <v>       0.01562500 </v>
   <v>       0.00781250 </v>
   <v>       0.01171875 </v>
   <v>       0.04687500 </v>
   <v>       0.04687500 </v>
   <v>       0.04687500 </v>
   <v>       0.04687500 </v>
   <v>       0.04687500 </v>
   <v>       0.02343750 </v>
   <v>       0.01171875 </v>
   <v>       0.04687500 </v>
   <v>       0.04687500 </v>
   <v>       0.04687500 </v>
   <v>       0.02343750 </v>
   <v>       0.01171875 </v>
   <v>       0.04687500 </v>
   <v>       0.02343750 </v>
   <v>       0.00585938 </v>
   <v>       0.04687500 </v>
   <v>       0.09375000 </v>
   <v>       0.04687500 </v>
   <v>       0.04687500 </v>
   <v>       0.09375000 </v>
   <v>       0.04687500 </v>
   <v>       0.02343750 </v>
   <v>       0.01171875 </v>
  </varray>
 </kpoints>
 <parameters>
  <separator name="general" >
   <i type="string" name="SYSTEM">Si_diamond_PBE_band_vasp</i>
   <i type="logical" name="LCOMPAT"> F  </i>
  </separator>
  <separator name="electronic" >
   <i type="string" name="PREC">accura</i>
   <i name="ENMAX">    400.00000000</i>
   <i name="ENAUG">    322.06900000</i>
   <i name="EDIFF">      0.00000100</i>
   <i type="int" name="IALGO">    68</i>
   <i type="int" name="IWAVPR">    10</i>
   <i name="MAXDIS">      0.00000000</i>
   <i type="int" name="NBANDS">     8</i>
   <i type="int" name="NBANDSLOW">    -1</i>
   <i type="int" name="NBANDSHIGH">    -1</i>
   <i name="NELECT">      8.00000000</i>
   <i type="int" name="TURBO">     0</i>
   <i type="int" name="IRESTART">     0</i>
   <i type="int" name="NREBOOT">     0</i>
   <i type="int" name="NMIN">     0</i>
   <i name="EREF">      0.00000000</i>
   <separator name="electronic smearing" >
    <i type="int" name="ISMEAR">     0</i>
    <i name="SIGMA">      0.05000000</i>
    <i name="KSPACING">      0.50000000</i>
    <i type="logical" name="KGAMMA"> T  </i>
    <i type="logical" name="KBLOWUP"> T  </i>
   </separator>
   <separator name="electronic projectors" >
    <i type="logical" name="LREAL"> F  </i>
    <v name="ROPT">      0.00000000</v>
    <i type="int" name="LMAXPAW">  -100</i>
    <i type="int" name="LMAXMIX">     2</i>
    <i type="logical" name="NLSPLINE"> F  </i>
   </separator>
   <separator name="electronic startup" >
    <i type="int" name="ISTART">     0</i>
    <i type="int" name="ICHARG">     2</i>
    <i type="int" name="INIWAV">     1</i>
   </separator>
   <separator name="electronic spin" >
    <i type="int" name="ISPIN">     1</i>
    <i type="logical" name="LNONCOLLINEAR"> F  </i>
    <v name="MAGMOM">      1.00000000      1.00000000</v>
    <i name="NUPDOWN">     -1.00000000</i>
    <i type="logical" name="LSORBIT"> F  </i>
    <v name="SAXIS">      0.00000000      0.00000000      1.00000000</v>
    <i type="logical" name="LSPIRAL"> F  </i>
    <v name="QSPIRAL">      0.00000000      0.00000000      0.00000000</v>
    <i type="logical" name="LZEROZ"> F  </i>
   </separator>
   <separator name="electronic exchange-correlation" >
    <i type="logical" name="LASPH"> F  </i>
   </separator>
   <separator name="electronic convergence" >
    <i type="int" name="NELM">   100</i>
    <i type="int" name="NELMDL">     0</i>
    <i type="int" name="NELMIN">     2</i>
    <i name="ENINI">    400.00000000</i>
    <separator name="electronic convergence detail" >
     <i type="logical" name="LDIAG"> T  </i>
     <i type="logical" name="LSUBROT"> F  </i>
     <i type="logical" name="LROBUST"> F  </i>
     <i type="int" name="ISEARCH">     0</i>
     <i name="WEIMIN">      0.00000000</i>
     <i name="EBREAK">      0.00000003</i>
     <i name="DEPER">      0.30000000</i>
     <i type="int" name="NRMM">     4</i>
     <i name="TIME">      0.40000000</i>
    </separator>
   </separator>
   <separator name="electronic mixer" >
    <i name="AMIX">      0.40000000</i>
    <i name="BMIX">      1.00000000</i>
    <i name="AMIN">      0.10000000</i>
    <i name="AMIX_MAG">      1.60000000</i>
    <i name="BMIX_MAG">      1.00000000</i>
    <separator name="electronic mixer details" >
     <i type="int" name="IMIX">     4</i>
     <i type="logical" name="MIXFIRST"> F  </i>
     <i type="int" name="MAXMIX">   -45</i>
     <i name="WC">    100.00000000</i>
     <i type="int" name="INIMIX">     1</i>
     <i type="int" name="MIXPRE">     1</i>
     <i type="int" name="MREMOVE">     5</i>
    </separator>
   </separator>
   <separator name="electronic dipolcorrection" >
    <i type="logical" name="LDIPOL"> F  </i>
    <i type="logical" name="LMONO"> F  </i>
    <i type="int" name="IDIPOL">     0</i>
    <i name="EPSILON">      1.00000000</i>
    <v name="DIPOL">   -100.00000000   -100.00000000   -100.00000000</v>
    <i name="EFIELD">      0.00000000</i>
    <i type="logical" name="LVACPOTAV"> F  </i>
   </separator>
  </separator>
  <separator name="grids" >
   <i type="int" name="NGX">    28</i>
   <i type="int" name="NGY">    28</i>
   <i type="int" name="NGZ">    28</i>
   <i type="int" name="NGXF">    56</i>
   <i type="int" name="NGYF">    56</i>
   <i type="int" name="NGZF">    56</i>
   <i type="logical" name="ADDGRID"> F  </i>
  </separator>
  <separator name="ionic" >
   <i type="int" name="NSW">     0</i>
   <i type="int" name="IBRION">    -1</i>
   <i type="int" name="MDALGO">     0</i>
   <i type="int" name="ISIF">     2</i>
   <i name="PSTRESS">      0.00000000</i>
   <i name="EDIFFG">      0.00001000</i>
   <i type="int" name="NFREE">     0</i>
   <i name="POTIM">      0.50000000</i>
   <i name="SMASS">     -3.00000000</i>
   <i name="SCALEE">      1.00000000</i>
  </separator>
  <separator name="ionic md" >
   <i name="TEBEG">      0.00010000</i>
   <i name="TEEND">      0.00010000</i>
   <i type="int" name="NBLOCK">     1</i>
   <i type="int" name="KBLOCK">     1</i>
   <i type="int" name="NPACO">   256</i>
   <i name="APACO">     10.00000000</i>
  </separator>
  <separator name="symmetry" >
   <i type="int" name="ISYM">     2</i>
   <i name="SYMPREC">      0.00001000</i>
  </separator>
  <separator name="dos" >
   <i type="int" name="LORBIT">     0</i>
   <v name="RWIGS">     -1.00000000</v>
   <i type="int" name="NEDOS">   301</i>
   <i name="EMIN">     10.00000000</i>
   <i name="EMAX">    -10.00000000</i>
   <i name="EFERMI">      0.00000000</i>
  </separator>
  <separator name="writing" >
   <i type="int" name="NWRITE">     2</i>
   <i type="logical" name="LWAVE"> F  </i>
   <i type="logical" name="LDOWNSAMPLE"> F  </i>
   <i type="logical" name="LCHARG"> T  </i>
   <i type="logical" name="LPARD"> F  </i>
   <i type="logical" name="LVTOT"> F  </i>
   <i type="logical" name="LVHAR"> F  </i>
   <i type="logical" name="LELF"> F  </i>
   <i type="logical" name="LOPTICS"> F  </i>
   <v name="STM">      0.00000000      0.00000000      0.00000000      0.00000000      0.00000000      0.00000000      0.00000000</v>
  </separator>
  <separator name="performance" >
   <i type="int" name="NPAR">     1</i>
   <i type="int" name="NSIM">     4</i>
   <i type="int" name="NBLK">    -1</i>
   <i type="logical" name="LPLANE"> T  </i>
   <i type="logical" name="LSCALAPACK"> T  </i>
   <i type="logical" name="LSCAAWARE"> F  </i>
   <i type="logical" name="LSCALU"> F  </i>
   <i type="logical" name="LASYNC"> F  </i>
   <i type="logical" name="LORBITALREAL"> F  </i>
  </separator>
  <separator name="miscellaneous" >
   <i type="int" name="IDIOT">     3</i>
   <i type="int" name="PHON_NSTRUCT">    -1</i>
   <i type="logical" name="LMUSIC"> F  </i>
   <v name="POMASS">     28.08500000</v>
   <v name="DARWINR">      0.00000000</v>
   <v name="DARWINV">      1.00000000</v>
   <i type="logical" name="LCORR"> T  </i>
  </separator>
  <i type="logical" name="GGA_COMPAT"> T  </i>
  <i type="logical" name="LBERRY"> F  </i>
  <i type="int" name="ICORELEVEL">     0</i>
  <i type="logical" name="LDAU"> F  </i>
  <i type="int" name="I_CONSTRAINED_M">     0</i>
  <separator name="electronic exchange-correlation" >
   <i type="string" name="GGA    ">PE</i>
   <i type="string" name="XC_C">1</i>
   <i type="int" name="VOSKOWN">     0</i>
   <i type="logical" name="LHFCALC"> F  </i>
   <i type="string" name="PRECFOCK"></i>
   <i type="logical" name="LSYMGRAD"> F  </i>
   <i type="logical" name="LHFONE"> F  </i>
   <i type="logical" name="LRHFCALC"> F  </i>
   <i type="logical" name="LTHOMAS"> F  </i>
   <i type="logical" name="LMODELHF"> F  </i>
   <i type="logical" name="LFOCKACE"> F  </i>
   <i name="ENCUT4O">     -1.00000000</i>
   <i type="int" name="EXXOEP">     0</i>
   <i type="int" name="FOURORBIT">     0</i>
   <i name="AEXX">      0.00000000</i>
   <i name="BEXX">      1.00000000</i>
   <i name="HFALPHA">      0.00000000</i>
   <i name="MCALPHA">      0.00000000</i>
   <i name="ALDAX">      1.00000000</i>
   <i name="BLDAX">      0.00000000</i>
   <i name="AGGAX">      1.00000000</i>
   <i name="BGGAX">      0.00000000</i>
   <i name="AMGGAX">      1.00000000</i>
   <i name="ALDAC">      1.00000000</i>
   <i name="AGGAC">      1.00000000</i>
   <i name="AMGGAC">      1.00000000</i>
   <i type="int" name="NKREDX">     1</i>
   <i type="int" name="NKREDY">     1</i>
   <i type="int" name="NKREDZ">     1</i>
   <i type="logical" name="SHIFTRED"> F  </i>
   <i type="logical" name="ODDONLY"> F  </i>
   <i type="logical" name="EVENONLY"> F  </i>
   <i type="int" name="LMAXFOCK">     0</i>
   <i type="int" name="NMAXFOCKAE">     0</i>
   <i type="logical" name="LFOCKAEDFT"> F  </i>
   <i name="HFSCREEN">      0.00000000</i>
   <i name="HFSCREENC">      0.00000000</i>
   <i type="int" name="NBANDSGWLOW">     0</i>
  </separator>
  <separator name="vdW DFT" >
   <i type="logical" name="LUSE_VDW"> F  </i>
   <i type="int" name="IVDW_NL">    -1</i>
   <i type="logical" name="LSPIN_VDW"> F  </i>
   <i name="ZAB_VDW">     -0.84910000</i>
   <i name="GAMMA_VDW">      1.39626340</i>
   <i name="ALPHA_VDW">      0.00000000</i>
   <i name="PARAM1">      0.12340000</i>
   <i name="PARAM2">      1.00000000</i>
   <i name="BPARAM">      6.30000000</i>
   <i name="CPARAM">      0.00930000</i>
  </separator>
  <separator name="model GW" >
   <i type="int" name="MODEL_GW">     0</i>
   <i name="MODEL_EPS0">     12.00772552</i>
   <i name="MODEL_ALPHA">      1.00000000</i>
  </separator>
  <separator name="linear response parameters" >
   <i type="logical" name="LEPSILON"> F  </i>
   <i type="logical" name="LRPA"> F  </i>
   <i type="logical" name="LNABLA"> F  </i>
   <i type="logical" name="LVEL"> F  </i>
   <i name="CSHIFT">      0.10000000</i>
   <i name="OMEGAMAX">     -1.00000000</i>
   <i name="DEG_THRESHOLD">      0.00200000</i>
   <i name="RTIME">     -0.10000000</i>
   <i name="WPLASMAI">      0.00000000</i>
   <v name="DFIELD">      0.00000000      0.00000000      0.00000000</v>
   <v name="WPLASMA">      0.00000000      0.00000000      0.00000000      0.00000000      0.00000000      0.00000000      0.00000000      0.00000000      0.00000000</v>
  </separator>
  <separator name="orbital magnetization" >
   <i type="logical" name="NUCIND"> F  </i>
   <v name="MAGPOS">      0.00000000      0.00000000      0.00000000</v>
   <i type="logical" name="LNICSALL"> F  </i>
   <i type="logical" name="ORBITALMAG"> F  </i>
   <i type="logical" name="LMAGBLOCH"> F  </i>
   <i type="logical" name="LCHIMAG"> F  </i>
   <i type="logical" name="LGAUGE"> T  </i>
   <i type="int" name="MAGATOM">     0</i>
   <v name="MAGDIPOL">      0.00000000      0.00000000      0.00000000</v>
   <v name="AVECCONST">      0.00000000      0.00000000      0.00000000</v>
  </separator>
  <separator name="response functions" >
   <i type="logical" name="LALL_IN_ONE"> F  </i>
   <i type="int" name="IALL_IN_ONE">    -1</i>
   <i type="int" name="NBANDS_WAVE">    -1</i>
   <i type="logical" name="LFINITE_TEMPERATURE"> F  </i>
   <i type="logical" name="LADDER"> F  </i>
   <i type="logical" name="LRPAFORCE"> F  </i>
   <i type="logical" name="LFXC"> F  </i>
   <i type="logical" name="LHARTREE"> T  </i>
   <i type="int" name="IBSE">     2</i>
   <v type="int" name="KPOINT">    -1     0     0     0</v>
   <i type="logical" name="LTCTC"> F  </i>
   <i type="logical" name="LTCTE"> F  </i>
   <i type="logical" name="LTETE"> F  </i>
   <i type="logical" name="LTRIPLET"> F  </i>
   <i type="logical" name="LFXCEPS"> F  </i>
   <i type="logical" name="LFXHEG"> F  </i>
   <i type="int" name="NATURALO">     2</i>
   <i type="logical" name="LHOLEGF"> F  </i>
   <i type="logical" name="L2ORDER"> F  </i>
   <i type="logical" name="LDMP1"> F  </i>
   <i type="logical" name="LMP2LT"> F  </i>
   <i type="logical" name="LSMP2LT"> F  </i>
   <i type="logical" name="LGWLF"> F  </i>
   <i name="ENCUTGW">     -1.60000002</i>
   <i name="ENCUTGWSOFT">     -1.60000002</i>
   <i name="ENCUTLF">     -1.00000000</i>
   <i type="logical" name="ESF_SPLINES"> F  </i>
   <i name="ESF_CONV">      0.01000000</i>
   <i type="int" name="ESF_NINTER">    15</i>
   <i type="int" name="LMAXMP2">    -1</i>
   <i name="SCISSOR">      0.00000000</i>
   <i type="int" name="NOMEGA">     0</i>
   <i type="int" name="NOMEGAR">     0</i>
   <i type="int" name="NBANDSGW">    -1</i>
   <i type="int" name="NBANDSO">    -1</i>
   <i type="int" name="NBANDSV">    -1</i>
   <i type="int" name="NELMGW">     1</i>
   <i type="int" name="NELMHF">     1</i>
   <i type="int" name="DIM">     3</i>
   <i type="int" name="IESPILON">     4</i>
   <i type="int" name="ANTIRES">     0</i>
   <i name="OMEGAMAX">    -30.00000000</i>
   <i name="OMEGAMIN">    -30.00000000</i>
   <i name="OMEGATL">   -200.00000000</i>
   <i type="int" name="OMEGAGRID">     0</i>
   <i name="CSHIFT">     -0.10000000</i>
   <i type="logical" name="LSELFENERGY"> F  </i>
   <i type="logical" name="LSPECTRAL"> F  </i>
   <i type="logical" name="LSPECTRALGW"> F  </i>
   <i type="logical" name="LSINGLES"> F  </i>
   <i type="logical" name="LFERMIGW"> F  </i>
   <i type="logical" name="ODDONLYGW"> F  </i>
   <i type="logical" name="EVENONLYGW"> F  </i>
   <i type="int" name="NKREDLFX">     1</i>
   <i type="int" name="NKREDLFY">     1</i>
   <i type="int" name="NKREDLFZ">     1</i>
   <i type="int" name="MAXMEM">  2800</i>
   <i type="int" name="TELESCOPE">     0</i>
   <i type="int" name="NTAUPAR">    -1</i>
   <i type="int" name="NOMEGAPAR">    -1</i>
   <i name="DAMP_NEWTON">      0.80000001</i>
   <i type="logical" name="LFOCKSTD"> F  </i>
   <i type="logical" name="LCRPA"> F  </i>
   <i type="logical" name="LTWO_CENTRE"> F  </i>
   <i type="logical" name="LPCRPA"> T  </i>
   <i type="logical" name="LPCRPA_REV"> F  </i>
   <i type="logical" name="LDISENTANGLED"> F  </i>
   <i type="logical" name="LWCRPA"> F  </i>
   <i type="logical" name="LSCRPA"> F  </i>
   <i name="MSDGW_F">     -1.00000000</i>
   <i type="int" name="MSDGW_NS">    -1</i>
   <i type="int" name="MSDGW_NP">    -1</i>
   <i type="int" name="MSDGW_NXI">     2</i>
   <i type="int" name="MSDGW_SEED">  4357</i>
   <i name="LAMBDA">      1.00000000</i>
  </separator>
  <separator name="External order field" >
   <i name="OFIELD_KAPPA">      0.00000000</i>
   <v name="OFIELD_K">      0.00000000      0.00000000      0.00000000</v>
   <i name="OFIELD_Q6_NEAR">      0.00000000</i>
   <i name="OFIELD_Q6_FAR">      0.00000000</i>
   <i name="OFIELD_A">      0.00000000</i>
  </separator>
  <separator name="optional k-points parameters" >
   <i type="int" name="KPOINTS_OPT_MODE">     1</i>
   <i type="logical" name="LKPOINTS_OPT"> F  </i>
  </separator>
 </parameters>
 <atominfo>
  <atoms>       2 </atoms>
  <types>       1 </types>
  <array name="atoms" >
   <dimension dim="1">ion</dimension>
   <field type="string">element</field>
   <field type="int">atomtype</field>
   <set>
    <rc><c>Si</c><c>   1</c></rc>
    <rc><c>Si</c><c>   1</c></rc>
   </set>
  </array>
  <array name="atomtypes" >
   <dimension dim="1">type</dimension>
   <field type="int">atomspertype</field>
   <field type="string">element</field>
   <field>mass</field>
   <field>valence</field>
   <field type="string">pseudopotential</field>
   <set>
    <rc><c>   2</c><c>Si</c><c>     28.08500000</c><c>      4.00000000</c><c> PAW_PBE Si 05Jan2001                   </c></rc>
   </set>
  </array>
 </atominfo>
 <structure name="initialpos" >
  <crystal>
   <varray name="basis" >
    <v>       0.00000000       2.71500000       2.71500000 </v>
    <v>       2.71500000       0.00000000       2.71500000 </v>
    <v>       2.71500000       2.71500000       0.00000000 </v>
   </varray>
   <i name="volume">     40.02575175 </i>
   <varray name="rec_basis" >
    <v>      -0.18416206       0.18416206       0.18416206 </v>
    <v>       0.18416206      -0.18416206       0.18416206 </v>
    <v>       0.18416206       0.18416206      -0.18416206 </v>
   </varray>
  </crystal>
  <varray name="positions" >
   <v>       0.00000000       0.00000000       0.00000000 </v>
   <v>       0.25000000       0.25000000       0.25000000 </v>
  </varray>
 </structure>
 <calculation>
  <scstep>
   <time name="dav">    0.05    0.05</time>
   <time name="total">    0.07    0.07</time>
   <energy>
    <i name="alphaZ">      3.36414203 </i>
    <i name="ewald">   -228.56352493 </i>
    <i name="hartreedc">    -11.00108243 </i>
    <i name="XCdc">    -18.60186955 </i>
    <i name="pawpsdc">     65.95520812 </i>
    <i name="pawaedc">    -30.76852678 </i>
    <i name="eentropy">     -0.00266197 </i>
    <i name="bandstr">     18.77126592 </i>
    <i name="atom">    206.13149246 </i>
    <i name="e_fr_energy">      5.28444286 </i>
    <i name="e_wo_entrp">      5.28710483 </i>
    <i name="e_0_energy">      5.28577385 </i>
   </energy>
  </scstep>
  <scstep>
   <time name="dav">    0.07    0.07</time>
   <time name="total">    0.07    0.07</time>
   <energy>
    <i name="e_fr_energy">    -10.81970156 </i>
    <i name="e_wo_entrp">    -10.81970156 </i>
    <i name="e_0_energy">    -10.81970156 </i>
   </energy>
  </scstep>
  <scstep>
   <time name="dav">    0.05    0.06</time>
   <time name="total">    0.06    0.06</time>
   <energy>
    <i name="e_fr_energy">    -11.02054407 </i>
    <i name="e_wo_entrp">    -11.02054407 </i>
    <i name="e_0_energy">    -11.02054407 </i>
   </energy>
  </scstep>
  <scstep>
   <time name="dav">    0.07    0.07</time>
   <time name="total">    0.07    0.07</time>
   <energy>
    <i name="e_fr_energy">    -11.02156294 </i>
    <i name="e_wo_entrp">    -11.02156294 </i>
    <i name="e_0_energy">    -11.02156294 </i>
   </energy>
  </scstep>
  <scstep>
   <time name="dav">    0.05    0.05</time>
   <time name="total">    0.06    0.06</time>
   <energy>
    <i name="e_fr_energy">    -11.02156345 </i>
    <i name="e_wo_entrp">    -11.02156345 </i>
    <i name="e_0_energy">    -11.02156345 </i>
   </energy>
  </scstep>
  <scstep>
   <time name="diag">    0.02    0.02</time>
   <time name="diis">    0.04    0.04</time>
   <time name="orth">    0.00    0.00</time>
   <time name="total">    0.08    0.08</time>
   <energy>
    <i name="e_fr_energy">    -10.89600545 </i>
    <i name="e_wo_entrp">    -10.89600545 </i>
    <i name="e_0_energy">    -10.89600545 </i>
   </energy>
  </scstep>
  <scstep>
   <time name="diag">    0.01    0.01</time>
   <time name="diis">    0.04    0.04</time>
   <time name="orth">    0.00    0.00</time>
   <time name="total">    0.08    0.08</time>
   <energy>
    <i name="e_fr_energy">    -10.83843218 </i>
    <i name="e_wo_entrp">    -10.83843218 </i>
    <i name="e_0_energy">    -10.83843218 </i>
   </energy>
  </scstep>
  <scstep>
   <time name="diag">    0.01    0.01</time>
   <time name="diis">    0.04    0.04</time>
   <time name="orth">    0.00    0.00</time>
   <time name="total">    0.08    0.08</time>
   <energy>
    <i name="e_fr_energy">    -10.84029159 </i>
    <i name="e_wo_entrp">    -10.84029159 </i>
    <i name="e_0_energy">    -10.84029159 </i>
   </energy>
  </scstep>
  <scstep>
   <time name="diag">    0.01    0.01</time>
   <time name="diis">    0.04    0.04</time>
   <time name="orth">    0.00    0.00</time>
   <time name="total">    0.08    0.08</time>
   <energy>
    <i name="e_fr_energy">    -10.84044784 </i>
    <i name="e_wo_entrp">    -10.84044784 </i>
    <i name="e_0_energy">    -10.84044784 </i>
   </energy>
  </scstep>
  <scstep>
   <time name="diag">    0.01    0.01</time>
   <time name="diis">    0.04    0.04</time>
   <time name="orth">    0.00    0.00</time>
   <time name="total">    0.08    0.08</time>
   <energy>
    <i name="e_fr_energy">    -10.84051067 </i>
    <i name="e_wo_entrp">    -10.84051067 </i>
    <i name="e_0_energy">    -10.84051067 </i>
   </energy>
  </scstep>
  <scstep>
   <time name="diag">    0.01    0.01</time>
   <time name="diis">    0.05    0.05</time>
   <time name="orth">    0.00    0.00</time>
   <time name="total">    0.08    0.08</time>
   <energy>
    <i name="e_fr_energy">    -10.84050916 </i>
    <i name="e_wo_entrp">    -10.84050916 </i>
    <i name="e_0_energy">    -10.84050916 </i>
   </energy>
  </scstep>
  <scstep>
   <time name="diag">    0.01    0.01</time>
   <time name="diis">    0.04    0.04</time>
   <time name="orth">    0.00    0.00</time>
   <time name="total">    0.08    0.08</time>
   <energy>
    <i name="e_fr_energy">    -10.84051187 </i>
    <i name="e_wo_entrp">    -10.84051187 </i>
    <i name="e_0_energy">    -10.84051187 </i>
   </energy>
  </scstep>
  <scstep>
   <time name="diag">    0.01    0.01</time>
   <time name="diis">    0.04    0.04</time>
   <time name="orth">    0.00    0.00</time>
   <time name="total">    0.07    0.07</time>
   <energy>
    <i name="alphaZ">      3.36414203 </i>
    <i name="ewald">   -228.56352493 </i>
    <i name="hartreedc">    -14.93432476 </i>
    <i name="XCdc">    -17.95943362 </i>
    <i name="pawpsdc">     74.31216077 </i>
    <i name="pawaedc">    -39.35038942 </i>
    <i name="eentropy">     -0.00000000 </i>
    <i name="bandstr">      6.15936549 </i>
    <i name="atom">    206.13149246 </i>
    <i name="e_fr_energy">    -10.84051198 </i>
    <i name="e_wo_entrp">    -10.84051198 </i>
    <i name="e_0_energy">    -10.84051198 </i>
   </energy>
  </scstep>
  <structure>
   <crystal>
    <varray name="basis" >
     <v>       0.00000000       2.71500000       2.71500000 </v>
     <v>       2.71500000       0.00000000       2.71500000 </v>
     <v>       2.71500000       2.71500000       0.00000000 </v>
    </varray>
    <i name="volume">     40.02575175 </i>
    <varray name="rec_basis" >
     <v>      -0.18416206       0.18416206       0.18416206 </v>
     <v>       0.18416206      -0.18416206       0.18416206 </v>
     <v>       0.18416206       0.18416206      -0.18416206 </v>
    </varray>
   </crystal>
   <varray name="positions" >
    <v>       0.00000000       0.00000000       0.00000000 </v>
    <v>       0.25000000       0.25000000       0.25000000 </v>
   </varray>
  </structure>
  <varray name="forces" >
   <v>      -0.00000000      -0.00000000      -0.00000000 </v>
   <v>       0.00000000       0.00000000       0.00000000 </v>
  </varray>
  <varray name="stress" >
   <v>      19.68006584      -0.00000000       0.00000000 </v>
   <v>      -0.00000000      19.68006584       0.00000000 </v>
   <v>       0.00000000       0.00000000      19.68006584 </v>
  </varray>
  <energy>
   <i name="e_fr_energy">    -10.84051198 </i>
   <i name="e_wo_entrp">    -10.84051198 </i>
   <i name="e_0_energy">    -10.84051198 </i>
  </energy>
  <time name="totalsc">    1.14    1.15</time>
  <eigenvalues>
   <array>
    <dimension dim="1">band</dimension>
    <dimension dim="2">kpoint</dimension>
    <dimension dim="3">spin</dimension>
    <field>eigene</field>
    <field>occ</field>
    <set>
     <set comment="spin 1">
      <set comment="kpoint 1">
       <r>   -6.1285    1.0000 </r>
       <r>    5.8321    1.0000 </r>
       <r>    5.8321    1.0000 </r>
       <r>    5.8321    1.0000 </r>
       <r>    8.3972    0.0000 </r>
       <r>    8.3972    0.0000 </r>
       <r>    8.3972    0.0000 </r>
       <r>    9.2104    0.0000 </r>
      </set>
      <set comment="kpoint 2">
       <r>   -5.9243    1.0000 </r>
       <r>    4.2350    1.0000 </r>
       <r>    5.5434    1.0000 </r>
       <r>    5.5434    1.0000 </r>
       <r>    8.3382    0.0000 </r>
       <r>    8.8216    0.0000 </r>
       <r>    8.8216    0.0000 </r>
       <r>   10.5528    0.0000 </r>
      </set>
      <set comment="kpoint 3">
       <r>   -5.3285    1.0000 </r>
       <r>    1.9070    1.0000 </r>
       <r>    5.0731    1.0000 </r>
       <r>    5.0731    1.0000 </r>
       <r>    7.8653    0.0000 </r>
       <r>    9.3393    0.0000 </r>
       <r>    9.3393    0.0000 </r>
       <r>   12.7593    0.0000 </r>
      </set>
      <set comment="kpoint 4">
       <r>   -4.4344    1.0000 </r>
       <r>   -0.1132    1.0000 </r>
       <r>    4.7464    1.0000 </r>
       <r>    4.7464    1.0000 </r>
       <r>    7.5019    0.0000 </r>
       <r>    9.2834    0.0000 </r>
       <r>    9.2834    0.0000 </r>
       <r>   13.7179    0.0000 </r>
      </set>
      <set comment="kpoint 5">
       <r>   -3.7961    1.0000 </r>
       <r>   -1.1359    1.0000 </r>
       <r>    4.6347    1.0000 </r>
       <r>    4.6347    1.0000 </r>
       <r>    7.3740    0.0000 </r>
       <r>    9.1723    0.0000 </r>
       <r>    9.1723    0.0000 </r>
       <r>   13.5624    0.0000 </r>
      </set>
      <set comment="kpoint 6">
       <r>   -5.8554    1.0000 </r>
       <r>    4.5006    1.0000 </r>
       <r>    5.0259    1.0000 </r>
       <r>    5.0259    1.0000 </r>
       <r>    7.8454    0.0000 </r>
       <r>    9.5376    0.0000 </r>
       <r>    9.5376    0.0000 </r>
       <r>   10.2394    0.0000 </r>
      </set>
      <set comment="kpoint 7">
       <r>   -5.3866    1.0000 </r>
       <r>    2.6103    1.0000 </r>
       <r>    4.5145    1.0000 </r>
       <r>    4.5909    1.0000 </r>
       <r>    7.9815    0.0000 </r>
       <r>    9.5452    0.0000 </r>
       <r>   10.3019    0.0000 </r>
       <r>   10.5834    0.0000 </r>
      </set>
      <set comment="kpoint 8">
       <r>   -4.5713    1.0000 </r>
       <r>    0.5494    1.0000 </r>
       <r>    3.9996    1.0000 </r>
       <r>    4.2466    1.0000 </r>
       <r>    8.0812    0.0000 </r>
       <r>    9.4767    0.0000 </r>
       <r>   10.2973    0.0000 </r>
       <r>   11.3006    0.0000 </r>
      </set>
      <set comment="kpoint 9">
       <r>   -3.7095    1.0000 </r>
       <r>   -0.9144    1.0000 </r>
       <r>    3.5540    1.0000 </r>
       <r>    4.2712    1.0000 </r>
       <r>    8.0285    0.0000 </r>
       <r>    9.3486    0.0000 </r>
       <r>    9.9329    0.0000 </r>
       <r>   13.2049    0.0000 </r>
      </set>
      <set comment="kpoint 10">
       <r>   -3.9541    1.0000 </r>
       <r>   -0.5436    1.0000 </r>
       <r>    3.3722    1.0000 </r>
       <r>    4.5677    1.0000 </r>
       <r>    8.1957    0.0000 </r>
       <r>    9.4564    0.0000 </r>
       <r>    9.7011    0.0000 </r>
       <r>   13.7535    0.0000 </r>
      </set>
      <set comment="kpoint 11">
       <r>   -4.8778    1.0000 </r>
       <r>    1.2088    1.0000 </r>
       <r>    3.5228    1.0000 </r>
       <r>    5.0591    1.0000 </r>
       <r>    8.5551    0.0000 </r>
       <r>    9.5109    0.0000 </r>
       <r>    9.6894    0.0000 </r>
       <r>   12.1352    0.0000 </r>
      </set>
      <set comment="kpoint 12">
       <r>   -5.5879    1.0000 </r>
       <r>    3.1505    1.0000 </r>
       <r>    4.2045    1.0000 </r>
       <r>    5.5398    1.0000 </r>
       <r>    8.8794    0.0000 </r>
       <r>    8.9582    0.0000 </r>
       <r>    9.1928    0.0000 </r>
       <r>   11.3880    0.0000 </r>
      </set>
      <set comment="kpoint 13">
       <r>   -5.0461    1.0000 </r>
       <r>    2.3181    1.0000 </r>
       <r>    3.9434    1.0000 </r>
       <r>    3.9434    1.0000 </r>
       <r>    6.9632    0.0000 </r>
       <r>    8.9659    0.0000 </r>
       <r>   11.5913    0.0000 </r>
       <r>   11.5913    0.0000 </r>
      </set>
      <set comment="kpoint 14">
       <r>   -4.3358    1.0000 </r>
       <r>    0.8941    1.0000 </r>
       <r>    3.1629    1.0000 </r>
       <r>    3.6254    1.0000 </r>
       <r>    7.1836    0.0000 </r>
       <r>    8.7272    0.0000 </r>
       <r>   11.8333    0.0000 </r>
       <r>   12.1028    0.0000 </r>
      </set>
      <set comment="kpoint 15">
       <r>   -3.4094    1.0000 </r>
       <r>   -0.5483    1.0000 </r>
       <r>    2.2994    1.0000 </r>
       <r>    3.6286    1.0000 </r>
       <r>    7.3525    0.0000 </r>
       <r>   10.2806    0.0000 </r>
       <r>   11.5819    0.0000 </r>
       <r>   11.7524    0.0000 </r>
      </set>
      <set comment="kpoint 16">
       <r>   -3.2050    1.0000 </r>
       <r>   -0.8068    1.0000 </r>
       <r>    1.8407    1.0000 </r>
       <r>    3.9471    1.0000 </r>
       <r>    7.6773    0.0000 </r>
       <r>   11.2987    0.0000 </r>
       <r>   11.3138    0.0000 </r>
       <r>   12.7951    0.0000 </r>
      </set>
      <set comment="kpoint 17">
       <r>   -4.0839    1.0000 </r>
       <r>    0.3544    1.0000 </r>
       <r>    2.0807    1.0000 </r>
       <r>    4.5055    1.0000 </r>
       <r>    8.2838    0.0000 </r>
       <r>   10.6243    0.0000 </r>
       <r>   10.9657    0.0000 </r>
       <r>   11.9853    0.0000 </r>
      </set>
      <set comment="kpoint 18">
       <r>   -3.7331    1.0000 </r>
       <r>    0.0896    1.0000 </r>
       <r>    3.2271    1.0000 </r>
       <r>    3.2271    1.0000 </r>
       <r>    6.4476    0.0000 </r>
       <r>    7.3717    0.0000 </r>
       <r>   13.8761    0.0000 </r>
       <r>   13.8761    0.0000 </r>
      </set>
      <set comment="kpoint 19">
       <r>   -2.8354    1.0000 </r>
       <r>   -0.9957    1.0000 </r>
       <r>    2.3977    1.0000 </r>
       <r>    3.1510    1.0000 </r>
       <r>    6.7267    0.0000 </r>
       <r>    7.7996    0.0000 </r>
       <r>   14.1010    0.0000 </r>
       <r>   14.1911    0.0000 </r>
      </set>
      <set comment="kpoint 20">
       <r>   -2.3964    1.0000 </r>
       <r>   -1.3924    1.0000 </r>
       <r>    1.5314    1.0000 </r>
       <r>    3.4085    1.0000 </r>
       <r>    7.0363    0.0000 </r>
       <r>    9.9612    0.0000 </r>
       <r>   13.3053    0.0000 </r>
       <r>   13.8479    0.0000 </r>
      </set>
      <set comment="kpoint 21">
       <r>   -1.9826    1.0000 </r>
       <r>   -1.9826    1.0000 </r>
       <r>    2.9815    1.0000 </r>
       <r>    2.9815    1.0000 </r>
       <r>    6.5417    0.0000 </r>
       <r>    6.5417    0.0000 </r>
       <r>   15.9512    0.0000 </r>
       <r>   15.9513    0.0000 </r>
      </set>
      <set comment="kpoint 22">
       <r>   -4.7985    1.0000 </r>
       <r>    1.5453    1.0000 </r>
       <r>    3.1203    1.0000 </r>
       <r>    4.4057    1.0000 </r>
       <r>    8.2809    0.0000 </r>
       <r>    9.7388    0.0000 </r>
       <r>   10.0255    0.0000 </r>
       <r>   11.3358    0.0000 </r>
      </set>
      <set comment="kpoint 23">
       <r>   -3.9099    1.0000 </r>
       <r>   -0.0070    1.0000 </r>
       <r>    2.5126    1.0000 </r>
       <r>    3.9041    1.0000 </r>
       <r>    8.7108    0.0000 </r>
       <r>    9.3878    0.0000 </r>
       <r>   10.8532    0.0000 </r>
       <r>   11.7700    0.0000 </r>
      </set>
      <set comment="kpoint 24">
       <r>   -3.2572    1.0000 </r>
       <r>   -0.9524    1.0000 </r>
       <r>    2.3839    1.0000 </r>
       <r>    3.6744    1.0000 </r>
       <r>    8.9020    0.0000 </r>
       <r>    8.9641    0.0000 </r>
       <r>   11.7456    0.0000 </r>
       <r>   12.9517    0.0000 </r>
      </set>
      <set comment="kpoint 25">
       <r>   -3.5344    1.0000 </r>
       <r>   -0.1294    1.0000 </r>
       <r>    2.4713    1.0000 </r>
       <r>    3.0742    1.0000 </r>
       <r>    7.7799    0.0000 </r>
       <r>    8.4788    0.0000 </r>
       <r>   11.5889    0.0000 </r>
       <r>   13.8252    0.0000 </r>
      </set>
      <set comment="kpoint 26">
       <r>   -2.6592    1.0000 </r>
       <r>   -1.0976    1.0000 </r>
       <r>    1.7729    1.0000 </r>
       <r>    2.8735    1.0000 </r>
       <r>    8.2211    0.0000 </r>
       <r>   10.1132    0.0000 </r>
       <r>   11.1122    0.0000 </r>
       <r>   13.2749    0.0000 </r>
      </set>
      <set comment="kpoint 27">
       <r>   -3.0100    1.0000 </r>
       <r>   -0.7343    1.0000 </r>
       <r>    1.6060    1.0000 </r>
       <r>    3.2495    1.0000 </r>
       <r>    8.7011    0.0000 </r>
       <r>   10.3776    0.0000 </r>
       <r>   11.0491    0.0000 </r>
       <r>   12.8636    0.0000 </r>
      </set>
      <set comment="kpoint 28">
       <r>   -1.9045    1.0000 </r>
       <r>   -1.9045    1.0000 </r>
       <r>    2.4168    1.0000 </r>
       <r>    2.4168    1.0000 </r>
       <r>    7.8030    0.0000 </r>
       <r>    7.8030    0.0000 </r>
       <r>   13.6820    0.0000 </r>
       <r>   13.6820    0.0000 </r>
      </set>
      <set comment="kpoint 29">
       <r>   -1.8185    1.0000 </r>
       <r>   -1.8185    1.0000 </r>
       <r>    1.9806    1.0000 </r>
       <r>    1.9806    1.0000 </r>
       <r>   10.1005    0.0000 </r>
       <r>   10.1005    0.0000 </r>
       <r>   10.8391    0.0000 </r>
       <r>   10.8391    0.0000 </r>
      </set>
     </set>
    </set>
   </array>
  </eigenvalues>
  <separator name="orbital magnetization" >
   <v name="MAGDIPOLOUT">      0.00000000      0.00000000      0.00000000</v>
  </separator>
  <dos>
   <i name="efermi">      6.04738944 </i>
   <total>
    <array>
     <dimension dim="1">gridpoints</dimension>
     <dimension dim="2">spin</dimension>
     <field>energy</field>
     <field>total</field>
     <field>integrated</field>
     <set>
      <set comment="spin 1">
       <r>    -7.2325     0.0000     0.0000 </r>
       <r>    -7.1515     0.0000     0.0000 </r>
       <r>    -7.0706     0.0000     0.0000 </r>
       <r>    -6.9896     0.0000     0.0000 </r>
       <r>    -6.9086     0.0000     0.0000 </r>
       <r>    -6.8277     0.0000     0.0000 </r>
       <r>    -6.7467     0.0000     0.0000 </r>
       <r>    -6.6658     0.0000     0.0000 </r>
       <r>    -6.5848     0.0000     0.0000 </r>
       <r>    -6.5038     0.0000     0.0000 </r>
       <r>    -6.4229     0.0000     0.0000 </r>
       <r>    -6.3419     0.0000     0.0000 </r>
       <r>    -6.2610     0.0000     0.0000 </r>
       <r>    -6.1800     0.0035     0.0003 </r>
       <r>    -6.0990     0.0350     0.0031 </r>
       <r>    -6.0181     0.0113     0.0040 </r>
       <r>    -5.9371     0.1397     0.0153 </r>
       <r>    -5.8562     0.3767     0.0458 </r>
       <r>    -5.7752     0.1541     0.0583 </r>
       <r>    -5.6942     0.0041     0.0587 </r>
       <r>    -5.6133     0.1362     0.0697 </r>
       <r>    -5.5323     0.4085     0.1028 </r>
       <r>    -5.4514     0.0723     0.1086 </r>
       <r>    -5.3704     0.7899     0.1726 </r>
       <r>    -5.2894     0.6598     0.2260 </r>
       <r>    -5.2085     0.0554     0.2305 </r>
       <r>    -5.1275     0.0032     0.2307 </r>
       <r>    -5.0466     0.1400     0.2421 </r>
       <r>    -4.9656     0.1506     0.2542 </r>
       <r>    -4.8847     0.4938     0.2942 </r>
       <r>    -4.8037     1.1509     0.3874 </r>
       <r>    -4.7227     0.6485     0.4399 </r>
       <r>    -4.6418     0.0453     0.4436 </r>
       <r>    -4.5608     0.6875     0.4992 </r>
       <r>    -4.4799     0.4763     0.5378 </r>
       <r>    -4.3989     0.3354     0.5650 </r>
       <r>    -4.3179     0.8204     0.6314 </r>
       <r>    -4.2370     0.3525     0.6599 </r>
       <r>    -4.1560     0.0150     0.6611 </r>
       <r>    -4.0751     0.3349     0.6882 </r>
       <r>    -3.9941     0.3985     0.7205 </r>
       <r>    -3.9131     1.9221     0.8761 </r>
       <r>    -3.8322     1.3835     0.9881 </r>
       <r>    -3.7512     0.4008     1.0206 </r>
       <r>    -3.6703     1.0759     1.1077 </r>
       <r>    -3.5893     0.2350     1.1267 </r>
       <r>    -3.5083     0.8244     1.1934 </r>
       <r>    -3.4274     0.6162     1.2433 </r>
       <r>    -3.3464     0.7694     1.3056 </r>
       <r>    -3.2655     0.5588     1.3509 </r>
       <r>    -3.1845     1.4450     1.4678 </r>
       <r>    -3.1035     0.3512     1.4963 </r>
       <r>    -3.0226     0.4151     1.5299 </r>
       <r>    -2.9416     0.7113     1.5875 </r>
       <r>    -2.8607     0.3045     1.6121 </r>
       <r>    -2.7797     0.8169     1.6783 </r>
       <r>    -2.6987     0.3706     1.7083 </r>
       <r>    -2.6178     1.7315     1.8484 </r>
       <r>    -2.5368     0.2791     1.8710 </r>
       <r>    -2.4559     0.0273     1.8733 </r>
       <r>    -2.3749     0.3948     1.9052 </r>
       <r>    -2.2940     0.1564     1.9179 </r>
       <r>    -2.2130     0.0011     1.9180 </r>
       <r>    -2.1320     0.0000     1.9180 </r>
       <r>    -2.0511     0.0077     1.9186 </r>
       <r>    -1.9701     0.2138     1.9359 </r>
       <r>    -1.8892     0.8537     2.0050 </r>
       <r>    -1.8082     0.7246     2.0637 </r>
       <r>    -1.7272     0.2238     2.0818 </r>
       <r>    -1.6463     0.0028     2.0820 </r>
       <r>    -1.5653     0.0000     2.0820 </r>
       <r>    -1.4844     0.0027     2.0822 </r>
       <r>    -1.4034     0.2164     2.0998 </r>
       <r>    -1.3224     0.3461     2.1278 </r>
       <r>    -1.2415     0.0141     2.1289 </r>
       <r>    -1.1605     0.1338     2.1398 </r>
       <r>    -1.0796     1.6689     2.2749 </r>
       <r>    -0.9986     1.3615     2.3851 </r>
       <r>    -0.9176     1.9937     2.5465 </r>
       <r>    -0.8367     1.0410     2.6308 </r>
       <r>    -0.7557     1.1717     2.7256 </r>
       <r>    -0.6748     0.8751     2.7965 </r>
       <r>    -0.5938     0.2577     2.8173 </r>
       <r>    -0.5128     1.7057     2.9554 </r>
       <r>    -0.4319     0.4042     2.9882 </r>
       <r>    -0.3509     0.0015     2.9883 </r>
       <r>    -0.2700     0.0000     2.9883 </r>
       <r>    -0.1890     0.0592     2.9931 </r>
       <r>    -0.1081     1.0027     3.0743 </r>
       <r>    -0.0271     1.1373     3.1663 </r>
       <r>     0.0539     1.6074     3.2965 </r>
       <r>     0.1348     0.3137     3.3219 </r>
       <r>     0.2158     0.0291     3.3242 </r>
       <r>     0.2967     0.0299     3.3266 </r>
       <r>     0.3777     0.4017     3.3592 </r>
       <r>     0.4587     0.1525     3.3715 </r>
       <r>     0.5396     0.4474     3.4077 </r>
       <r>     0.6206     0.6800     3.4628 </r>
       <r>     0.7015     0.0256     3.4648 </r>
       <r>     0.7825     0.0009     3.4649 </r>
       <r>     0.8635     0.2223     3.4829 </r>
       <r>     0.9444     0.8450     3.5513 </r>
       <r>     1.0254     0.0896     3.5586 </r>
       <r>     1.1063     0.0023     3.5588 </r>
       <r>     1.1873     0.3122     3.5840 </r>
       <r>     1.2683     0.7900     3.6480 </r>
       <r>     1.3492     0.0536     3.6523 </r>
       <r>     1.4302     0.0019     3.6525 </r>
       <r>     1.5111     0.3595     3.6816 </r>
       <r>     1.5921     1.6450     3.8148 </r>
       <r>     1.6731     0.8604     3.8844 </r>
       <r>     1.7540     0.7227     3.9429 </r>
       <r>     1.8350     2.0419     4.1083 </r>
       <r>     1.9159     0.9691     4.1867 </r>
       <r>     1.9969     0.5498     4.2312 </r>
       <r>     2.0779     0.4528     4.2679 </r>
       <r>     2.1588     0.3020     4.2923 </r>
       <r>     2.2398     0.0650     4.2976 </r>
       <r>     2.3207     1.0022     4.3787 </r>
       <r>     2.4017     2.2335     4.5596 </r>
       <r>     2.4826     2.7641     4.7833 </r>
       <r>     2.5636     2.2685     4.9670 </r>
       <r>     2.6446     1.0353     5.0508 </r>
       <r>     2.7255     0.1920     5.0664 </r>
       <r>     2.8065     0.0679     5.0719 </r>
       <r>     2.8874     1.4476     5.1890 </r>
       <r>     2.9684     0.8971     5.2617 </r>
       <r>     3.0494     0.4948     5.3017 </r>
       <r>     3.1303     2.1969     5.4796 </r>
       <r>     3.2113     2.8837     5.7131 </r>
       <r>     3.2922     1.4297     5.8288 </r>
       <r>     3.3732     0.8202     5.8952 </r>
       <r>     3.4542     1.0172     5.9776 </r>
       <r>     3.5351     1.1274     6.0688 </r>
       <r>     3.6161     2.1084     6.2395 </r>
       <r>     3.6970     2.2322     6.4203 </r>
       <r>     3.7780     0.3562     6.4491 </r>
       <r>     3.8590     0.2472     6.4691 </r>
       <r>     3.9399     2.5159     6.6728 </r>
       <r>     4.0209     2.1015     6.8429 </r>
       <r>     4.1018     0.3468     6.8710 </r>
       <r>     4.1828     0.2326     6.8898 </r>
       <r>     4.2638     1.9027     7.0439 </r>
       <r>     4.3447     1.1704     7.1386 </r>
       <r>     4.4257     0.8223     7.2052 </r>
       <r>     4.5066     1.3064     7.3110 </r>
       <r>     4.5876     2.3982     7.5051 </r>
       <r>     4.6686     1.2625     7.6073 </r>
       <r>     4.7495     0.4861     7.6467 </r>
       <r>     4.8305     0.3525     7.6752 </r>
       <r>     4.9114     0.0071     7.6758 </r>
       <r>     4.9924     0.1417     7.6873 </r>
       <r>     5.0733     1.5328     7.8114 </r>
       <r>     5.1543     0.8215     7.8779 </r>
       <r>     5.2353     0.0126     7.8789 </r>
       <r>     5.3162     0.0000     7.8789 </r>
       <r>     5.3972     0.0000     7.8789 </r>
       <r>     5.4781     0.0485     7.8828 </r>
       <r>     5.5591     0.8795     7.9540 </r>
       <r>     5.6401     0.4192     7.9880 </r>
       <r>     5.7210     0.0039     7.9883 </r>
       <r>     5.8020     0.0285     7.9906 </r>
       <r>     5.8829     0.1053     7.9991 </r>
       <r>     5.9639     0.0109     8.0000 </r>
       <r>     6.0449     0.0000     8.0000 </r>
       <r>     6.1258     0.0000     8.0000 </r>
       <r>     6.2068     0.0000     8.0000 </r>
       <r>     6.2877     0.0000     8.0000 </r>
       <r>     6.3687     0.0037     8.0003 </r>
       <r>     6.4497     0.1490     8.0124 </r>
       <r>     6.5306     0.2433     8.0321 </r>
       <r>     6.6116     0.1767     8.0464 </r>
       <r>     6.6925     0.1999     8.0625 </r>
       <r>     6.7735     0.8571     8.1319 </r>
       <r>     6.8545     0.1074     8.1406 </r>
       <r>     6.9354     0.0636     8.1458 </r>
       <r>     7.0164     0.3725     8.1759 </r>
       <r>     7.0973     0.4163     8.2096 </r>
       <r>     7.1783     0.5253     8.2522 </r>
       <r>     7.2592     0.6350     8.3036 </r>
       <r>     7.3402     0.5213     8.3458 </r>
       <r>     7.4212     1.0659     8.4321 </r>
       <r>     7.5021     0.2608     8.4532 </r>
       <r>     7.5831     0.1924     8.4688 </r>
       <r>     7.6640     0.4097     8.5019 </r>
       <r>     7.7450     1.0329     8.5856 </r>
       <r>     7.8260     2.6500     8.8001 </r>
       <r>     7.9069     1.1737     8.8951 </r>
       <r>     7.9879     0.8522     8.9641 </r>
       <r>     8.0688     1.7712     9.1075 </r>
       <r>     8.1498     1.0241     9.1904 </r>
       <r>     8.2308     2.3759     9.3828 </r>
       <r>     8.3117     2.4325     9.5797 </r>
       <r>     8.3927     0.7042     9.6367 </r>
       <r>     8.4736     0.6185     9.6868 </r>
       <r>     8.5546     1.1901     9.7832 </r>
       <r>     8.6356     0.6716     9.8375 </r>
       <r>     8.7165     2.4566    10.0364 </r>
       <r>     8.7975     2.2593    10.2193 </r>
       <r>     8.8784     1.1719    10.3142 </r>
       <r>     8.9594     2.0574    10.4808 </r>
       <r>     9.0404     1.1256    10.5719 </r>
       <r>     9.1213     0.0704    10.5776 </r>
       <r>     9.2023     0.6468    10.6300 </r>
       <r>     9.2832     0.7891    10.6938 </r>
       <r>     9.3642     2.2525    10.8762 </r>
       <r>     9.4452     2.8670    11.1083 </r>
       <r>     9.5261     2.9577    11.3478 </r>
       <r>     9.6071     1.6390    11.4805 </r>
       <r>     9.6880     1.1088    11.5702 </r>
       <r>     9.7690     2.1399    11.7435 </r>
       <r>     9.8499     0.2840    11.7665 </r>
       <r>     9.9309     0.6600    11.8199 </r>
       <r>    10.0119     1.4215    11.9350 </r>
       <r>    10.0928     1.6642    12.0697 </r>
       <r>    10.1738     1.9337    12.2263 </r>
       <r>    10.2547     0.8003    12.2911 </r>
       <r>    10.3357     2.7726    12.5155 </r>
       <r>    10.4167     1.2917    12.6201 </r>
       <r>    10.4976     0.1884    12.6354 </r>
       <r>    10.5786     0.8380    12.7032 </r>
       <r>    10.6595     1.1425    12.7957 </r>
       <r>    10.7405     0.1139    12.8049 </r>
       <r>    10.8215     0.6027    12.8537 </r>
       <r>    10.9024     2.0992    13.0237 </r>
       <r>    10.9834     0.6271    13.0744 </r>
       <r>    11.0643     1.1172    13.1649 </r>
       <r>    11.1453     2.0913    13.3342 </r>
       <r>    11.2263     0.4590    13.3713 </r>
       <r>    11.3072     2.0454    13.5369 </r>
       <r>    11.3882     2.7110    13.7564 </r>
       <r>    11.4691     0.3982    13.7887 </r>
       <r>    11.5501     0.4467    13.8248 </r>
       <r>    11.6311     2.1487    13.9988 </r>
       <r>    11.7120     0.7660    14.0608 </r>
       <r>    11.7930     3.4710    14.3418 </r>
       <r>    11.8739     1.7089    14.4802 </r>
       <r>    11.9549     0.2610    14.5013 </r>
       <r>    12.0359     0.4589    14.5384 </r>
       <r>    12.1168     1.1141    14.6286 </r>
       <r>    12.1978     1.1610    14.7226 </r>
       <r>    12.2787     0.0486    14.7266 </r>
       <r>    12.3597     0.0000    14.7266 </r>
       <r>    12.4406     0.0000    14.7266 </r>
       <r>    12.5216     0.0000    14.7266 </r>
       <r>    12.6026     0.0000    14.7266 </r>
       <r>    12.6835     0.0071    14.7271 </r>
       <r>    12.7645     0.4348    14.7623 </r>
       <r>    12.8454     1.3630    14.8727 </r>
       <r>    12.9264     1.1281    14.9640 </r>
       <r>    13.0074     0.8602    15.0337 </r>
       <r>    13.0883     0.0672    15.0391 </r>
       <r>    13.1693     0.1846    15.0540 </r>
       <r>    13.2502     1.4543    15.1718 </r>
       <r>    13.3312     2.1505    15.3459 </r>
       <r>    13.4122     0.2623    15.3671 </r>
       <r>    13.4931     0.0057    15.3676 </r>
       <r>    13.5741     0.1179    15.3771 </r>
       <r>    13.6550     0.3450    15.4051 </r>
       <r>    13.7360     1.4444    15.5220 </r>
       <r>    13.8170     1.5494    15.6474 </r>
       <r>    13.8979     1.5254    15.7709 </r>
       <r>    13.9789     0.2233    15.7890 </r>
       <r>    14.0598     0.1421    15.8005 </r>
       <r>    14.1408     0.9555    15.8779 </r>
       <r>    14.2218     0.9957    15.9585 </r>
       <r>    14.3027     0.2225    15.9765 </r>
       <r>    14.3837     0.0009    15.9766 </r>
       <r>    14.4646     0.0000    15.9766 </r>
       <r>    14.5456     0.0000    15.9766 </r>
       <r>    14.6265     0.0000    15.9766 </r>
       <r>    14.7075     0.0000    15.9766 </r>
       <r>    14.7885     0.0000    15.9766 </r>
       <r>    14.8694     0.0000    15.9766 </r>
       <r>    14.9504     0.0000    15.9766 </r>
       <r>    15.0313     0.0000    15.9766 </r>
       <r>    15.1123     0.0000    15.9766 </r>
       <r>    15.1933     0.0000    15.9766 </r>
       <r>    15.2742     0.0000    15.9766 </r>
       <r>    15.3552     0.0000    15.9766 </r>
       <r>    15.4361     0.0000    15.9766 </r>
       <r>    15.5171     0.0000    15.9766 </r>
       <r>    15.5981     0.0000    15.9766 </r>
       <r>    15.6790     0.0000    15.9766 </r>
       <r>    15.7600     0.0000    15.9766 </r>
       <r>    15.8409     0.0003    15.9766 </r>
       <r>    15.9219     0.0585    15.9813 </r>
       <r>    16.0029     0.2098    15.9983 </r>
       <r>    16.0838     0.0209    16.0000 </r>
       <r>    16.1648     0.0000    16.0000 </r>
       <r>    16.2457     0.0000    16.0000 </r>
       <r>    16.3267     0.0000    16.0000 </r>
       <r>    16.4077     0.0000    16.0000 </r>
       <r>    16.4886     0.0000    16.0000 </r>
       <r>    16.5696     0.0000    16.0000 </r>
       <r>    16.6505     0.0000    16.0000 </r>
       <r>    16.7315     0.0000    16.0000 </r>
       <r>    16.8125     0.0000    16.0000 </r>
       <r>    16.8934     0.0000    16.0000 </r>
       <r>    16.9744     0.0000    16.0000 </r>
       <r>    17.0553     0.0000    16.0000 </r>
      </set>
     </set>
    </array>
   </total>
  </dos>
 </calculation>
 <structure name="finalpos" >
  <crystal>
   <varray name="basis" >
    <v>       0.00000000       2.71500000       2.71500000 </v>
    <v>       2.71500000       0.00000000       2.71500000 </v>
    <v>       2.71500000       2.71500000       0.00000000 </v>
   </varray>
   <i name="volume">     40.02575175 </i>
   <varray name="rec_basis" >
    <v>      -0.18416206       0.18416206       0.18416206 </v>
    <v>       0.18416206      -0.18416206       0.18416206 </v>
    <v>       0.18416206       0.18416206      -0.18416206 </v>
   </varray>
  </crystal>
  <varray name="positions" >
   <v>       0.00000000       0.00000000       0.00000000 </v>
   <v>       0.25000000       0.25000000       0.25000000 </v>
  </varray>
 </structure>
</modeling>
