       N       E                     dE             d eps       ncg     rms          rms(c)
DAV:   1    -0.565758117389E+01   -0.56576E+01   -0.50532E+02  5724   0.610E+01
RMM:   2    -0.829031909016E+01   -0.26327E+01   -0.26313E+01  5613   0.301E+01
RMM:   3    -0.878557816000E+01   -0.49526E+00   -0.27666E+00  5671   0.918E+00
RMM:   4    -0.883804948782E+01   -0.52471E-01   -0.38506E-01  5856   0.375E+00
RMM:   5    -0.884700076237E+01   -0.89513E-02   -0.76898E-02  5861   0.167E+00
RMM:   6    -0.884866100246E+01   -0.16602E-02   -0.15524E-02  5903   0.750E-01
RMM:   7    -0.884900343488E+01   -0.34243E-03   -0.32918E-03  5894   0.340E-01
RMM:   8    -0.884907163907E+01   -0.68204E-04   -0.66105E-04  5894   0.154E-01
RMM:   9    -0.884908662987E+01   -0.14991E-04   -0.14600E-04  5864   0.714E-02
RMM:  10    -0.884909000876E+01   -0.33789E-05   -0.33019E-05  5533   0.334E-02
RMM:  11    -0.884909078703E+01   -0.77827E-06   -0.76234E-06  5012   0.157E-02
   1 F= -.88490908E+01 E0= -.88490908E+01  d E =-.205484E-16
