 vasp.6.6.0 06Mar2026 (build Apr 30 2026 15:36:16) complex                      
  
 executed on             LinuxIFC date 2026.05.05  17:11:30
 running    8 mpi-ranks, on    1 nodes
 distrk:  each k-point on    4 cores,    2 groups
 distr:  one band on NCORE=   4 cores,    1 groups


--------------------------------------------------------------------------------------------------------


 INCAR:
   ALGO = Fast
   EDIFF = 1e-06
   ENCUT = 400.0
   GGA = Pe
   IBRION = -1
   ICHARG = 11
   ISMEAR = 0
   ISTART = 1
   ISYM = 0
   KPAR = 2
   LCHARG = False
   LORBIT = 11
   LREAL = False
   LWAVE = True
   NBANDS = 12
   NCORE = 4
   NELM = 100
   NSW = 0
   PREC = Accurate
   SIGMA = 0.05
   SYSTEM = Si_diamond_PBE_band_vasp

 POTCAR:    PAW_PBE Si 05Jan2001                  
 POTCAR:    PAW_PBE Si 05Jan2001                  
   SHA256 =  79d9987ad8750f624c4d6acb2a16d13abf6a777132adc04dc6c8399be72b42bb Si/POTCAR             
   COPYR  = (c) Copyright 05Jan2001 Georg Kresse                                                    
   COPYR  = This file is part of the software VASP. Any use, copying, and all other rights are regul
   COPYR  = If you do not have a valid VASP license, you may not use, copy or distribute this file. 
   VRHFIN =Si: s2p2                                                                                 
   LEXCH  = PE                                                                                      
   EATOM  =   103.0669 eV,    7.5752 Ry                                                             
                                                                                                    
   TITEL  = PAW_PBE Si 05Jan2001                                                                    
   LULTRA =        F    use ultrasoft PP ?                                                          
   IUNSCR =        1    unscreen: 0-lin 1-nonlin 2-no                                               
   RPACOR =    1.500    partial core radius                                                         
   POMASS =   28.085; ZVAL   =    4.000    mass and valenz                                          
   RCORE  =    1.900    outmost cutoff radius                                                       
   RWIGS  =    2.480; RWIGS  =    1.312    wigner-seitz radius (au A)                               
   ENMAX  =  245.345; ENMIN  =  184.009 eV                                                          
   ICORE  =        2    local potential                                                             
   LCOR   =        T    correct aug charges                                                         
   LPAW   =        T    paw PP                                                                      
   EAUG   =  322.069                                                                                
   DEXC   =    0.000                                                                                
   RMAX   =    1.950    core radius for proj-oper                                                   
   RAUG   =    1.300    factor for augmentation sphere                                              
   RDEP   =    1.993    radius for radial grids                                                     
   RDEPT  =    1.837    core radius for aug-charge                                                  
                                                                                                    
   Atomic configuration                                                                             
    6 entries                                                                                       
     n  l   j            E        occ.                                                              
     1  0  0.50     -1785.8828   2.0000                                                             
     2  0  0.50      -139.4969   2.0000                                                             
     2  1  1.50       -95.5546   6.0000                                                             
     3  0  0.50       -10.8127   2.0000                                                             
     3  1  0.50        -4.0811   2.0000                                                             
     3  2  1.50        -4.0817   0.0000                                                             
   Description                                                                                      
     l       E           TYP  RCUT    TYP  RCUT                                                     
     0    -10.8127223     23  1.900                                                                 
     0     -7.6451159     23  1.900                                                                 
     1     -4.0811372     23  1.900                                                                 
     1      2.4879257     23  1.900                                                                 
     2     -4.0817478      7  1.900                                                                 
  local pseudopotential read in
  partial core-charges read in
  partial kinetic energy density read in
  atomic valenz-charges read in
  non local Contribution for L=           0  read in
    real space projection operators read in
  non local Contribution for L=           0  read in
    real space projection operators read in
  non local Contribution for L=           1  read in
    real space projection operators read in
  non local Contribution for L=           1  read in
    real space projection operators read in
    PAW grid and wavefunctions read in
 
   number of l-projection  operators is LMAX  =           4
   number of lm-projection operators is LMMAX =           8
 
  PAW_PBE Si 05Jan2001                  :
 energy of atom  1       EATOM= -103.0669
 kinetic energy error for atom=    0.0012 (will be added to EATOM!!)
 
 
 POSCAR: Si diamond primitive cell, a=5.43 Angstr
  positions in direct lattice
  No initial velocities read in


 exchange-correlation table for PE
   RHO(1)=    0.500       N(1)  =     2000
   RHO(2)=  100.500       N(2)  =     4000
 


--------------------------------------------------------------------------------------------------------


 ion  position               nearest neighbor table
   1  0.000  0.000  0.000-   2 2.35   2 2.35   2 2.35   2 2.35
   2  0.250  0.250  0.250-   1 2.35   1 2.35   1 2.35   1 2.35
 

IMPORTANT INFORMATION: All symmetrisations will be switched off!
NOSYMM: (Re-)initialisation of all symmetry stuff for point group C_1.


----------------------------------------------------------------------------------------

                                     Primitive cell                                     

  volume of cell :      40.0258

  direct lattice vectors                    reciprocal lattice vectors
     0.000000000  2.715000000  2.715000000    -0.184162063  0.184162063  0.184162063
     2.715000000  0.000000000  2.715000000     0.184162063 -0.184162063  0.184162063
     2.715000000  2.715000000  0.000000000     0.184162063  0.184162063 -0.184162063

  length of vectors
     3.839589822  3.839589822  3.839589822     0.318978049  0.318978049  0.318978049

  position of ions in fractional coordinates (direct lattice)
     0.000000000  0.000000000  0.000000000
     0.250000000  0.250000000  0.250000000

  ion indices of the primitive-cell ions
   primitive index   ion index
                 1           1
                 2           2

----------------------------------------------------------------------------------------

 
 
 KPOINTS: Si band path L-G-X-W-K-G, 36 points per 

Interpolating k-points between supplied coordinates.

 Line segments in fractional coordinates (reciprocal lattice):
    0.500000  0.500000  0.500000  ...  0.000000  0.000000  0.000000
    0.000000  0.000000  0.000000  ...  0.500000  0.000000  0.500000
    0.500000  0.000000  0.500000  ...  0.500000  0.250000  0.750000
    0.500000  0.250000  0.750000  ...  0.375000  0.375000  0.750000
    0.375000  0.375000  0.750000  ...  0.000000  0.000000  0.000000

 Generated    36 points on each line segment, for a total of    180 k-points:

 Following reciprocal coordinates:
            Coordinates               Weight
  0.500000  0.500000  0.500000      0.005556
  0.485714  0.485714  0.485714      0.005556
  0.471429  0.471429  0.471429      0.005556
  0.457143  0.457143  0.457143      0.005556
  0.442857  0.442857  0.442857      0.005556
  0.428571  0.428571  0.428571      0.005556
  0.414286  0.414286  0.414286      0.005556
  0.400000  0.400000  0.400000      0.005556
  0.385714  0.385714  0.385714      0.005556
  0.371429  0.371429  0.371429      0.005556
  0.357143  0.357143  0.357143      0.005556
  0.342857  0.342857  0.342857      0.005556
  0.328571  0.328571  0.328571      0.005556
  0.314286  0.314286  0.314286      0.005556
  0.300000  0.300000  0.300000      0.005556
  0.285714  0.285714  0.285714      0.005556
  0.271429  0.271429  0.271429      0.005556
  0.257143  0.257143  0.257143      0.005556
  0.242857  0.242857  0.242857      0.005556
  0.228571  0.228571  0.228571      0.005556
  0.214286  0.214286  0.214286      0.005556
  0.200000  0.200000  0.200000      0.005556
  0.185714  0.185714  0.185714      0.005556
  0.171429  0.171429  0.171429      0.005556
  0.157143  0.157143  0.157143      0.005556
  0.142857  0.142857  0.142857      0.005556
  0.128571  0.128571  0.128571      0.005556
  0.114286  0.114286  0.114286      0.005556
  0.100000  0.100000  0.100000      0.005556
  0.085714  0.085714  0.085714      0.005556
  0.071429  0.071429  0.071429      0.005556
  0.057143  0.057143  0.057143      0.005556
  0.042857  0.042857  0.042857      0.005556
  0.028571  0.028571  0.028571      0.005556
  0.014286  0.014286  0.014286      0.005556
  0.000000  0.000000  0.000000      0.005556
  0.000000  0.000000  0.000000      0.005556
  0.014286  0.000000  0.014286      0.005556
  0.028571  0.000000  0.028571      0.005556
  0.042857  0.000000  0.042857      0.005556
  0.057143  0.000000  0.057143      0.005556
  0.071429  0.000000  0.071429      0.005556
  0.085714  0.000000  0.085714      0.005556
  0.100000  0.000000  0.100000      0.005556
  0.114286  0.000000  0.114286      0.005556
  0.128571  0.000000  0.128571      0.005556
  0.142857  0.000000  0.142857      0.005556
  0.157143  0.000000  0.157143      0.005556
  0.171429  0.000000  0.171429      0.005556
  0.185714  0.000000  0.185714      0.005556
  0.200000  0.000000  0.200000      0.005556
  0.214286  0.000000  0.214286      0.005556
  0.228571  0.000000  0.228571      0.005556
  0.242857  0.000000  0.242857      0.005556
  0.257143  0.000000  0.257143      0.005556
  0.271429  0.000000  0.271429      0.005556
  0.285714  0.000000  0.285714      0.005556
  0.300000  0.000000  0.300000      0.005556
  0.314286  0.000000  0.314286      0.005556
  0.328571  0.000000  0.328571      0.005556
  0.342857  0.000000  0.342857      0.005556
  0.357143  0.000000  0.357143      0.005556
  0.371429  0.000000  0.371429      0.005556
  0.385714  0.000000  0.385714      0.005556
  0.400000  0.000000  0.400000      0.005556
  0.414286  0.000000  0.414286      0.005556
  0.428571  0.000000  0.428571      0.005556
  0.442857  0.000000  0.442857      0.005556
  0.457143  0.000000  0.457143      0.005556
  0.471429  0.000000  0.471429      0.005556
  0.485714  0.000000  0.485714      0.005556
  0.500000  0.000000  0.500000      0.005556
  0.500000  0.000000  0.500000      0.005556
  0.500000  0.007143  0.507143      0.005556
  0.500000  0.014286  0.514286      0.005556
  0.500000  0.021429  0.521429      0.005556
  0.500000  0.028571  0.528571      0.005556
  0.500000  0.035714  0.535714      0.005556
  0.500000  0.042857  0.542857      0.005556
  0.500000  0.050000  0.550000      0.005556
  0.500000  0.057143  0.557143      0.005556
  0.500000  0.064286  0.564286      0.005556
  0.500000  0.071429  0.571429      0.005556
  0.500000  0.078571  0.578571      0.005556
  0.500000  0.085714  0.585714      0.005556
  0.500000  0.092857  0.592857      0.005556
  0.500000  0.100000  0.600000      0.005556
  0.500000  0.107143  0.607143      0.005556
  0.500000  0.114286  0.614286      0.005556
  0.500000  0.121429  0.621429      0.005556
  0.500000  0.128571  0.628571      0.005556
  0.500000  0.135714  0.635714      0.005556
  0.500000  0.142857  0.642857      0.005556
  0.500000  0.150000  0.650000      0.005556
  0.500000  0.157143  0.657143      0.005556
  0.500000  0.164286  0.664286      0.005556
  0.500000  0.171429  0.671429      0.005556
  0.500000  0.178571  0.678571      0.005556
  0.500000  0.185714  0.685714      0.005556
  0.500000  0.192857  0.692857      0.005556
  0.500000  0.200000  0.700000      0.005556
  0.500000  0.207143  0.707143      0.005556
  0.500000  0.214286  0.714286      0.005556
  0.500000  0.221429  0.721429      0.005556
  0.500000  0.228571  0.728571      0.005556
  0.500000  0.235714  0.735714      0.005556
  0.500000  0.242857  0.742857      0.005556
  0.500000  0.250000  0.750000      0.005556
  0.500000  0.250000  0.750000      0.005556
  0.496429  0.253571  0.750000      0.005556
  0.492857  0.257143  0.750000      0.005556
  0.489286  0.260714  0.750000      0.005556
  0.485714  0.264286  0.750000      0.005556
  0.482143  0.267857  0.750000      0.005556
  0.478571  0.271429  0.750000      0.005556
  0.475000  0.275000  0.750000      0.005556
  0.471429  0.278571  0.750000      0.005556
  0.467857  0.282143  0.750000      0.005556
  0.464286  0.285714  0.750000      0.005556
  0.460714  0.289286  0.750000      0.005556
  0.457143  0.292857  0.750000      0.005556
  0.453571  0.296429  0.750000      0.005556
  0.450000  0.300000  0.750000      0.005556
  0.446429  0.303571  0.750000      0.005556
  0.442857  0.307143  0.750000      0.005556
  0.439286  0.310714  0.750000      0.005556
  0.435714  0.314286  0.750000      0.005556
  0.432143  0.317857  0.750000      0.005556
  0.428571  0.321429  0.750000      0.005556
  0.425000  0.325000  0.750000      0.005556
  0.421429  0.328571  0.750000      0.005556
  0.417857  0.332143  0.750000      0.005556
  0.414286  0.335714  0.750000      0.005556
  0.410714  0.339286  0.750000      0.005556
  0.407143  0.342857  0.750000      0.005556
  0.403571  0.346429  0.750000      0.005556
  0.400000  0.350000  0.750000      0.005556
  0.396429  0.353571  0.750000      0.005556
  0.392857  0.357143  0.750000      0.005556
  0.389286  0.360714  0.750000      0.005556
  0.385714  0.364286  0.750000      0.005556
  0.382143  0.367857  0.750000      0.005556
  0.378571  0.371429  0.750000      0.005556
  0.375000  0.375000  0.750000      0.005556
  0.375000  0.375000  0.750000      0.005556
  0.364286  0.364286  0.728571      0.005556
  0.353571  0.353571  0.707143      0.005556
  0.342857  0.342857  0.685714      0.005556
  0.332143  0.332143  0.664286      0.005556
  0.321429  0.321429  0.642857      0.005556
  0.310714  0.310714  0.621429      0.005556
  0.300000  0.300000  0.600000      0.005556
  0.289286  0.289286  0.578571      0.005556
  0.278571  0.278571  0.557143      0.005556
  0.267857  0.267857  0.535714      0.005556
  0.257143  0.257143  0.514286      0.005556
  0.246429  0.246429  0.492857      0.005556
  0.235714  0.235714  0.471429      0.005556
  0.225000  0.225000  0.450000      0.005556
  0.214286  0.214286  0.428571      0.005556
  0.203571  0.203571  0.407143      0.005556
  0.192857  0.192857  0.385714      0.005556
  0.182143  0.182143  0.364286      0.005556
  0.171429  0.171429  0.342857      0.005556
  0.160714  0.160714  0.321429      0.005556
  0.150000  0.150000  0.300000      0.005556
  0.139286  0.139286  0.278571      0.005556
  0.128571  0.128571  0.257143      0.005556
  0.117857  0.117857  0.235714      0.005556
  0.107143  0.107143  0.214286      0.005556
  0.096429  0.096429  0.192857      0.005556
  0.085714  0.085714  0.171429      0.005556
  0.075000  0.075000  0.150000      0.005556
  0.064286  0.064286  0.128571      0.005556
  0.053571  0.053571  0.107143      0.005556
  0.042857  0.042857  0.085714      0.005556
  0.032143  0.032143  0.064286      0.005556
  0.021429  0.021429  0.042857      0.005556
  0.010714  0.010714  0.021429      0.005556
  0.000000  0.000000 -0.000000      0.005556

 Following cartesian coordinates:
            Coordinates               Weight
  0.092081  0.092081  0.092081      0.005556
  0.089450  0.089450  0.089450      0.005556
  0.086819  0.086819  0.086819      0.005556
  0.084188  0.084188  0.084188      0.005556
  0.081557  0.081557  0.081557      0.005556
  0.078927  0.078927  0.078927      0.005556
  0.076296  0.076296  0.076296      0.005556
  0.073665  0.073665  0.073665      0.005556
  0.071034  0.071034  0.071034      0.005556
  0.068403  0.068403  0.068403      0.005556
  0.065772  0.065772  0.065772      0.005556
  0.063141  0.063141  0.063141      0.005556
  0.060510  0.060510  0.060510      0.005556
  0.057880  0.057880  0.057880      0.005556
  0.055249  0.055249  0.055249      0.005556
  0.052618  0.052618  0.052618      0.005556
  0.049987  0.049987  0.049987      0.005556
  0.047356  0.047356  0.047356      0.005556
  0.044725  0.044725  0.044725      0.005556
  0.042094  0.042094  0.042094      0.005556
  0.039463  0.039463  0.039463      0.005556
  0.036832  0.036832  0.036832      0.005556
  0.034202  0.034202  0.034202      0.005556
  0.031571  0.031571  0.031571      0.005556
  0.028940  0.028940  0.028940      0.005556
  0.026309  0.026309  0.026309      0.005556
  0.023678  0.023678  0.023678      0.005556
  0.021047  0.021047  0.021047      0.005556
  0.018416  0.018416  0.018416      0.005556
  0.015785  0.015785  0.015785      0.005556
  0.013154  0.013154  0.013154      0.005556
  0.010524  0.010524  0.010524      0.005556
  0.007893  0.007893  0.007893      0.005556
  0.005262  0.005262  0.005262      0.005556
  0.002631  0.002631  0.002631      0.005556
  0.000000  0.000000 -0.000000      0.005556
  0.000000  0.000000  0.000000      0.005556
  0.000000  0.005262 -0.000000      0.005556
  0.000000  0.010524 -0.000000      0.005556
 -0.000000  0.015785  0.000000      0.005556
  0.000000  0.021047 -0.000000      0.005556
 -0.000000  0.026309  0.000000      0.005556
 -0.000000  0.031571  0.000000      0.005556
 -0.000000  0.036832  0.000000      0.005556
  0.000000  0.042094 -0.000000      0.005556
 -0.000000  0.047356  0.000000      0.005556
 -0.000000  0.052618  0.000000      0.005556
 -0.000000  0.057880  0.000000      0.005556
 -0.000000  0.063141  0.000000      0.005556
  0.000000  0.068403 -0.000000      0.005556
 -0.000000  0.073665  0.000000      0.005556
 -0.000000  0.078927  0.000000      0.005556
  0.000000  0.084188 -0.000000      0.005556
 -0.000000  0.089450  0.000000      0.005556
 -0.000000  0.094712  0.000000      0.005556
  0.000000  0.099974 -0.000000      0.005556
 -0.000000  0.105235  0.000000      0.005556
  0.000000  0.110497 -0.000000      0.005556
 -0.000000  0.115759  0.000000      0.005556
  0.000000  0.121021 -0.000000      0.005556
 -0.000000  0.126283  0.000000      0.005556
 -0.000000  0.131544  0.000000      0.005556
  0.000000  0.136806 -0.000000      0.005556
 -0.000000  0.142068  0.000000      0.005556
 -0.000000  0.147330  0.000000      0.005556
  0.000000  0.152591 -0.000000      0.005556
 -0.000000  0.157853  0.000000      0.005556
 -0.000000  0.163115  0.000000      0.005556
  0.000000  0.168377 -0.000000      0.005556
  0.000000  0.173639 -0.000000      0.005556
 -0.000000  0.178900  0.000000      0.005556
  0.000000  0.184162  0.000000      0.005556
  0.000000  0.184162  0.000000      0.005556
  0.002631  0.184162  0.000000      0.005556
  0.005262  0.184162  0.000000      0.005556
  0.007893  0.184162 -0.000000      0.005556
  0.010524  0.184162 -0.000000      0.005556
  0.013154  0.184162  0.000000      0.005556
  0.015785  0.184162  0.000000      0.005556
  0.018416  0.184162 -0.000000      0.005556
  0.021047  0.184162 -0.000000      0.005556
  0.023678  0.184162  0.000000      0.005556
  0.026309  0.184162  0.000000      0.005556
  0.028940  0.184162  0.000000      0.005556
  0.031571  0.184162  0.000000      0.005556
  0.034202  0.184162 -0.000000      0.005556
  0.036832  0.184162  0.000000      0.005556
  0.039463  0.184162  0.000000      0.005556
  0.042094  0.184162 -0.000000      0.005556
  0.044725  0.184162 -0.000000      0.005556
  0.047356  0.184162  0.000000      0.005556
  0.049987  0.184162  0.000000      0.005556
  0.052618  0.184162 -0.000000      0.005556
  0.055249  0.184162 -0.000000      0.005556
  0.057880  0.184162 -0.000000      0.005556
  0.060510  0.184162  0.000000      0.005556
  0.063141  0.184162  0.000000      0.005556
  0.065772  0.184162 -0.000000      0.005556
  0.068403  0.184162  0.000000      0.005556
  0.071034  0.184162  0.000000      0.005556
  0.073665  0.184162 -0.000000      0.005556
  0.076296  0.184162 -0.000000      0.005556
  0.078927  0.184162  0.000000      0.005556
  0.081557  0.184162 -0.000000      0.005556
  0.084188  0.184162  0.000000      0.005556
  0.086819  0.184162  0.000000      0.005556
  0.089450  0.184162 -0.000000      0.005556
  0.092081  0.184162  0.000000      0.005556
  0.092081  0.184162  0.000000      0.005556
  0.093396  0.182847  0.000000      0.005556
  0.094712  0.181531  0.000000      0.005556
  0.096027  0.180216  0.000000      0.005556
  0.097343  0.178900  0.000000      0.005556
  0.098658  0.177585 -0.000000      0.005556
  0.099974  0.176269 -0.000000      0.005556
  0.101289  0.174954 -0.000000      0.005556
  0.102605  0.173639 -0.000000      0.005556
  0.103920  0.172323  0.000000      0.005556
  0.105235  0.171008  0.000000      0.005556
  0.106551  0.169692 -0.000000      0.005556
  0.107866  0.168377  0.000000      0.005556
  0.109182  0.167061  0.000000      0.005556
  0.110497  0.165746 -0.000000      0.005556
  0.111813  0.164430 -0.000000      0.005556
  0.113128  0.163115 -0.000000      0.005556
  0.114444  0.161800 -0.000000      0.005556
  0.115759  0.160484  0.000000      0.005556
  0.117074  0.159169  0.000000      0.005556
  0.118390  0.157853 -0.000000      0.005556
  0.119705  0.156538  0.000000      0.005556
  0.121021  0.155222 -0.000000      0.005556
  0.122336  0.153907 -0.000000      0.005556
  0.123652  0.152591  0.000000      0.005556
  0.124967  0.151276 -0.000000      0.005556
  0.126283  0.149961  0.000000      0.005556
  0.127598  0.148645  0.000000      0.005556
  0.128913  0.147330 -0.000000      0.005556
  0.130229  0.146014  0.000000      0.005556
  0.131544  0.144699  0.000000      0.005556
  0.132860  0.143383 -0.000000      0.005556
  0.134175  0.142068  0.000000      0.005556
  0.135491  0.140752  0.000000      0.005556
  0.136806  0.139437 -0.000000      0.005556
  0.138122  0.138122  0.000000      0.005556
  0.138122  0.138122  0.000000      0.005556
  0.134175  0.134175  0.000000      0.005556
  0.130229  0.130229 -0.000000      0.005556
  0.126283  0.126283  0.000000      0.005556
  0.122336  0.122336 -0.000000      0.005556
  0.118390  0.118390 -0.000000      0.005556
  0.114444  0.114444 -0.000000      0.005556
  0.110497  0.110497 -0.000000      0.005556
  0.106551  0.106551 -0.000000      0.005556
  0.102605  0.102605 -0.000000      0.005556
  0.098658  0.098658 -0.000000      0.005556
  0.094712  0.094712  0.000000      0.005556
  0.090766  0.090766 -0.000000      0.005556
  0.086819  0.086819 -0.000000      0.005556
  0.082873  0.082873 -0.000000      0.005556
  0.078927  0.078927  0.000000      0.005556
  0.074980  0.074980 -0.000000      0.005556
  0.071034  0.071034 -0.000000      0.005556
  0.067088  0.067088  0.000000      0.005556
  0.063141  0.063141  0.000000      0.005556
  0.059195  0.059195 -0.000000      0.005556
  0.055249  0.055249 -0.000000      0.005556
  0.051302  0.051302 -0.000000      0.005556
  0.047356  0.047356  0.000000      0.005556
  0.043410  0.043410  0.000000      0.005556
  0.039463  0.039463  0.000000      0.005556
  0.035517  0.035517  0.000000      0.005556
  0.031571  0.031571 -0.000000      0.005556
  0.027624  0.027624  0.000000      0.005556
  0.023678  0.023678  0.000000      0.005556
  0.019732  0.019732 -0.000000      0.005556
  0.015785  0.015785  0.000000      0.005556
  0.011839  0.011839  0.000000      0.005556
  0.007893  0.007893 -0.000000      0.005556
  0.003946  0.003946  0.000000      0.005556
 -0.000000 -0.000000  0.000000      0.005556
 


--------------------------------------------------------------------------------------------------------




 Dimension of arrays:
   k-points           NKPTS =    180   k-points in BZ     NKDIM =    180   number of bands    NBANDS=     12
   number of dos      NEDOS =    301   number of ions     NIONS =      2
   non local maximal  LDIM  =      4   non local SUM 2l+1 LMDIM =      8
   total plane-waves  NPLWV =  21952
   max r-space proj   IRMAX =      1   max aug-charges    IRDMAX=  18535
   dimension x,y,z NGX =    28 NGY =   28 NGZ =   28
   dimension x,y,z NGXF=    56 NGYF=   56 NGZF=   56
   support grid    NGXF=    56 NGYF=   56 NGZF=   56
   ions per type =               2
   NGX,Y,Z   is equivalent  to a cutoff of  12.12, 12.12, 12.12 a.u.
   NGXF,Y,Z  is equivalent  to a cutoff of  24.25, 24.25, 24.25 a.u.

 SYSTEM =  Si_diamond_PBE_band_vasp                
 POSCAR =  Si diamond primitive cell, a=5.43 Angstr

 Startparameter for this run:
   NWRITE =      2    write-flag & timer
   PREC   = accura    normal or accurate (medium, high low for compatibility)
   ISTART =      1    job   : 0-new  1-cont  2-samecut
   ICHARG =     11    charge: 1-file 2-atom 10-const
   ISPIN  =      1    spin polarized calculation?
   LNONCOLLINEAR =      F non collinear calculations
   LSORBIT =      F    spin-orbit coupling
   INIWAV =      1    electr: 0-lowe 1-rand  2-diag
   LASPH  =      F    aspherical Exc in radial PAW
 Electronic Relaxation 1
   ENCUT  =  400.0 eV  29.40 Ry    5.42 a.u.   6.26  6.26  6.26*2*pi/ulx,y,z
   ENINI  =  400.0     initial cutoff
   ENAUG  =  322.1 eV  augmentation charge cutoff
   NELM   =    100;   NELMIN=  2; NELMDL=  0     # of ELM steps 
   EDIFF  = 0.1E-05   stopping-criterion for ELM
   LREAL  =      F    real-space projection
   NLSPLINE    = F    spline interpolate recip. space projectors
   LCOMPAT=      F    compatible to vasp.4.4
   GGA_COMPAT  = T    GGA compatible to vasp.4.4-vasp.4.6
   LMAXPAW     = -100 max onsite density
   LMAXMIX     =    2 max onsite mixed and CHGCAR
   VOSKOWN=      0    Vosko Wilk Nusair interpolation
   ROPT   =    0.00000

 Ewald summation
   EWALD_CUTOFF =   4.00

 Ionic relaxation
   EDIFFG = 0.1E-04   stopping-criterion for IOM
   NSW    =      0    number of steps for IOM
   NBLOCK =      1;   KBLOCK =      1    inner block; outer block 
   IBRION =     -1    ionic relax: 0-MD 1-quasi-New 2-CG
   NFREE  =      0    steps in history (QN), initial steepest desc. (CG)
   ISIF   =      2    stress and relaxation
   IWAVPR =     10    prediction:  0-non 1-charg 2-wave 3-comb
   MAXDIS =   0.00    maximum displacement; if above reset density
   ISYM   =      0    0-nonsym 1-usesym 2-fastsym
   LCORR  =      T    Harris-Foulkes like correction to forces

   POTIM  = 0.5000    time-step for ionic-motion
   TEIN   =    0.0    initial temperature
   TEBEG  =    0.0;   TEEND  =   0.0 temperature during run
   SMASS  =  -3.00    Nose mass-parameter (am)
   estimated Nose-frequenzy (Omega)   =  0.10E-29 period in steps = 0.13E+47 mass=  -0.337E-27a.u.
   SCALEE = 1.0000    scale energy and forces
   NPACO  =    256;   APACO  = 10.0  distance and # of slots for P.C.
   PSTRESS=    0.0 pullay stress

  Mass of Ions in am
   POMASS =  28.09
  Ionic Valenz
   ZVAL   =   4.00
  Atomic Wigner-Seitz radii
   RWIGS  =  -1.00
  virtual crystal weights 
   VCA    =   1.00
   NELECT =       8.0000    total number of electrons
   NUPDOWN=      -1.0000    fix difference up-down

 DOS related values:
   EMIN   =  10.00;   EMAX   =-10.00  energy-range for DOS
   EFERMI =   0.00;   METHOD = LEGACY      
   ISMEAR =     0;   SIGMA  =   0.05  broadening in eV -4-tet -1-fermi 0-gaus
   EFERMI_NEDOS =   21; number of points for ismear=-14 and -15

 Electronic relaxation 2 (details)
   IALGO  =     68    algorithm
   LDIAG  =      T    sub-space diagonalisation (order eigenvalues)
   LSUBROT=      F    optimize rotation matrix (better conditioning)
   LROBUST=      F    robust break criterion during scf (extrapolated energy error)
   ISEARCH=      0    line search for conjugate gradient (0, 1=use gradient)
   TURBO    =      0    0=normal 1=particle mesh
   IRESTART =      0    0=no restart 2=restart with 2 vectors
   NREBOOT  =      0    no. of reboots
   NMIN     =      0    reboot dimension
   EREF     =   0.00    reference energy to select bands
   IMIX   =      4    mixing-type and parameters
     AMIX     =   0.40;   BMIX     =  1.00
     AMIX_MAG =   1.60;   BMIX_MAG =  1.00
     AMIN     =   0.10
     WC   =   100.;   INIMIX=   1;  MIXPRE=   1;  MAXMIX= -45

 Intra band minimization:
   WEIMIN = 0.0000     energy-eigenvalue tresh-hold
   EBREAK =  0.21E-07  absolut break condition
   DEPER  =   0.30     relativ break condition  

   TIME   =   0.40     timestep for ELM

  volume/ion in A,a.u.               =      20.01       135.05
  Fermi-wavevector in a.u.,A,eV,Ry     =   0.957176  1.808800 12.465458  0.916185
  Thomas-Fermi vector in A             =   2.086170
 
 Write flags
   LH5          =      F    write vaspwave.h5 (instead of legacy files WAVECAR, CHGCAR, etc.)
   LWAVE        =      T    write Kohn-Sham orbitals (WAVECAR/vaspwave.h5)
   LDOWNSAMPLE  =      F    k-point downsampling of WAVECAR
   LCHARG       =      F    write restart densities (CHGCAR/vaspwave.h5)
   LCHARGH5     =      F    write charge density to vaspwave.h5
   LTAU         =      F    evaluate kinetic energy density (TAUCAR/vaspwave.h5)
   LVTOT        =      F    write LOCPOT, total local potential
   LVHAR        =      F    write LOCPOT, Hartree potential only
   WRT_POTENTIAL= None    ! write potential to vaspout.h5
   WRT_DENSITY  = None    ! write densities to vaspout.h5
   LELF         =      F    write electronic localiz. function (ELF)
   LORBIT       =     11    0 simple, 1 ext, 2 COOP (PROOUT), +10 PAW based schemes


 Python interface
   PLUGINS active      =      F    recompile with -DPLUGINS to activate
 
 Dipole corrections
   LMONO      =      F    monopole corrections only (constant potential shift)
   LDIPOL     =      F    correct potential (dipole corrections)
   IDIPOL     =      0    1-x, 2-y, 3-z, 4-all directions 
   EPSILON    =  1.0000000 bulk dielectric constant
   LVACPOTAV  =      F  vacuum potentials using an averaging scheme for the charge density
   VACPOTFLAT =  0.1000000 required flatness to determine vacuum potential
 
Coulomb truncation method
  LTRUNCATE          =      F  Coulomb kernel truncation to be used

 
 Exchange correlation treatment:
   GGA     = PE    functional components
   XC_C    = 1    coefficients multiplying the functional components
   LIBXC   =     F    Libxc                    
   VOSKOWN =     0    Vosko Wilk Nusair interpolation
   LHFCALC =     F    Hartree Fock is set to
   LHFONE  =     F    Hartree Fock one center treatment
   AEXX    =    0.0000 exact exchange contribution
   BEXX    =    1.0000 short-range exact exchange contribution

 Parameters of functionals:
   PE:
     No parameter
 
 Van der Waals corrections
   IVDW    =     0    specifies the selected vdW correction

 Linear response parameters
   LEPSILON=     F    determine dielectric tensor
   LRPA    =     F    only Hartree local field effects (RPA)
   LNABLA  =     F    use nabla operator in PAW spheres
   LVEL    =     F    velocity operator in full k-point grid
   CSHIFT  =0.1000    complex shift for real part using Kramers Kronig
   OMEGAMAX=  -1.0    maximum frequency
   DEG_THRESHOLD= 0.2000000E-02 threshold for treating states as degnerate
   RTIME   =   -0.100 relaxation time in fs
  (WPLASMAI=    0.000 imaginary part of plasma frequency in eV, 0.658/RTIME)
   DFIELD  = 0.0000000 0.0000000 0.0000000 field for delta impulse in time
 
  Optional k-point grid parameters
   LKPOINTS_OPT  =     F    use optional k-point grid
   KPOINTS_OPT_MODE=     1    mode for optional k-point grid
 
 Orbital magnetization related:
   ORBITALMAG=     F  switch on orbital magnetization
   LCHIMAG   =     F  perturbation theory with respect to B field
   DQ        =  0.001000  dq finite difference perturbation B field
   LLRAUG    =     F  two centre corrections for induced B field
   LZORA     =     F  scalar relativistic for chemical shift
   LSOSHIFT  =     F  spin-orbit for chemical shift
   LBONE     =     F  B-component reconstruction in AE one-centre
   LVGVCALC  =     T  calculate vGv susceptibility
   LVGVAPPL  =     F  apply vGv susceptibility instead of pGv for G=0

 Random number generation:
   RANDOM_GENERATOR = DEFAULT
   PCG_SEED         = not used


--------------------------------------------------------------------------------------------------------


 Static calculation
 charge density and potential remain constant during run
 non-spin polarized calculation
 RMM-DIIS sequential band-by-band and
  variant of blocked Davidson during initial phase
 perform sub-space diagonalisation
    before iterative eigenvector-optimisation
 no mixing
 using additional bands            8
 reciprocal scheme for non local part
 use partial core corrections
 calculate Harris-corrections to forces 
   (improved forces if not selfconsistent)
 use gradient corrections 
 WARNING: stress and forces are not correct
  (second derivative of E(xc) not defined)
 use of overlap-Matrix (Vanderbilt PP)
 Gauss-broadening in eV      SIGMA  =   0.05


--------------------------------------------------------------------------------------------------------


  energy-cutoff  :      400.00
  volume of cell :       40.03
      direct lattice vectors                 reciprocal lattice vectors
     0.000000000  2.715000000  2.715000000    -0.184162063  0.184162063  0.184162063
     2.715000000  0.000000000  2.715000000     0.184162063 -0.184162063  0.184162063
     2.715000000  2.715000000  0.000000000     0.184162063  0.184162063 -0.184162063

  length of vectors
     3.839589822  3.839589822  3.839589822     0.318978049  0.318978049  0.318978049


 
 old parameters found on file WAVECAR:
  energy-cutoff  :      400.00
  volume of cell :       40.03
      direct lattice vectors                 reciprocal lattice vectors
     0.000000000  2.715000000  2.715000000    -0.184162063  0.184162063  0.184162063
     2.715000000  0.000000000  2.715000000     0.184162063 -0.184162063  0.184162063
     2.715000000  2.715000000  0.000000000     0.184162063  0.184162063 -0.184162063

  length of vectors

 
 k-points in units of 2pi/SCALE and weight: Si band path L-G-X-W-K-G, 36 points per 
   0.09208103  0.09208103  0.09208103       0.006
   0.08945014  0.08945014  0.08945014       0.006
   0.08681926  0.08681926  0.08681926       0.006
   0.08418837  0.08418837  0.08418837       0.006
   0.08155748  0.08155748  0.08155748       0.006
   0.07892660  0.07892660  0.07892660       0.006
   0.07629571  0.07629571  0.07629571       0.006
   0.07366483  0.07366483  0.07366483       0.006
   0.07103394  0.07103394  0.07103394       0.006
   0.06840305  0.06840305  0.06840305       0.006
   0.06577217  0.06577217  0.06577217       0.006
   0.06314128  0.06314128  0.06314128       0.006
   0.06051039  0.06051039  0.06051039       0.006
   0.05787951  0.05787951  0.05787951       0.006
   0.05524862  0.05524862  0.05524862       0.006
   0.05261773  0.05261773  0.05261773       0.006
   0.04998685  0.04998685  0.04998685       0.006
   0.04735596  0.04735596  0.04735596       0.006
   0.04472507  0.04472507  0.04472507       0.006
   0.04209419  0.04209419  0.04209419       0.006
   0.03946330  0.03946330  0.03946330       0.006
   0.03683241  0.03683241  0.03683241       0.006
   0.03420153  0.03420153  0.03420153       0.006
   0.03157064  0.03157064  0.03157064       0.006
   0.02893975  0.02893975  0.02893975       0.006
   0.02630887  0.02630887  0.02630887       0.006
   0.02367798  0.02367798  0.02367798       0.006
   0.02104709  0.02104709  0.02104709       0.006
   0.01841621  0.01841621  0.01841621       0.006
   0.01578532  0.01578532  0.01578532       0.006
   0.01315443  0.01315443  0.01315443       0.006
   0.01052355  0.01052355  0.01052355       0.006
   0.00789266  0.00789266  0.00789266       0.006
   0.00526177  0.00526177  0.00526177       0.006
   0.00263089  0.00263089  0.00263089       0.006
   0.00000000  0.00000000 -0.00000000       0.006
   0.00000000  0.00000000  0.00000000       0.006
   0.00000000  0.00526177 -0.00000000       0.006
   0.00000000  0.01052355 -0.00000000       0.006
  -0.00000000  0.01578532  0.00000000       0.006
   0.00000000  0.02104709 -0.00000000       0.006
  -0.00000000  0.02630887  0.00000000       0.006
  -0.00000000  0.03157064  0.00000000       0.006
  -0.00000000  0.03683241  0.00000000       0.006
   0.00000000  0.04209419 -0.00000000       0.006
  -0.00000000  0.04735596  0.00000000       0.006
  -0.00000000  0.05261773  0.00000000       0.006
  -0.00000000  0.05787951  0.00000000       0.006
  -0.00000000  0.06314128  0.00000000       0.006
   0.00000000  0.06840305 -0.00000000       0.006
  -0.00000000  0.07366483  0.00000000       0.006
  -0.00000000  0.07892660  0.00000000       0.006
   0.00000000  0.08418837 -0.00000000       0.006
  -0.00000000  0.08945014  0.00000000       0.006
  -0.00000000  0.09471192  0.00000000       0.006
   0.00000000  0.09997369 -0.00000000       0.006
  -0.00000000  0.10523546  0.00000000       0.006
   0.00000000  0.11049724 -0.00000000       0.006
  -0.00000000  0.11575901  0.00000000       0.006
   0.00000000  0.12102078 -0.00000000       0.006
  -0.00000000  0.12628256  0.00000000       0.006
  -0.00000000  0.13154433  0.00000000       0.006
   0.00000000  0.13680610 -0.00000000       0.006
  -0.00000000  0.14206788  0.00000000       0.006
  -0.00000000  0.14732965  0.00000000       0.006
   0.00000000  0.15259142 -0.00000000       0.006
  -0.00000000  0.15785320  0.00000000       0.006
  -0.00000000  0.16311497  0.00000000       0.006
   0.00000000  0.16837674 -0.00000000       0.006
   0.00000000  0.17363852 -0.00000000       0.006
  -0.00000000  0.17890029  0.00000000       0.006
   0.00000000  0.18416206  0.00000000       0.006
   0.00000000  0.18416206  0.00000000       0.006
   0.00263089  0.18416206  0.00000000       0.006
   0.00526177  0.18416206  0.00000000       0.006
   0.00789266  0.18416206 -0.00000000       0.006
   0.01052355  0.18416206 -0.00000000       0.006
   0.01315443  0.18416206  0.00000000       0.006
   0.01578532  0.18416206  0.00000000       0.006
   0.01841621  0.18416206 -0.00000000       0.006
   0.02104709  0.18416206 -0.00000000       0.006
   0.02367798  0.18416206  0.00000000       0.006
   0.02630887  0.18416206  0.00000000       0.006
   0.02893975  0.18416206  0.00000000       0.006
   0.03157064  0.18416206 -0.00000000       0.006
   0.03420153  0.18416206  0.00000000       0.006
   0.03683241  0.18416206 -0.00000000       0.006
   0.03946330  0.18416206  0.00000000       0.006
   0.04209419  0.18416206 -0.00000000       0.006
   0.04472507  0.18416206 -0.00000000       0.006
   0.04735596  0.18416206  0.00000000       0.006
   0.04998685  0.18416206  0.00000000       0.006
   0.05261773  0.18416206 -0.00000000       0.006
   0.05524862  0.18416206 -0.00000000       0.006
   0.05787951  0.18416206 -0.00000000       0.006
   0.06051039  0.18416206  0.00000000       0.006
   0.06314128  0.18416206  0.00000000       0.006
   0.06577217  0.18416206 -0.00000000       0.006
   0.06840305  0.18416206  0.00000000       0.006
   0.07103394  0.18416206  0.00000000       0.006
   0.07366483  0.18416206 -0.00000000       0.006
   0.07629571  0.18416206 -0.00000000       0.006
   0.07892660  0.18416206  0.00000000       0.006
   0.08155748  0.18416206 -0.00000000       0.006
   0.08418837  0.18416206  0.00000000       0.006
   0.08681926  0.18416206  0.00000000       0.006
   0.08945014  0.18416206 -0.00000000       0.006
   0.09208103  0.18416206  0.00000000       0.006
   0.09208103  0.18416206  0.00000000       0.006
   0.09339647  0.18284662  0.00000000       0.006
   0.09471192  0.18153118 -0.00000000       0.006
   0.09602736  0.18021573 -0.00000000       0.006
   0.09734280  0.17890029  0.00000000       0.006
   0.09865825  0.17758485 -0.00000000       0.006
   0.09997369  0.17626940  0.00000000       0.006
   0.10128913  0.17495396  0.00000000       0.006
   0.10260458  0.17363852 -0.00000000       0.006
   0.10392002  0.17232307 -0.00000000       0.006
   0.10523546  0.17100763  0.00000000       0.006
   0.10655091  0.16969219 -0.00000000       0.006
   0.10786635  0.16837674 -0.00000000       0.006
   0.10918179  0.16706130  0.00000000       0.006
   0.11049724  0.16574586 -0.00000000       0.006
   0.11181268  0.16443041  0.00000000       0.006
   0.11312812  0.16311497  0.00000000       0.006
   0.11444357  0.16179953 -0.00000000       0.006
   0.11575901  0.16048408 -0.00000000       0.006
   0.11707445  0.15916864  0.00000000       0.006
   0.11838990  0.15785320 -0.00000000       0.006
   0.11970534  0.15653775 -0.00000000       0.006
   0.12102078  0.15522231  0.00000000       0.006
   0.12233623  0.15390687 -0.00000000       0.006
   0.12365167  0.15259142 -0.00000000       0.006
   0.12496711  0.15127598  0.00000000       0.006
   0.12628256  0.14996054 -0.00000000       0.006
   0.12759800  0.14864509 -0.00000000       0.006
   0.12891344  0.14732965  0.00000000       0.006
   0.13022889  0.14601421 -0.00000000       0.006
   0.13154433  0.14469876 -0.00000000       0.006
   0.13285977  0.14338332  0.00000000       0.006
   0.13417522  0.14206788 -0.00000000       0.006
   0.13549066  0.14075243 -0.00000000       0.006
   0.13680610  0.13943699  0.00000000       0.006
   0.13812155  0.13812155  0.00000000       0.006
   0.13812155  0.13812155  0.00000000       0.006
   0.13417522  0.13417522  0.00000000       0.006
   0.13022889  0.13022889 -0.00000000       0.006
   0.12628256  0.12628256  0.00000000       0.006
   0.12233623  0.12233623 -0.00000000       0.006
   0.11838990  0.11838990 -0.00000000       0.006
   0.11444357  0.11444357 -0.00000000       0.006
   0.11049724  0.11049724 -0.00000000       0.006
   0.10655091  0.10655091 -0.00000000       0.006
   0.10260458  0.10260458 -0.00000000       0.006
   0.09865825  0.09865825 -0.00000000       0.006
   0.09471192  0.09471192  0.00000000       0.006
   0.09076559  0.09076559 -0.00000000       0.006
   0.08681926  0.08681926 -0.00000000       0.006
   0.08287293  0.08287293 -0.00000000       0.006
   0.07892660  0.07892660  0.00000000       0.006
   0.07498027  0.07498027 -0.00000000       0.006
   0.07103394  0.07103394 -0.00000000       0.006
   0.06708761  0.06708761  0.00000000       0.006
   0.06314128  0.06314128  0.00000000       0.006
   0.05919495  0.05919495 -0.00000000       0.006
   0.05524862  0.05524862 -0.00000000       0.006
   0.05130229  0.05130229 -0.00000000       0.006
   0.04735596  0.04735596  0.00000000       0.006
   0.04340963  0.04340963  0.00000000       0.006
   0.03946330  0.03946330  0.00000000       0.006
   0.03551697  0.03551697  0.00000000       0.006
   0.03157064  0.03157064 -0.00000000       0.006
   0.02762431  0.02762431  0.00000000       0.006
   0.02367798  0.02367798  0.00000000       0.006
   0.01973165  0.01973165 -0.00000000       0.006
   0.01578532  0.01578532  0.00000000       0.006
   0.01183899  0.01183899  0.00000000       0.006
   0.00789266  0.00789266 -0.00000000       0.006
   0.00394633  0.00394633  0.00000000       0.006
  -0.00000000 -0.00000000  0.00000000       0.006
 
 k-points in reciprocal lattice and weights: Si band path L-G-X-W-K-G, 36 points per 
   0.50000000  0.50000000  0.50000000       0.006
   0.48571429  0.48571429  0.48571429       0.006
   0.47142857  0.47142857  0.47142857       0.006
   0.45714286  0.45714286  0.45714286       0.006
   0.44285714  0.44285714  0.44285714       0.006
   0.42857143  0.42857143  0.42857143       0.006
   0.41428571  0.41428571  0.41428571       0.006
   0.40000000  0.40000000  0.40000000       0.006
   0.38571429  0.38571429  0.38571429       0.006
   0.37142857  0.37142857  0.37142857       0.006
   0.35714286  0.35714286  0.35714286       0.006
   0.34285714  0.34285714  0.34285714       0.006
   0.32857143  0.32857143  0.32857143       0.006
   0.31428571  0.31428571  0.31428571       0.006
   0.30000000  0.30000000  0.30000000       0.006
   0.28571429  0.28571429  0.28571429       0.006
   0.27142857  0.27142857  0.27142857       0.006
   0.25714286  0.25714286  0.25714286       0.006
   0.24285714  0.24285714  0.24285714       0.006
   0.22857143  0.22857143  0.22857143       0.006
   0.21428571  0.21428571  0.21428571       0.006
   0.20000000  0.20000000  0.20000000       0.006
   0.18571429  0.18571429  0.18571429       0.006
   0.17142857  0.17142857  0.17142857       0.006
   0.15714286  0.15714286  0.15714286       0.006
   0.14285714  0.14285714  0.14285714       0.006
   0.12857143  0.12857143  0.12857143       0.006
   0.11428571  0.11428571  0.11428571       0.006
   0.10000000  0.10000000  0.10000000       0.006
   0.08571429  0.08571429  0.08571429       0.006
   0.07142857  0.07142857  0.07142857       0.006
   0.05714286  0.05714286  0.05714286       0.006
   0.04285714  0.04285714  0.04285714       0.006
   0.02857143  0.02857143  0.02857143       0.006
   0.01428571  0.01428571  0.01428571       0.006
   0.00000000  0.00000000  0.00000000       0.006
   0.00000000  0.00000000  0.00000000       0.006
   0.01428571  0.00000000  0.01428571       0.006
   0.02857143  0.00000000  0.02857143       0.006
   0.04285714  0.00000000  0.04285714       0.006
   0.05714286  0.00000000  0.05714286       0.006
   0.07142857  0.00000000  0.07142857       0.006
   0.08571429  0.00000000  0.08571429       0.006
   0.10000000  0.00000000  0.10000000       0.006
   0.11428571  0.00000000  0.11428571       0.006
   0.12857143  0.00000000  0.12857143       0.006
   0.14285714  0.00000000  0.14285714       0.006
   0.15714286  0.00000000  0.15714286       0.006
   0.17142857  0.00000000  0.17142857       0.006
   0.18571429  0.00000000  0.18571429       0.006
   0.20000000  0.00000000  0.20000000       0.006
   0.21428571  0.00000000  0.21428571       0.006
   0.22857143  0.00000000  0.22857143       0.006
   0.24285714  0.00000000  0.24285714       0.006
   0.25714286  0.00000000  0.25714286       0.006
   0.27142857  0.00000000  0.27142857       0.006
   0.28571429  0.00000000  0.28571429       0.006
   0.30000000  0.00000000  0.30000000       0.006
   0.31428571  0.00000000  0.31428571       0.006
   0.32857143  0.00000000  0.32857143       0.006
   0.34285714  0.00000000  0.34285714       0.006
   0.35714286  0.00000000  0.35714286       0.006
   0.37142857  0.00000000  0.37142857       0.006
   0.38571429  0.00000000  0.38571429       0.006
   0.40000000  0.00000000  0.40000000       0.006
   0.41428571  0.00000000  0.41428571       0.006
   0.42857143  0.00000000  0.42857143       0.006
   0.44285714  0.00000000  0.44285714       0.006
   0.45714286  0.00000000  0.45714286       0.006
   0.47142857  0.00000000  0.47142857       0.006
   0.48571429  0.00000000  0.48571429       0.006
   0.50000000  0.00000000  0.50000000       0.006
   0.50000000  0.00000000  0.50000000       0.006
   0.50000000  0.00714286  0.50714286       0.006
   0.50000000  0.01428571  0.51428571       0.006
   0.50000000  0.02142857  0.52142857       0.006
   0.50000000  0.02857143  0.52857143       0.006
   0.50000000  0.03571429  0.53571429       0.006
   0.50000000  0.04285714  0.54285714       0.006
   0.50000000  0.05000000  0.55000000       0.006
   0.50000000  0.05714286  0.55714286       0.006
   0.50000000  0.06428571  0.56428571       0.006
   0.50000000  0.07142857  0.57142857       0.006
   0.50000000  0.07857143  0.57857143       0.006
   0.50000000  0.08571429  0.58571429       0.006
   0.50000000  0.09285714  0.59285714       0.006
   0.50000000  0.10000000  0.60000000       0.006
   0.50000000  0.10714286  0.60714286       0.006
   0.50000000  0.11428571  0.61428571       0.006
   0.50000000  0.12142857  0.62142857       0.006
   0.50000000  0.12857143  0.62857143       0.006
   0.50000000  0.13571429  0.63571429       0.006
   0.50000000  0.14285714  0.64285714       0.006
   0.50000000  0.15000000  0.65000000       0.006
   0.50000000  0.15714286  0.65714286       0.006
   0.50000000  0.16428571  0.66428571       0.006
   0.50000000  0.17142857  0.67142857       0.006
   0.50000000  0.17857143  0.67857143       0.006
   0.50000000  0.18571429  0.68571429       0.006
   0.50000000  0.19285714  0.69285714       0.006
   0.50000000  0.20000000  0.70000000       0.006
   0.50000000  0.20714286  0.70714286       0.006
   0.50000000  0.21428571  0.71428571       0.006
   0.50000000  0.22142857  0.72142857       0.006
   0.50000000  0.22857143  0.72857143       0.006
   0.50000000  0.23571429  0.73571429       0.006
   0.50000000  0.24285714  0.74285714       0.006
   0.50000000  0.25000000  0.75000000       0.006
   0.50000000  0.25000000  0.75000000       0.006
   0.49642857  0.25357143  0.75000000       0.006
   0.49285714  0.25714286  0.75000000       0.006
   0.48928571  0.26071429  0.75000000       0.006
   0.48571429  0.26428571  0.75000000       0.006
   0.48214286  0.26785714  0.75000000       0.006
   0.47857143  0.27142857  0.75000000       0.006
   0.47500000  0.27500000  0.75000000       0.006
   0.47142857  0.27857143  0.75000000       0.006
   0.46785714  0.28214286  0.75000000       0.006
   0.46428571  0.28571429  0.75000000       0.006
   0.46071429  0.28928571  0.75000000       0.006
   0.45714286  0.29285714  0.75000000       0.006
   0.45357143  0.29642857  0.75000000       0.006
   0.45000000  0.30000000  0.75000000       0.006
   0.44642857  0.30357143  0.75000000       0.006
   0.44285714  0.30714286  0.75000000       0.006
   0.43928571  0.31071429  0.75000000       0.006
   0.43571429  0.31428571  0.75000000       0.006
   0.43214286  0.31785714  0.75000000       0.006
   0.42857143  0.32142857  0.75000000       0.006
   0.42500000  0.32500000  0.75000000       0.006
   0.42142857  0.32857143  0.75000000       0.006
   0.41785714  0.33214286  0.75000000       0.006
   0.41428571  0.33571429  0.75000000       0.006
   0.41071429  0.33928571  0.75000000       0.006
   0.40714286  0.34285714  0.75000000       0.006
   0.40357143  0.34642857  0.75000000       0.006
   0.40000000  0.35000000  0.75000000       0.006
   0.39642857  0.35357143  0.75000000       0.006
   0.39285714  0.35714286  0.75000000       0.006
   0.38928571  0.36071429  0.75000000       0.006
   0.38571429  0.36428571  0.75000000       0.006
   0.38214286  0.36785714  0.75000000       0.006
   0.37857143  0.37142857  0.75000000       0.006
   0.37500000  0.37500000  0.75000000       0.006
   0.37500000  0.37500000  0.75000000       0.006
   0.36428571  0.36428571  0.72857143       0.006
   0.35357143  0.35357143  0.70714286       0.006
   0.34285714  0.34285714  0.68571429       0.006
   0.33214286  0.33214286  0.66428571       0.006
   0.32142857  0.32142857  0.64285714       0.006
   0.31071429  0.31071429  0.62142857       0.006
   0.30000000  0.30000000  0.60000000       0.006
   0.28928571  0.28928571  0.57857143       0.006
   0.27857143  0.27857143  0.55714286       0.006
   0.26785714  0.26785714  0.53571429       0.006
   0.25714286  0.25714286  0.51428571       0.006
   0.24642857  0.24642857  0.49285714       0.006
   0.23571429  0.23571429  0.47142857       0.006
   0.22500000  0.22500000  0.45000000       0.006
   0.21428571  0.21428571  0.42857143       0.006
   0.20357143  0.20357143  0.40714286       0.006
   0.19285714  0.19285714  0.38571429       0.006
   0.18214286  0.18214286  0.36428571       0.006
   0.17142857  0.17142857  0.34285714       0.006
   0.16071429  0.16071429  0.32142857       0.006
   0.15000000  0.15000000  0.30000000       0.006
   0.13928571  0.13928571  0.27857143       0.006
   0.12857143  0.12857143  0.25714286       0.006
   0.11785714  0.11785714  0.23571429       0.006
   0.10714286  0.10714286  0.21428571       0.006
   0.09642857  0.09642857  0.19285714       0.006
   0.08571429  0.08571429  0.17142857       0.006
   0.07500000  0.07500000  0.15000000       0.006
   0.06428571  0.06428571  0.12857143       0.006
   0.05357143  0.05357143  0.10714286       0.006
   0.04285714  0.04285714  0.08571429       0.006
   0.03214286  0.03214286  0.06428571       0.006
   0.02142857  0.02142857  0.04285714       0.006
   0.01071429  0.01071429  0.02142857       0.006
   0.00000000  0.00000000 -0.00000000       0.006
 
 position of ions in fractional coordinates (direct lattice) 
   0.00000000  0.00000000  0.00000000
   0.25000000  0.25000000  0.25000000
 
 position of ions in cartesian coordinates  (Angst):
   0.00000000  0.00000000  0.00000000
   1.35750000  1.35750000  1.35750000
 


--------------------------------------------------------------------------------------------------------


 k-point     1 :   0.5000 0.5000 0.5000  plane waves:     718
 k-point     2 :   0.4857 0.4857 0.4857  plane waves:     718
 k-point     3 :   0.4714 0.4714 0.4714  plane waves:     724
 k-point     4 :   0.4571 0.4571 0.4571  plane waves:     730
 k-point     5 :   0.4429 0.4429 0.4429  plane waves:     736
 k-point     6 :   0.4286 0.4286 0.4286  plane waves:     736
 k-point     7 :   0.4143 0.4143 0.4143  plane waves:     739
 k-point     8 :   0.4000 0.4000 0.4000  plane waves:     739
 k-point     9 :   0.3857 0.3857 0.3857  plane waves:     739
 k-point    10 :   0.3714 0.3714 0.3714  plane waves:     745
 k-point    11 :   0.3571 0.3571 0.3571  plane waves:     748
 k-point    12 :   0.3429 0.3429 0.3429  plane waves:     745
 k-point    13 :   0.3286 0.3286 0.3286  plane waves:     745
 k-point    14 :   0.3143 0.3143 0.3143  plane waves:     745
 k-point    15 :   0.3000 0.3000 0.3000  plane waves:     745
 k-point    16 :   0.2857 0.2857 0.2857  plane waves:     739
 k-point    17 :   0.2714 0.2714 0.2714  plane waves:     739
 k-point    18 :   0.2571 0.2571 0.2571  plane waves:     733
 k-point    19 :   0.2429 0.2429 0.2429  plane waves:     733
 k-point    20 :   0.2286 0.2286 0.2286  plane waves:     733
 k-point    21 :   0.2143 0.2143 0.2143  plane waves:     724
 k-point    22 :   0.2000 0.2000 0.2000  plane waves:     718
 k-point    23 :   0.1857 0.1857 0.1857  plane waves:     718
 k-point    24 :   0.1714 0.1714 0.1714  plane waves:     718
 k-point    25 :   0.1571 0.1571 0.1571  plane waves:     718
 k-point    26 :   0.1429 0.1429 0.1429  plane waves:     718
 k-point    27 :   0.1286 0.1286 0.1286  plane waves:     724
 k-point    28 :   0.1143 0.1143 0.1143  plane waves:     727
 k-point    29 :   0.1000 0.1000 0.1000  plane waves:     728
 k-point    30 :   0.0857 0.0857 0.0857  plane waves:     728
 k-point    31 :   0.0714 0.0714 0.0714  plane waves:     731
 k-point    32 :   0.0571 0.0571 0.0571  plane waves:     725
 k-point    33 :   0.0429 0.0429 0.0429  plane waves:     725
 k-point    34 :   0.0286 0.0286 0.0286  plane waves:     725
 k-point    35 :   0.0143 0.0143 0.0143  plane waves:     725
 k-point    36 :   0.0000 0.0000 0.0000  plane waves:     725
 k-point    37 :   0.0000 0.0000 0.0000  plane waves:     725
 k-point    38 :   0.0143 0.0000 0.0143  plane waves:     725
 k-point    39 :   0.0286 0.0000 0.0286  plane waves:     725
 k-point    40 :   0.0429 0.0000 0.0429  plane waves:     725
 k-point    41 :   0.0571 0.0000 0.0571  plane waves:     729
 k-point    42 :   0.0714 0.0000 0.0714  plane waves:     729
 k-point    43 :   0.0857 0.0000 0.0857  plane waves:     729
 k-point    44 :   0.1000 0.0000 0.1000  plane waves:     721
 k-point    45 :   0.1143 0.0000 0.1143  plane waves:     725
 k-point    46 :   0.1286 0.0000 0.1286  plane waves:     717
 k-point    47 :   0.1429 0.0000 0.1429  plane waves:     721
 k-point    48 :   0.1571 0.0000 0.1571  plane waves:     721
 k-point    49 :   0.1714 0.0000 0.1714  plane waves:     717
 k-point    50 :   0.1857 0.0000 0.1857  plane waves:     725
 k-point    51 :   0.2000 0.0000 0.2000  plane waves:     721
 k-point    52 :   0.2143 0.0000 0.2143  plane waves:     721
 k-point    53 :   0.2286 0.0000 0.2286  plane waves:     721
 k-point    54 :   0.2429 0.0000 0.2429  plane waves:     729
 k-point    55 :   0.2571 0.0000 0.2571  plane waves:     725
 k-point    56 :   0.2714 0.0000 0.2714  plane waves:     721
 k-point    57 :   0.2857 0.0000 0.2857  plane waves:     721
 k-point    58 :   0.3000 0.0000 0.3000  plane waves:     721
 k-point    59 :   0.3143 0.0000 0.3143  plane waves:     717
 k-point    60 :   0.3286 0.0000 0.3286  plane waves:     717
 k-point    61 :   0.3429 0.0000 0.3429  plane waves:     717
 k-point    62 :   0.3571 0.0000 0.3571  plane waves:     717
 k-point    63 :   0.3714 0.0000 0.3714  plane waves:     725
 k-point    64 :   0.3857 0.0000 0.3857  plane waves:     725
 k-point    65 :   0.4000 0.0000 0.4000  plane waves:     729
 k-point    66 :   0.4143 0.0000 0.4143  plane waves:     725
 k-point    67 :   0.4286 0.0000 0.4286  plane waves:     724
 k-point    68 :   0.4429 0.0000 0.4429  plane waves:     732
 k-point    69 :   0.4571 0.0000 0.4571  plane waves:     740
 k-point    70 :   0.4714 0.0000 0.4714  plane waves:     740
 k-point    71 :   0.4857 0.0000 0.4857  plane waves:     740
 k-point    72 :   0.5000 0.0000 0.5000  plane waves:     740
 k-point    73 :   0.5000 0.0000 0.5000  plane waves:     740
 k-point    74 :   0.5000 0.0071 0.5071  plane waves:     740
 k-point    75 :   0.5000 0.0143 0.5143  plane waves:     740
 k-point    76 :   0.5000 0.0214 0.5214  plane waves:     732
 k-point    77 :   0.5000 0.0286 0.5286  plane waves:     732
 k-point    78 :   0.5000 0.0357 0.5357  plane waves:     732
 k-point    79 :   0.5000 0.0429 0.5429  plane waves:     732
 k-point    80 :   0.5000 0.0500 0.5500  plane waves:     728
 k-point    81 :   0.5000 0.0571 0.5571  plane waves:     728
 k-point    82 :   0.5000 0.0643 0.5643  plane waves:     724
 k-point    83 :   0.5000 0.0714 0.5714  plane waves:     724
 k-point    84 :   0.5000 0.0786 0.5786  plane waves:     724
 k-point    85 :   0.5000 0.0857 0.5857  plane waves:     728
 k-point    86 :   0.5000 0.0929 0.5929  plane waves:     724
 k-point    87 :   0.5000 0.1000 0.6000  plane waves:     724
 k-point    88 :   0.5000 0.1071 0.6071  plane waves:     726
 k-point    89 :   0.5000 0.1143 0.6143  plane waves:     730
 k-point    90 :   0.5000 0.1214 0.6214  plane waves:     730
 k-point    91 :   0.5000 0.1286 0.6286  plane waves:     730
 k-point    92 :   0.5000 0.1357 0.6357  plane waves:     730
 k-point    93 :   0.5000 0.1429 0.6429  plane waves:     730
 k-point    94 :   0.5000 0.1500 0.6500  plane waves:     730
 k-point    95 :   0.5000 0.1571 0.6571  plane waves:     724
 k-point    96 :   0.5000 0.1643 0.6643  plane waves:     720
 k-point    97 :   0.5000 0.1714 0.6714  plane waves:     726
 k-point    98 :   0.5000 0.1786 0.6786  plane waves:     726
 k-point    99 :   0.5000 0.1857 0.6857  plane waves:     726
 k-point   100 :   0.5000 0.1929 0.6929  plane waves:     726
 k-point   101 :   0.5000 0.2000 0.7000  plane waves:     726
 k-point   102 :   0.5000 0.2071 0.7071  plane waves:     726
 k-point   103 :   0.5000 0.2143 0.7143  plane waves:     724
 k-point   104 :   0.5000 0.2214 0.7214  plane waves:     724
 k-point   105 :   0.5000 0.2286 0.7286  plane waves:     724
 k-point   106 :   0.5000 0.2357 0.7357  plane waves:     724
 k-point   107 :   0.5000 0.2429 0.7429  plane waves:     724
 k-point   108 :   0.5000 0.2500 0.7500  plane waves:     724
 k-point   109 :   0.5000 0.2500 0.7500  plane waves:     724
 k-point   110 :   0.4964 0.2536 0.7500  plane waves:     724
 k-point   111 :   0.4929 0.2571 0.7500  plane waves:     724
 k-point   112 :   0.4893 0.2607 0.7500  plane waves:     724
 k-point   113 :   0.4857 0.2643 0.7500  plane waves:     724
 k-point   114 :   0.4821 0.2679 0.7500  plane waves:     727
 k-point   115 :   0.4786 0.2714 0.7500  plane waves:     729
 k-point   116 :   0.4750 0.2750 0.7500  plane waves:     729
 k-point   117 :   0.4714 0.2786 0.7500  plane waves:     727
 k-point   118 :   0.4679 0.2821 0.7500  plane waves:     725
 k-point   119 :   0.4643 0.2857 0.7500  plane waves:     725
 k-point   120 :   0.4607 0.2893 0.7500  plane waves:     721
 k-point   121 :   0.4571 0.2929 0.7500  plane waves:     721
 k-point   122 :   0.4536 0.2964 0.7500  plane waves:     721
 k-point   123 :   0.4500 0.3000 0.7500  plane waves:     721
 k-point   124 :   0.4464 0.3036 0.7500  plane waves:     721
 k-point   125 :   0.4429 0.3071 0.7500  plane waves:     721
 k-point   126 :   0.4393 0.3107 0.7500  plane waves:     722
 k-point   127 :   0.4357 0.3143 0.7500  plane waves:     722
 k-point   128 :   0.4321 0.3179 0.7500  plane waves:     722
 k-point   129 :   0.4286 0.3214 0.7500  plane waves:     724
 k-point   130 :   0.4250 0.3250 0.7500  plane waves:     724
 k-point   131 :   0.4214 0.3286 0.7500  plane waves:     724
 k-point   132 :   0.4179 0.3321 0.7500  plane waves:     720
 k-point   133 :   0.4143 0.3357 0.7500  plane waves:     723
 k-point   134 :   0.4107 0.3393 0.7500  plane waves:     723
 k-point   135 :   0.4071 0.3429 0.7500  plane waves:     723
 k-point   136 :   0.4036 0.3464 0.7500  plane waves:     723
 k-point   137 :   0.4000 0.3500 0.7500  plane waves:     725
 k-point   138 :   0.3964 0.3536 0.7500  plane waves:     725
 k-point   139 :   0.3929 0.3571 0.7500  plane waves:     725
 k-point   140 :   0.3893 0.3607 0.7500  plane waves:     721
 k-point   141 :   0.3857 0.3643 0.7500  plane waves:     721
 k-point   142 :   0.3821 0.3679 0.7500  plane waves:     721
 k-point   143 :   0.3786 0.3714 0.7500  plane waves:     724
 k-point   144 :   0.3750 0.3750 0.7500  plane waves:     724
 k-point   145 :   0.3750 0.3750 0.7500  plane waves:     724
 k-point   146 :   0.3643 0.3643 0.7286  plane waves:     724
 k-point   147 :   0.3536 0.3536 0.7071  plane waves:     724
 k-point   148 :   0.3429 0.3429 0.6857  plane waves:     720
 k-point   149 :   0.3321 0.3321 0.6643  plane waves:     718
 k-point   150 :   0.3214 0.3214 0.6429  plane waves:     722
 k-point   151 :   0.3107 0.3107 0.6214  plane waves:     722
 k-point   152 :   0.3000 0.3000 0.6000  plane waves:     728
 k-point   153 :   0.2893 0.2893 0.5786  plane waves:     728
 k-point   154 :   0.2786 0.2786 0.5571  plane waves:     728
 k-point   155 :   0.2679 0.2679 0.5357  plane waves:     728
 k-point   156 :   0.2571 0.2571 0.5143  plane waves:     728
 k-point   157 :   0.2464 0.2464 0.4929  plane waves:     730
 k-point   158 :   0.2357 0.2357 0.4714  plane waves:     730
 k-point   159 :   0.2250 0.2250 0.4500  plane waves:     730
 k-point   160 :   0.2143 0.2143 0.4286  plane waves:     730
 k-point   161 :   0.2036 0.2036 0.4071  plane waves:     728
 k-point   162 :   0.1929 0.1929 0.3857  plane waves:     732
 k-point   163 :   0.1821 0.1821 0.3643  plane waves:     732
 k-point   164 :   0.1714 0.1714 0.3429  plane waves:     732
 k-point   165 :   0.1607 0.1607 0.3214  plane waves:     732
 k-point   166 :   0.1500 0.1500 0.3000  plane waves:     736
 k-point   167 :   0.1393 0.1393 0.2786  plane waves:     728
 k-point   168 :   0.1286 0.1286 0.2571  plane waves:     737
 k-point   169 :   0.1179 0.1179 0.2357  plane waves:     733
 k-point   170 :   0.1071 0.1071 0.2143  plane waves:     725
 k-point   171 :   0.0964 0.0964 0.1929  plane waves:     719
 k-point   172 :   0.0857 0.0857 0.1714  plane waves:     719
 k-point   173 :   0.0750 0.0750 0.1500  plane waves:     721
 k-point   174 :   0.0643 0.0643 0.1286  plane waves:     729
 k-point   175 :   0.0536 0.0536 0.1071  plane waves:     729
 k-point   176 :   0.0429 0.0429 0.0857  plane waves:     727
 k-point   177 :   0.0321 0.0321 0.0643  plane waves:     725
 k-point   178 :   0.0214 0.0214 0.0429  plane waves:     725
 k-point   179 :   0.0107 0.0107 0.0214  plane waves:     725
 k-point   180 :   0.0000 0.0000-0.0000  plane waves:     725

 maximum and minimum number of plane-waves per node :       193      170

 maximum number of plane-waves:       748
 maximum index in each direction: 
   IXMAX=    6   IYMAX=    6   IZMAX=    6
   IXMIN=   -6   IYMIN=   -6   IZMIN=   -6


 parallel 3D FFT for wavefunctions:
    minimum data exchange during FFTs selected (reduces bandwidth)
 parallel 3D FFT for charge:
    minimum data exchange during FFTs selected (reduces bandwidth)


 total amount of memory used by VASP MPI-rank0    43049. kBytes
=======================================================================

   base                                    :      30000. kBytes
   nonl-proj                               :       2183. kBytes
   fftplans                                :       1675. kBytes
   grid                                    :       2380. kBytes
   one-center                              :          3. kBytes
   wavefun                                 :       6808. kBytes
 
     INWAV:  cpu time      0.1098: real time      0.1100
 initial charge density was supplied:
 number of electron       8.0000001 magnetization 
 keeping initial charge density in first step


--------------------------------------------------------------------------------------------------------


 Maximum index for augmentation-charges         4527 (set IRDMAX)


--------------------------------------------------------------------------------------------------------


 First call to EWALD:  gamma=   0.518
 Maximum number of real-space cells   3x   3x   3
 Maximum number of reciprocal cells   3x   3x   3

    FEWALD:  cpu time      0.0007: real time      0.0007


--------------------------------------- Ionic step        1  -------------------------------------------




--------------------------------------- Iteration      1(   1)  ---------------------------------------


    POTLOK:  cpu time      0.0182: real time      0.0182
    SETDIJ:  cpu time      0.0018: real time      0.0018
     EDDAV:  cpu time      0.5672: real time      0.5672
       DOS:  cpu time      0.0005: real time      0.0005
    --------------------------------------------
      LOOP:  cpu time      0.5884: real time      0.5885

 eigenvalue-minimisations  :  5724
 total energy-change (2. order) :-0.5657581E+01  (-0.5053163E+02)
 number of electron       8.0000001 magnetization 
 augmentation part        8.0000001 magnetization 

 Free energy of the ion-electron system (eV)
  ---------------------------------------------------
  alpha Z        PSCENC =         3.36414726
  Ewald energy   TEWEN  =      -228.56352493
  -Hartree energ DENC   =       -14.93056039
  -exchange      EXHF   =         0.00000000
  -V(xc)+E(xc)   XCENC  =       -17.95974656
  PAW double counting   =       870.58449660     -835.62243720
  entropy T*S    EENTRO =        -0.00000012
  eigenvalues    EBANDS =        11.33855170
  atomic energy  EATOM  =       206.13149246
  Solvation  Ediel_sol  =         0.00000000
  ext. energy  EPLUGINS =         0.00000000
  ---------------------------------------------------
  free energy    TOTEN  =        -5.65758117 eV

  energy without entropy =       -5.65758106  energy(sigma->0) =       -5.65758111


--------------------------------------------------------------------------------------------------------




--------------------------------------- Iteration      1(   2)  ---------------------------------------


    EDDIAG:  cpu time      0.1035: real time      0.1036
  RMM-DIIS:  cpu time      0.3680: real time      0.3680
    ORTHCH:  cpu time      0.0018: real time      0.0018
       DOS:  cpu time      0.0006: real time      0.0006
    --------------------------------------------
      LOOP:  cpu time      0.4734: real time      0.4735

 eigenvalue-minimisations  :  5613
 total energy-change (2. order) :-0.2632738E+01  (-0.2631252E+01)
 number of electron       8.0000001 magnetization 
 augmentation part        8.0000001 magnetization 

 Free energy of the ion-electron system (eV)
  ---------------------------------------------------
  alpha Z        PSCENC =         3.36414726
  Ewald energy   TEWEN  =      -228.56352493
  -Hartree energ DENC   =       -14.93056039
  -exchange      EXHF   =         0.00000000
  -V(xc)+E(xc)   XCENC  =       -17.95974656
  PAW double counting   =       870.58449660     -835.62243720
  entropy T*S    EENTRO =        -0.00043851
  eigenvalues    EBANDS =         8.70625218
  atomic energy  EATOM  =       206.13149246
  Solvation  Ediel_sol  =         0.00000000
  ext. energy  EPLUGINS =         0.00000000
  ---------------------------------------------------
  free energy    TOTEN  =        -8.29031909 eV

  energy without entropy =       -8.28988058  energy(sigma->0) =       -8.29009984


--------------------------------------------------------------------------------------------------------




--------------------------------------- Iteration      1(   3)  ---------------------------------------


    EDDIAG:  cpu time      0.0987: real time      0.0987
  RMM-DIIS:  cpu time      0.3705: real time      0.3705
    ORTHCH:  cpu time      0.0017: real time      0.0017
       DOS:  cpu time      0.0003: real time      0.0003
    --------------------------------------------
      LOOP:  cpu time      0.4711: real time      0.4712

 eigenvalue-minimisations  :  5671
 total energy-change (2. order) :-0.4952591E+00  (-0.2766581E+00)
 number of electron       8.0000001 magnetization 
 augmentation part        8.0000001 magnetization 

 Free energy of the ion-electron system (eV)
  ---------------------------------------------------
  alpha Z        PSCENC =         3.36414726
  Ewald energy   TEWEN  =      -228.56352493
  -Hartree energ DENC   =       -14.93056039
  -exchange      EXHF   =         0.00000000
  -V(xc)+E(xc)   XCENC  =       -17.95974656
  PAW double counting   =       870.58449660     -835.62243720
  entropy T*S    EENTRO =        -0.00000000
  eigenvalues    EBANDS =         8.21055460
  atomic energy  EATOM  =       206.13149246
  Solvation  Ediel_sol  =         0.00000000
  ext. energy  EPLUGINS =         0.00000000
  ---------------------------------------------------
  free energy    TOTEN  =        -8.78557816 eV

  energy without entropy =       -8.78557816  energy(sigma->0) =       -8.78557816


--------------------------------------------------------------------------------------------------------




--------------------------------------- Iteration      1(   4)  ---------------------------------------


    EDDIAG:  cpu time      0.0989: real time      0.0990
  RMM-DIIS:  cpu time      0.3803: real time      0.3803
    ORTHCH:  cpu time      0.0018: real time      0.0018
       DOS:  cpu time      0.0003: real time      0.0003
    --------------------------------------------
      LOOP:  cpu time      0.4813: real time      0.4814

 eigenvalue-minimisations  :  5856
 total energy-change (2. order) :-0.5247133E-01  (-0.3850599E-01)
 number of electron       8.0000001 magnetization 
 augmentation part        8.0000001 magnetization 

 Free energy of the ion-electron system (eV)
  ---------------------------------------------------
  alpha Z        PSCENC =         3.36414726
  Ewald energy   TEWEN  =      -228.56352493
  -Hartree energ DENC   =       -14.93056039
  -exchange      EXHF   =         0.00000000
  -V(xc)+E(xc)   XCENC  =       -17.95974656
  PAW double counting   =       870.58449660     -835.62243720
  entropy T*S    EENTRO =        -0.00000000
  eigenvalues    EBANDS =         8.15808327
  atomic energy  EATOM  =       206.13149246
  Solvation  Ediel_sol  =         0.00000000
  ext. energy  EPLUGINS =         0.00000000
  ---------------------------------------------------
  free energy    TOTEN  =        -8.83804949 eV

  energy without entropy =       -8.83804949  energy(sigma->0) =       -8.83804949


--------------------------------------------------------------------------------------------------------




--------------------------------------- Iteration      1(   5)  ---------------------------------------


    EDDIAG:  cpu time      0.0987: real time      0.0988
  RMM-DIIS:  cpu time      0.3802: real time      0.3802
    ORTHCH:  cpu time      0.0017: real time      0.0017
       DOS:  cpu time      0.0003: real time      0.0003
    --------------------------------------------
      LOOP:  cpu time      0.4809: real time      0.4809

 eigenvalue-minimisations  :  5861
 total energy-change (2. order) :-0.8951275E-02  (-0.7689842E-02)
 number of electron       8.0000001 magnetization 
 augmentation part        8.0000001 magnetization 

 Free energy of the ion-electron system (eV)
  ---------------------------------------------------
  alpha Z        PSCENC =         3.36414726
  Ewald energy   TEWEN  =      -228.56352493
  -Hartree energ DENC   =       -14.93056039
  -exchange      EXHF   =         0.00000000
  -V(xc)+E(xc)   XCENC  =       -17.95974656
  PAW double counting   =       870.58449660     -835.62243720
  entropy T*S    EENTRO =        -0.00000000
  eigenvalues    EBANDS =         8.14913199
  atomic energy  EATOM  =       206.13149246
  Solvation  Ediel_sol  =         0.00000000
  ext. energy  EPLUGINS =         0.00000000
  ---------------------------------------------------
  free energy    TOTEN  =        -8.84700076 eV

  energy without entropy =       -8.84700076  energy(sigma->0) =       -8.84700076


--------------------------------------------------------------------------------------------------------




--------------------------------------- Iteration      1(   6)  ---------------------------------------


    EDDIAG:  cpu time      0.0955: real time      0.0956
  RMM-DIIS:  cpu time      0.3769: real time      0.3769
    ORTHCH:  cpu time      0.0017: real time      0.0017
       DOS:  cpu time      0.0003: real time      0.0003
    --------------------------------------------
      LOOP:  cpu time      0.4744: real time      0.4744

 eigenvalue-minimisations  :  5903
 total energy-change (2. order) :-0.1660240E-02  (-0.1552437E-02)
 number of electron       8.0000001 magnetization 
 augmentation part        8.0000001 magnetization 

 Free energy of the ion-electron system (eV)
  ---------------------------------------------------
  alpha Z        PSCENC =         3.36414726
  Ewald energy   TEWEN  =      -228.56352493
  -Hartree energ DENC   =       -14.93056039
  -exchange      EXHF   =         0.00000000
  -V(xc)+E(xc)   XCENC  =       -17.95974656
  PAW double counting   =       870.58449660     -835.62243720
  entropy T*S    EENTRO =        -0.00000000
  eigenvalues    EBANDS =         8.14747175
  atomic energy  EATOM  =       206.13149246
  Solvation  Ediel_sol  =         0.00000000
  ext. energy  EPLUGINS =         0.00000000
  ---------------------------------------------------
  free energy    TOTEN  =        -8.84866100 eV

  energy without entropy =       -8.84866100  energy(sigma->0) =       -8.84866100


--------------------------------------------------------------------------------------------------------




--------------------------------------- Iteration      1(   7)  ---------------------------------------


    EDDIAG:  cpu time      0.0945: real time      0.0946
  RMM-DIIS:  cpu time      0.3714: real time      0.3714
    ORTHCH:  cpu time      0.0015: real time      0.0015
       DOS:  cpu time      0.0006: real time      0.0006
    --------------------------------------------
      LOOP:  cpu time      0.4680: real time      0.4680

 eigenvalue-minimisations  :  5894
 total energy-change (2. order) :-0.3424324E-03  (-0.3291799E-03)
 number of electron       8.0000001 magnetization 
 augmentation part        8.0000001 magnetization 

 Free energy of the ion-electron system (eV)
  ---------------------------------------------------
  alpha Z        PSCENC =         3.36414726
  Ewald energy   TEWEN  =      -228.56352493
  -Hartree energ DENC   =       -14.93056039
  -exchange      EXHF   =         0.00000000
  -V(xc)+E(xc)   XCENC  =       -17.95974656
  PAW double counting   =       870.58449660     -835.62243720
  entropy T*S    EENTRO =        -0.00000000
  eigenvalues    EBANDS =         8.14712932
  atomic energy  EATOM  =       206.13149246
  Solvation  Ediel_sol  =         0.00000000
  ext. energy  EPLUGINS =         0.00000000
  ---------------------------------------------------
  free energy    TOTEN  =        -8.84900343 eV

  energy without entropy =       -8.84900343  energy(sigma->0) =       -8.84900343


--------------------------------------------------------------------------------------------------------




--------------------------------------- Iteration      1(   8)  ---------------------------------------


    EDDIAG:  cpu time      0.0897: real time      0.0898
  RMM-DIIS:  cpu time      0.3596: real time      0.3596
    ORTHCH:  cpu time      0.0012: real time      0.0012
       DOS:  cpu time      0.0003: real time      0.0003
    --------------------------------------------
      LOOP:  cpu time      0.4507: real time      0.4508

 eigenvalue-minimisations  :  5894
 total energy-change (2. order) :-0.6820419E-04  (-0.6610504E-04)
 number of electron       8.0000001 magnetization 
 augmentation part        8.0000001 magnetization 

 Free energy of the ion-electron system (eV)
  ---------------------------------------------------
  alpha Z        PSCENC =         3.36414726
  Ewald energy   TEWEN  =      -228.56352493
  -Hartree energ DENC   =       -14.93056039
  -exchange      EXHF   =         0.00000000
  -V(xc)+E(xc)   XCENC  =       -17.95974656
  PAW double counting   =       870.58449660     -835.62243720
  entropy T*S    EENTRO =        -0.00000000
  eigenvalues    EBANDS =         8.14706112
  atomic energy  EATOM  =       206.13149246
  Solvation  Ediel_sol  =         0.00000000
  ext. energy  EPLUGINS =         0.00000000
  ---------------------------------------------------
  free energy    TOTEN  =        -8.84907164 eV

  energy without entropy =       -8.84907164  energy(sigma->0) =       -8.84907164


--------------------------------------------------------------------------------------------------------




--------------------------------------- Iteration      1(   9)  ---------------------------------------


    EDDIAG:  cpu time      0.0666: real time      0.0667
  RMM-DIIS:  cpu time      0.2758: real time      0.2758
    ORTHCH:  cpu time      0.0014: real time      0.0014
       DOS:  cpu time      0.0003: real time      0.0003
    --------------------------------------------
      LOOP:  cpu time      0.3441: real time      0.3441

 eigenvalue-minimisations  :  5864
 total energy-change (2. order) :-0.1499080E-04  (-0.1460046E-04)
 number of electron       8.0000001 magnetization 
 augmentation part        8.0000001 magnetization 

 Free energy of the ion-electron system (eV)
  ---------------------------------------------------
  alpha Z        PSCENC =         3.36414726
  Ewald energy   TEWEN  =      -228.56352493
  -Hartree energ DENC   =       -14.93056039
  -exchange      EXHF   =         0.00000000
  -V(xc)+E(xc)   XCENC  =       -17.95974656
  PAW double counting   =       870.58449660     -835.62243720
  entropy T*S    EENTRO =        -0.00000000
  eigenvalues    EBANDS =         8.14704613
  atomic energy  EATOM  =       206.13149246
  Solvation  Ediel_sol  =         0.00000000
  ext. energy  EPLUGINS =         0.00000000
  ---------------------------------------------------
  free energy    TOTEN  =        -8.84908663 eV

  energy without entropy =       -8.84908663  energy(sigma->0) =       -8.84908663


--------------------------------------------------------------------------------------------------------




--------------------------------------- Iteration      1(  10)  ---------------------------------------


    EDDIAG:  cpu time      0.0727: real time      0.0728
  RMM-DIIS:  cpu time      0.2510: real time      0.2510
    ORTHCH:  cpu time      0.0012: real time      0.0012
       DOS:  cpu time      0.0002: real time      0.0002
    --------------------------------------------
      LOOP:  cpu time      0.3251: real time      0.3252

 eigenvalue-minimisations  :  5533
 total energy-change (2. order) :-0.3378883E-05  (-0.3301918E-05)
 number of electron       8.0000001 magnetization 
 augmentation part        8.0000001 magnetization 

 Free energy of the ion-electron system (eV)
  ---------------------------------------------------
  alpha Z        PSCENC =         3.36414726
  Ewald energy   TEWEN  =      -228.56352493
  -Hartree energ DENC   =       -14.93056039
  -exchange      EXHF   =         0.00000000
  -V(xc)+E(xc)   XCENC  =       -17.95974656
  PAW double counting   =       870.58449660     -835.62243720
  entropy T*S    EENTRO =        -0.00000000
  eigenvalues    EBANDS =         8.14704275
  atomic energy  EATOM  =       206.13149246
  Solvation  Ediel_sol  =         0.00000000
  ext. energy  EPLUGINS =         0.00000000
  ---------------------------------------------------
  free energy    TOTEN  =        -8.84909001 eV

  energy without entropy =       -8.84909001  energy(sigma->0) =       -8.84909001


--------------------------------------------------------------------------------------------------------




--------------------------------------- Iteration      1(  11)  ---------------------------------------


    EDDIAG:  cpu time      0.0697: real time      0.0697
  RMM-DIIS:  cpu time      0.2266: real time      0.2266
    ORTHCH:  cpu time      0.0013: real time      0.0013
       DOS:  cpu time      0.0002: real time      0.0002
    --------------------------------------------
      LOOP:  cpu time      0.2977: real time      0.2978

 eigenvalue-minimisations  :  5012
 total energy-change (2. order) :-0.7782714E-06  (-0.7623363E-06)
 number of electron       8.0000001 magnetization 
 augmentation part        8.0000001 magnetization 

 Free energy of the ion-electron system (eV)
  ---------------------------------------------------
  alpha Z        PSCENC =         3.36414726
  Ewald energy   TEWEN  =      -228.56352493
  -Hartree energ DENC   =       -14.93056039
  -exchange      EXHF   =         0.00000000
  -V(xc)+E(xc)   XCENC  =       -17.95974656
  PAW double counting   =       870.58449660     -835.62243720
  entropy T*S    EENTRO =        -0.00000000
  eigenvalues    EBANDS =         8.14704197
  atomic energy  EATOM  =       206.13149246
  Solvation  Ediel_sol  =         0.00000000
  ext. energy  EPLUGINS =         0.00000000
  ---------------------------------------------------
  free energy    TOTEN  =        -8.84909079 eV

  energy without entropy =       -8.84909079  energy(sigma->0) =       -8.84909079


--------------------------------------------------------------------------------------------------------




 average (electrostatic) potential at core
  the test charge radii are     0.9892
  (the norm of the test charge is              1.0000)
       1 -83.2414       2 -83.2414
 
 
 
 E-fermi :   6.1279     XC(G=0):  -9.4096     alpha+bet :-11.9845

 val. band max:        5.8315032563   @ k =   0.0000   0.0000   0.0000
 cond. band min:       6.4040708005   @ k =   0.4143   0.0000   0.4143
 fundamental gap:      0.5725675442
 Fermi energy:         6.1279117731

 k-point     1 :       0.5000    0.5000    0.5000
  band No.  band energies     occupation 
      1      -3.7966      2.00000
      2      -1.1364      2.00000
      3       4.6342      2.00000
      4       4.6342      2.00000
      5       7.3735      0.00000
      6       9.1720      0.00000
      7       9.1720      0.00000
      8      13.5618      0.00000
      9      16.3845      0.00000
     10      16.3856      0.00000
     11      17.1912      0.00000
     12      34.1405      0.00000

 k-point     2 :       0.4857    0.4857    0.4857
  band No.  band energies     occupation 
      1      -3.8083      2.00000
      2      -1.1196      2.00000
      3       4.6356      2.00000
      4       4.6356      2.00000
      5       7.3752      0.00000
      6       9.1737      0.00000
      7       9.1737      0.00000
      8      13.5644      0.00000
      9      16.2863      0.00000
     10      17.1613      0.00000
     11      26.7255      0.00000
     12      27.4440      0.00000

 k-point     3 :       0.4714    0.4714    0.4714
  band No.  band energies     occupation 
      1      -3.8427      2.00000
      2      -1.0702      2.00000
      3       4.6400      2.00000
      4       4.6400      2.00000
      5       7.3802      0.00000
      6       9.1787      0.00000
      7       9.1787      0.00000
      8      13.5722      0.00000
      9      16.0736      0.00000
     10      17.0396      0.00000
     11      17.3809      0.00000
     12      25.4093      0.00000

 k-point     4 :       0.4571    0.4571    0.4571
  band No.  band energies     occupation 
      1      -3.8971      2.00000
      2      -0.9905      2.00000
      3       4.6473      2.00000
      4       4.6473      2.00000
      5       7.3886      0.00000
      6       9.1870      0.00000
      7       9.1870      0.00000
      8      13.5851      0.00000
      9      15.8258      0.00000
     10      15.8258      0.00000
     11      16.8492      0.00000
     12      18.6981      0.00000

 k-point     5 :       0.4429    0.4429    0.4429
  band No.  band energies     occupation 
      1      -3.9684      2.00000
      2      -0.8840      2.00000
      3       4.6576      2.00000
      4       4.6576      2.00000
      5       7.4003      0.00000
      6       9.1983      0.00000
      7       9.1983      0.00000
      8      13.6026      0.00000
      9      15.5696      0.00000
     10      15.5738      0.00000
     11      18.1402      0.00000
     12      24.2349      0.00000

 k-point     6 :       0.4286    0.4286    0.4286
  band No.  band energies     occupation 
      1      -4.0529      2.00000
      2      -0.7542      2.00000
      3       4.6707      2.00000
      4       4.6707      2.00000
      5       7.4155      0.00000
      6       9.2126      0.00000
      7       9.2126      0.00000
      8      13.6241      0.00000
      9      15.3142      0.00000
     10      15.3144      0.00000
     11      16.4334      0.00000
     12      29.4069      0.00000

 k-point     7 :       0.4143    0.4143    0.4143
  band No.  band energies     occupation 
      1      -4.1471      2.00000
      2      -0.6046      2.00000
      3       4.6868      2.00000
      4       4.6868      2.00000
      5       7.4339      0.00000
      6       9.2292      0.00000
      7       9.2292      0.00000
      8      13.6487      0.00000
      9      15.0635      0.00000
     10      16.0395      0.00000
     11      19.0829      0.00000
     12      23.3144      0.00000

 k-point     8 :       0.4000    0.4000    0.4000
  band No.  band energies     occupation 
      1      -4.2483      2.00000
      2      -0.4382      2.00000
      3       4.7058      2.00000
      4       4.7058      2.00000
      5       7.4556      0.00000
      6       9.2478      0.00000
      7       9.2478      0.00000
      8      13.6749      0.00000
      9      14.8200      0.00000
     10      15.6126      0.00000
     11      22.8390      0.00000
     12      29.4363      0.00000

 k-point     9 :       0.3857    0.3857    0.3857
  band No.  band energies     occupation 
      1      -4.3539      2.00000
      2      -0.2574      2.00000
      3       4.7276      2.00000
      4       4.7276      2.00000
      5       7.4806      0.00000
      6       9.2677      0.00000
      7       9.2677      0.00000
      8      13.7007      0.00000
      9      14.5851      0.00000
     10      15.6289      0.00000
     11      22.2059      0.00000
     12      24.6776      0.00000

 k-point    10 :       0.3714    0.3714    0.3714
  band No.  band energies     occupation 
      1      -4.4620      2.00000
      2      -0.0644      2.00000
      3       4.7523      2.00000
      4       4.7523      2.00000
      5       7.5087      0.00000
      6       9.2883      0.00000
      7       9.2883      0.00000
      8      13.7219      0.00000
      9      14.3600      0.00000
     10      14.3600      0.00000
     11      15.4721      0.00000
     12      23.9593      0.00000

 k-point    11 :       0.3571    0.3571    0.3571
  band No.  band energies     occupation 
      1      -4.5710      2.00000
      2       0.1394      2.00000
      3       4.7799      2.00000
      4       4.7799      2.00000
      5       7.5399      0.00000
      6       9.3086      0.00000
      7       9.3086      0.00000
      8      13.7379      0.00000
      9      14.1461      0.00000
     10      15.2141      0.00000
     11      19.9793      0.00000
     12      20.0431      0.00000

 k-point    12 :       0.3429    0.3429    0.3429
  band No.  band energies     occupation 
      1      -4.6798      2.00000
      2       0.3525      2.00000
      3       4.8103      2.00000
      4       4.8103      2.00000
      5       7.5743      0.00000
      6       9.3277      0.00000
      7       9.3277      0.00000
      8      13.7259      0.00000
      9      13.9448      0.00000
     10      13.9448      0.00000
     11      15.0664      0.00000
     12      20.2000      0.00000

 k-point    13 :       0.3286    0.3286    0.3286
  band No.  band energies     occupation 
      1      -4.7873      2.00000
      2       0.5740      2.00000
      3       4.8435      2.00000
      4       4.8435      2.00000
      5       7.6117      0.00000
      6       9.3446      0.00000
      7       9.3446      0.00000
      8      13.7313      0.00000
      9      14.9048      0.00000
     10      19.4529      0.00000
     11      20.6776      0.00000
     12      30.7750      0.00000

 k-point    14 :       0.3143    0.3143    0.3143
  band No.  band energies     occupation 
      1      -4.8928      2.00000
      2       0.8028      2.00000
      3       4.8794      2.00000
      4       4.8794      2.00000
      5       7.6519      0.00000
      6       9.3579      0.00000
      7       9.3579      0.00000
      8      13.5892      0.00000
      9      13.6153      0.00000
     10      19.2208      0.00000
     11      21.6608      0.00000
     12      22.7404      0.00000

 k-point    15 :       0.3000    0.3000    0.3000
  band No.  band energies     occupation 
      1      -4.9956      2.00000
      2       1.0384      2.00000
      3       4.9180      2.00000
      4       4.9180      2.00000
      5       7.6949      0.00000
      6       9.3663      0.00000
      7       9.3663      0.00000
      8      13.4275      0.00000
      9      13.4485      0.00000
     10      14.6822      0.00000
     11      21.0828      0.00000
     12      30.7533      0.00000

 k-point    16 :       0.2857    0.2857    0.2857
  band No.  band energies     occupation 
      1      -5.0954      2.00000
      2       1.2800      2.00000
      3       4.9591      2.00000
      4       4.9591      2.00000
      5       7.7406      0.00000
      6       9.3686      0.00000
      7       9.3686      0.00000
      8      13.2890      0.00000
      9      13.2890      0.00000
     10      13.3010      0.00000
     11      14.7402      0.00000
     12      22.9895      0.00000

 k-point    17 :       0.2714    0.2714    0.2714
  band No.  band energies     occupation 
      1      -5.1917      2.00000
      2       1.5270      2.00000
      3       5.0028      2.00000
      4       5.0028      2.00000
      5       7.7886      0.00000
      6       9.3633      0.00000
      7       9.3633      0.00000
      8      13.0981      0.00000
      9      13.1693      0.00000
     10      13.1693      0.00000
     11      14.7624      0.00000
     12      18.1504      0.00000

 k-point    18 :       0.2571    0.2571    0.2571
  band No.  band energies     occupation 
      1      -5.2842      2.00000
      2       1.7789      2.00000
      3       5.0488      2.00000
      4       5.0488      2.00000
      5       7.8389      0.00000
      6       9.3495      0.00000
      7       9.3495      0.00000
      8      12.9271      0.00000
      9      14.6501      0.00000
     10      17.8483      0.00000
     11      23.8825      0.00000
     12      31.9801      0.00000

 k-point    19 :       0.2429    0.2429    0.2429
  band No.  band energies     occupation 
      1      -5.3726      2.00000
      2       2.0352      2.00000
      3       5.0970      2.00000
      4       5.0970      2.00000
      5       7.8911      0.00000
      6       9.3261      0.00000
      7       9.3261      0.00000
      8      12.6410      0.00000
      9      12.9913      0.00000
     10      14.8543      0.00000
     11      17.5652      0.00000
     12      25.4660      0.00000

 k-point    20 :       0.2286    0.2286    0.2286
  band No.  band energies     occupation 
      1      -5.4567      2.00000
      2       2.2953      2.00000
      3       5.1472      2.00000
      4       5.1472      2.00000
      5       7.9450      0.00000
      6       9.2928      0.00000
      7       9.2928      0.00000
      8      12.3953      0.00000
      9      12.9340      0.00000
     10      14.9075      0.00000
     11      17.2591      0.00000
     12      20.1175      0.00000

 k-point    21 :       0.2143    0.2143    0.2143
  band No.  band energies     occupation 
      1      -5.5363      2.00000
      2       2.5588      2.00000
      3       5.1992      2.00000
      4       5.1992      2.00000
      5       8.0002      0.00000
      6       9.2496      0.00000
      7       9.2496      0.00000
      8      12.1468      0.00000
      9      14.8531      0.00000
     10      17.0144      0.00000
     11      24.0116      0.00000
     12      25.7421      0.00000

 k-point    22 :       0.2000    0.2000    0.2000
  band No.  band energies     occupation 
      1      -5.6113      2.00000
      2       2.8250      2.00000
      3       5.2528      2.00000
      4       5.2528      2.00000
      5       8.0563      0.00000
      6       9.1970      0.00000
      7       9.1970      0.00000
      8      12.7584      0.00000
      9      14.9842      0.00000
     10      16.8032      0.00000
     11      23.8868      0.00000
     12      25.5889      0.00000

 k-point    23 :       0.1857    0.1857    0.1857
  band No.  band energies     occupation 
      1      -5.6815      2.00000
      2       3.0931      2.00000
      3       5.3075      2.00000
      4       5.3075      2.00000
      5       8.1126      0.00000
      6       9.1360      0.00000
      7       9.1360      0.00000
      8      11.6363      0.00000
      9      12.8863      0.00000
     10      14.9845      0.00000
     11      16.6330      0.00000
     12      24.6017      0.00000

 k-point    24 :       0.1714    0.1714    0.1714
  band No.  band energies     occupation 
      1      -5.7469      2.00000
      2       3.3626      2.00000
      3       5.3631      2.00000
      4       5.3631      2.00000
      5       8.1686      0.00000
      6       9.0681      0.00000
      7       9.0681      0.00000
      8      11.3793      0.00000
      9      12.9075      0.00000
     10      14.9993      0.00000
     11      24.7100      0.00000
     12      25.7715      0.00000

 k-point    25 :       0.1571    0.1571    0.1571
  band No.  band energies     occupation 
      1      -5.8073      2.00000
      2       3.6324      2.00000
      3       5.4190      2.00000
      4       5.4190      2.00000
      5       8.2235      0.00000
      6       8.9950      0.00000
      7       8.9950      0.00000
      8      11.1224      0.00000
      9      12.9443      0.00000
     10      12.9443      0.00000
     11      14.8654      0.00000
     12      26.1741      0.00000

 k-point    26 :       0.1429    0.1429    0.1429
  band No.  band energies     occupation 
      1      -5.8627      2.00000
      2       3.9015      2.00000
      3       5.4746      2.00000
      4       5.4746      2.00000
      5       8.2764      0.00000
      6       8.9185      0.00000
      7       8.9185      0.00000
      8      10.8668      0.00000
      9      12.9943      0.00000
     10      12.9943      0.00000
     11      14.7508      0.00000
     12      16.4698      0.00000

 k-point    27 :       0.1286    0.1286    0.1286
  band No.  band energies     occupation 
      1      -5.9130      2.00000
      2       4.1683      2.00000
      3       5.5294      2.00000
      4       5.5294      2.00000
      5       8.3260      0.00000
      6       8.8407      0.00000
      7       8.8407      0.00000
      8      10.6145      0.00000
      9      13.0548      0.00000
     10      14.6152      0.00000
     11      16.5795      0.00000
     12      26.9436      0.00000

 k-point    28 :       0.1143    0.1143    0.1143
  band No.  band energies     occupation 
      1      -5.9581      2.00000
      2       4.4312      2.00000
      3       5.5826      2.00000
      4       5.5826      2.00000
      5       8.3709      0.00000
      6       8.7635      0.00000
      7       8.7635      0.00000
      8      10.3678      0.00000
      9      13.1233      0.00000
     10      13.1233      0.00000
     11      14.4724      0.00000
     12      18.0750      0.00000

 k-point    29 :       0.1000    0.1000    0.1000
  band No.  band energies     occupation 
      1      -5.9980      2.00000
      2       4.6875      2.00000
      3       5.6333      2.00000
      4       5.6333      2.00000
      5       8.4093      0.00000
      6       8.6891      0.00000
      7       8.6891      0.00000
      8      10.1300      0.00000
      9      13.1967      0.00000
     10      13.1967      0.00000
     11      14.3312      0.00000
     12      27.6997      0.00000

 k-point    30 :       0.0857    0.0857    0.0857
  band No.  band energies     occupation 
      1      -6.0326      2.00000
      2       4.9341      2.00000
      3       5.6805      2.00000
      4       5.6805      2.00000
      5       8.4390      0.00000
      6       8.6193      0.00000
      7       8.6193      0.00000
      8       9.9059      0.00000
      9      13.2717      0.00000
     10      14.1991      0.00000
     11      16.8632      0.00000
     12      21.8755      0.00000

 k-point    31 :       0.0714    0.0714    0.0714
  band No.  band energies     occupation 
      1      -6.0620      2.00000
      2       5.1666      2.00000
      3       5.7232      2.00000
      4       5.7232      2.00000
      5       8.4569      0.00000
      6       8.5562      0.00000
      7       8.5562      0.00000
      8       9.7016      0.00000
      9      13.3447      0.00000
     10      14.0809      0.00000
     11      17.3986      0.00000
     12      28.5707      0.00000

 k-point    32 :       0.0571    0.0571    0.0571
  band No.  band energies     occupation 
      1      -6.0861      2.00000
      2       5.3786      2.00000
      3       5.7602      2.00000
      4       5.7602      2.00000
      5       8.4608      0.00000
      6       8.5015      0.00000
      7       8.5015      0.00000
      8       9.5250      0.00000
      9      13.4122      0.00000
     10      13.9770      0.00000
     11      17.3502      0.00000
     12      29.0203      0.00000

 k-point    33 :       0.0429    0.0429    0.0429
  band No.  band energies     occupation 
      1      -6.1048      2.00000
      2       5.5619      2.00000
      3       5.7905      2.00000
      4       5.7905      2.00000
      5       8.4497      0.00000
      6       8.4570      0.00000
      7       8.4570      0.00000
      8       9.3844      0.00000
      9      13.4702      0.00000
     10      13.4702      0.00000
     11      13.8998      0.00000
     12      28.8539      0.00000

 k-point    34 :       0.0286    0.0286    0.0286
  band No.  band energies     occupation 
      1      -6.1182      2.00000
      2       5.7060      2.00000
      3       5.8130      2.00000
      4       5.8130      2.00000
      5       8.4240      0.00000
      6       8.4240      0.00000
      7       8.4279      0.00000
      8       9.2854      0.00000
      9      13.5150      0.00000
     10      13.8396      0.00000
     11      17.1193      0.00000
     12      29.0179      0.00000

 k-point    35 :       0.0143    0.0143    0.0143
  band No.  band energies     occupation 
      1      -6.1263      2.00000
      2       5.7991      2.00000
      3       5.8268      2.00000
      4       5.8268      2.00000
      5       8.4038      0.00000
      6       8.4038      0.00000
      7       8.4061      0.00000
      8       9.2282      0.00000
      9      13.5433      0.00000
     10      13.5433      0.00000
     11      13.8052      0.00000
     12      17.1026      0.00000

 k-point    36 :       0.0000    0.0000    0.0000
  band No.  band energies     occupation 
      1      -6.1289      2.00000
      2       5.8315      2.00000
      3       5.8315      2.00000
      4       5.8315      2.00000
      5       8.3969      0.00000
      6       8.3969      0.00000
      7       8.3969      0.00000
      8       9.2097      0.00000
      9      13.5530      0.00000
     10      13.7928      0.00000
     11      17.0862      0.00000
     12      29.1965      0.00000

 k-point    37 :       0.0000    0.0000    0.0000
  band No.  band energies     occupation 
      1      -6.1289      2.00000
      2       5.8315      2.00000
      3       5.8315      2.00000
      4       5.8315      2.00000
      5       8.3969      0.00000
      6       8.3969      0.00000
      7       8.3969      0.00000
      8       9.2097      0.00000
      9      13.5530      0.00000
     10      13.7929      0.00000
     11      17.0858      0.00000
     12      29.7803      0.00000

 k-point    38 :       0.0143    0.0000    0.0143
  band No.  band energies     occupation 
      1      -6.1254      2.00000
      2       5.8069      2.00000
      3       5.8159      2.00000
      4       5.8159      2.00000
      5       8.3880      0.00000
      6       8.4169      0.00000
      7       8.4169      0.00000
      8       9.2339      0.00000
      9      13.5275      0.00000
     10      13.8088      0.00000
     11      17.0933      0.00000
     12      29.3895      0.00000

 k-point    39 :       0.0286    0.0000    0.0286
  band No.  band energies     occupation 
      1      -6.1147      2.00000
      2       5.7353      2.00000
      3       5.7707      2.00000
      4       5.7707      2.00000
      5       8.3615      0.00000
      6       8.4753      0.00000
      7       8.4753      0.00000
      8       9.3038      0.00000
      9      13.4376      0.00000
     10      13.5688      0.00000
     11      13.8568      0.00000
     12      17.1408      0.00000

 k-point    40 :       0.0429    0.0000    0.0429
  band No.  band energies     occupation 
      1      -6.0968      2.00000
      2       5.6222      2.00000
      3       5.6996      2.00000
      4       5.6996      2.00000
      5       8.3186      0.00000
      6       8.5684      0.00000
      7       8.5684      0.00000
      8       9.4128      0.00000
      9      13.3106      0.00000
     10      13.9348      0.00000
     11      17.2116      0.00000
     12      29.0510      0.00000

 k-point    41 :       0.0571    0.0000    0.0571
  band No.  band energies     occupation 
      1      -6.0718      2.00000
      2       5.4749      2.00000
      3       5.6077      2.00000
      4       5.6077      2.00000
      5       8.2608      0.00000
      6       8.6911      0.00000
      7       8.6911      0.00000
      8       9.5518      0.00000
      9      13.1387      0.00000
     10      14.0407      0.00000
     11      17.2636      0.00000
     12      29.4395      0.00000

 k-point    42 :       0.0714    0.0000    0.0714
  band No.  band energies     occupation 
      1      -6.0396      2.00000
      2       5.3006      2.00000
      3       5.5001      2.00000
      4       5.5001      2.00000
      5       8.1899      0.00000
      6       8.8380      0.00000
      7       8.8380      0.00000
      8       9.7100      0.00000
      9      12.9503      0.00000
     10      13.6519      0.00000
     11      14.1763      0.00000
     12      29.1092      0.00000

 k-point    43 :       0.0857    0.0000    0.0857
  band No.  band energies     occupation 
      1      -6.0004      2.00000
      2       5.1057      2.00000
      3       5.3815      2.00000
      4       5.3815      2.00000
      5       8.1083      0.00000
      6       9.0048      0.00000
      7       9.0048      0.00000
      8       9.8755      0.00000
      9      12.7567      0.00000
     10      14.3350      0.00000
     11      17.3911      0.00000
     12      28.1519      0.00000

 k-point    44 :       0.1000    0.0000    0.1000
  band No.  band energies     occupation 
      1      -5.9540      2.00000
      2       4.8951      2.00000
      3       5.2554      2.00000
      4       5.2554      2.00000
      5       8.0179      0.00000
      6       9.1877      0.00000
      7       9.1877      0.00000
      8      10.0343      0.00000
      9      12.5737      0.00000
     10      13.7471      0.00000
     11      14.5164      0.00000
     12      17.4580      0.00000

 k-point    45 :       0.1143    0.0000    0.1143
  band No.  band energies     occupation 
      1      -5.9006      2.00000
      2       4.6728      2.00000
      3       5.1248      2.00000
      4       5.1248      2.00000
      5       7.9210      0.00000
      6       9.3834      0.00000
      7       9.3834      0.00000
      8      10.1681      0.00000
      9      12.4210      0.00000
     10      13.8064      0.00000
     11      14.7178      0.00000
     12      32.3743      0.00000

 k-point    46 :       0.1286    0.0000    0.1286
  band No.  band energies     occupation 
      1      -5.8401      2.00000
      2       4.4415      2.00000
      3       4.9922      2.00000
      4       4.9922      2.00000
      5       7.8193      0.00000
      6       9.5897      0.00000
      7       9.5897      0.00000
      8      10.2547      0.00000
      9      12.3227      0.00000
     10      13.8736      0.00000
     11      14.9372      0.00000
     12      17.9677      0.00000

 k-point    47 :       0.1429    0.0000    0.1429
  band No.  band energies     occupation 
      1      -5.7726      2.00000
      2       4.2036      2.00000
      3       4.8590      2.00000
      4       4.8590      2.00000
      5       7.7147      0.00000
      6       9.8047      0.00000
      7       9.8047      0.00000
      8      10.2726      0.00000
      9      12.3008      0.00000
     10      13.9487      0.00000
     11      15.1727      0.00000
     12      17.7117      0.00000

 k-point    48 :       0.1571    0.0000    0.1571
  band No.  band energies     occupation 
      1      -5.6982      2.00000
      2       3.9604      2.00000
      3       4.7267      2.00000
      4       4.7267      2.00000
      5       7.6087      0.00000
      6      10.0271      0.00000
      7      10.0271      0.00000
      8      10.2142      0.00000
      9      12.3647      0.00000
     10      14.0316      0.00000
     11      15.4223      0.00000
     12      18.2551      0.00000

 k-point    49 :       0.1714    0.0000    0.1714
  band No.  band energies     occupation 
      1      -5.6167      2.00000
      2       3.7134      2.00000
      3       4.5963      2.00000
      4       4.5963      2.00000
      5       7.5026      0.00000
      6      10.0903      0.00000
      7      10.2558      0.00000
      8      10.2558      0.00000
      9      12.5042      0.00000
     10      14.1228      0.00000
     11      15.6844      0.00000
     12      17.9813      0.00000

 k-point    50 :       0.1857    0.0000    0.1857
  band No.  band energies     occupation 
      1      -5.5284      2.00000
      2       3.4634      2.00000
      3       4.4687      2.00000
      4       4.4687      2.00000
      5       7.3976      0.00000
      6       9.9204      0.00000
      7      10.4896      0.00000
      8      10.4896      0.00000
      9      12.6994      0.00000
     10      14.2215      0.00000
     11      15.9572      0.00000
     12      18.1135      0.00000

 k-point    51 :       0.2000    0.0000    0.2000
  band No.  band energies     occupation 
      1      -5.4332      2.00000
      2       3.2111      2.00000
      3       4.3444      2.00000
      4       4.3444      2.00000
      5       7.2947      0.00000
      6       9.7231      0.00000
      7      10.7280      0.00000
      8      10.7280      0.00000
      9      12.9331      0.00000
     10      14.3280      0.00000
     11      16.2392      0.00000
     12      25.0329      0.00000

 k-point    52 :       0.2143    0.0000    0.2143
  band No.  band energies     occupation 
      1      -5.3311      2.00000
      2       2.9571      2.00000
      3       4.2241      2.00000
      4       4.2241      2.00000
      5       7.1948      0.00000
      6       9.5113      0.00000
      7      10.9705      0.00000
      8      10.9705      0.00000
      9      13.1924      0.00000
     10      14.4425      0.00000
     11      16.5286      0.00000
     12      24.6406      0.00000

 k-point    53 :       0.2286    0.0000    0.2286
  band No.  band energies     occupation 
      1      -5.2223      2.00000
      2       2.7019      2.00000
      3       4.1081      2.00000
      4       4.1081      2.00000
      5       7.0987      0.00000
      6       9.2931      0.00000
      7      11.2164      0.00000
      8      11.2164      0.00000
      9      13.4689      0.00000
     10      14.5647      0.00000
     11      16.8239      0.00000
     12      18.6020      0.00000

 k-point    54 :       0.2429    0.0000    0.2429
  band No.  band energies     occupation 
      1      -5.1068      2.00000
      2       2.4458      2.00000
      3       3.9967      2.00000
      4       3.9967      2.00000
      5       7.0068      0.00000
      6       9.0741      0.00000
      7      11.4654      0.00000
      8      11.4654      0.00000
      9      13.7573      0.00000
     10      14.6947      0.00000
     11      17.1231      0.00000
     12      18.7672      0.00000

 k-point    55 :       0.2571    0.0000    0.2571
  band No.  band energies     occupation 
      1      -4.9846      2.00000
      2       2.1891      2.00000
      3       3.8904      2.00000
      4       3.8904      2.00000
      5       6.9200      0.00000
      6       8.8578      0.00000
      7      11.7172      0.00000
      8      11.7172      0.00000
      9      14.0538      0.00000
     10      14.8326      0.00000
     11      17.4242      0.00000
     12      18.9314      0.00000

 k-point    56 :       0.2714    0.0000    0.2714
  band No.  band energies     occupation 
      1      -4.8559      2.00000
      2       1.9323      2.00000
      3       3.7893      2.00000
      4       3.7893      2.00000
      5       6.8388      0.00000
      6       8.6468      0.00000
      7      11.9715      0.00000
      8      11.9715      0.00000
      9      14.3558      0.00000
     10      14.9784      0.00000
     11      17.7246      0.00000
     12      19.1119      0.00000

 k-point    57 :       0.2857    0.0000    0.2857
  band No.  band energies     occupation 
      1      -4.7207      2.00000
      2       1.6755      2.00000
      3       3.6935      2.00000
      4       3.6935      2.00000
      5       6.7634      0.00000
      6       8.4425      0.00000
      7      12.2282      0.00000
      8      12.2282      0.00000
      9      14.6613      0.00000
     10      15.1319      0.00000
     11      18.0215      0.00000
     12      19.2184      0.00000

 k-point    58 :       0.3000    0.0000    0.3000
  band No.  band energies     occupation 
      1      -4.5790      2.00000
      2       1.4191      2.00000
      3       3.6034      2.00000
      4       3.6034      2.00000
      5       6.6942      0.00000
      6       8.2462      0.00000
      7      12.4869      0.00000
      8      12.4869      0.00000
      9      14.9687      0.00000
     10      15.2933      0.00000
     11      18.3112      0.00000
     12      19.3161      0.00000

 k-point    59 :       0.3143    0.0000    0.3143
  band No.  band energies     occupation 
      1      -4.4310      2.00000
      2       1.1632      2.00000
      3       3.5190      2.00000
      4       3.5190      2.00000
      5       6.6317      0.00000
      6       8.0589      0.00000
      7      12.7477      0.00000
      8      12.7477      0.00000
      9      15.2767      0.00000
     10      15.4624      0.00000
     11      18.5895      0.00000
     12      19.3596      0.00000

 k-point    60 :       0.3286    0.0000    0.3286
  band No.  band energies     occupation 
      1      -4.2767      2.00000
      2       0.9083      2.00000
      3       3.4404      2.00000
      4       3.4404      2.00000
      5       6.5762      0.00000
      6       7.8808      0.00000
      7      13.0104      0.00000
      8      13.0104      0.00000
      9      15.5842      0.00000
     10      15.6392      0.00000
     11      18.8505      0.00000
     12      19.3402      0.00000

 k-point    61 :       0.3429    0.0000    0.3429
  band No.  band energies     occupation 
      1      -4.1163      2.00000
      2       0.6545      2.00000
      3       3.3678      2.00000
      4       3.3678      2.00000
      5       6.5280      0.00000
      6       7.7126      0.00000
      7      13.2749      0.00000
      8      13.2749      0.00000
      9      15.8238      0.00000
     10      15.8902      0.00000
     11      19.1038      0.00000
     12      22.1880      0.00000

 k-point    62 :       0.3571    0.0000    0.3571
  band No.  band energies     occupation 
      1      -3.9499      2.00000
      2       0.4021      2.00000
      3       3.3012      2.00000
      4       3.3012      2.00000
      5       6.4872      0.00000
      6       7.5545      0.00000
      7      13.5410      0.00000
      8      13.5410      0.00000
      9      16.0162      0.00000
     10      16.1938      0.00000
     11      19.1035      0.00000
     12      19.2879      0.00000

 k-point    63 :       0.3714    0.0000    0.3714
  band No.  band energies     occupation 
      1      -3.7775      2.00000
      2       0.1515      2.00000
      3       3.2408      2.00000
      4       3.2408      2.00000
      5       6.4542      0.00000
      6       7.4066      0.00000
      7      13.8085      0.00000
      8      13.8085      0.00000
      9      16.2162      0.00000
     10      16.4942      0.00000
     11      18.9104      0.00000
     12      22.3237      0.00000

 k-point    64 :       0.3857    0.0000    0.3857
  band No.  band energies     occupation 
      1      -3.5994      2.00000
      2      -0.0972      2.00000
      3       3.1866      2.00000
      4       3.1866      2.00000
      5       6.4292      0.00000
      6       7.2692      0.00000
      7      14.0775      0.00000
      8      14.0775      0.00000
      9      16.4239      0.00000
     10      16.7906      0.00000
     11      18.6775      0.00000
     12      19.5568      0.00000

 k-point    65 :       0.4000    0.0000    0.4000
  band No.  band energies     occupation 
      1      -3.4156      2.00000
      2      -0.3436      2.00000
      3       3.1386      2.00000
      4       3.1386      2.00000
      5       6.4124      0.00000
      6       7.1423      0.00000
      7      14.3473      0.00000
      8      14.3473      0.00000
      9      16.6386      0.00000
     10      17.0822      0.00000
     11      18.4266      0.00000
     12      22.7496      0.00000

 k-point    66 :       0.4143    0.0000    0.4143
  band No.  band energies     occupation 
      1      -3.2262      2.00000
      2      -0.5875      2.00000
      3       3.0969      2.00000
      4       3.0969      2.00000
      5       6.4041      0.00000
      6       7.0258      0.00000
      7      14.6178      0.00000
      8      14.6178      0.00000
      9      16.8616      0.00000
     10      17.3682      0.00000
     11      18.1623      0.00000
     12      19.5278      0.00000

 k-point    67 :       0.4286    0.0000    0.4286
  band No.  band energies     occupation 
      1      -3.0314      2.00000
      2      -0.8286      2.00000
      3       3.0616      2.00000
      4       3.0616      2.00000
      5       6.4044      0.00000
      6       6.9196      0.00000
      7      14.8876      0.00000
      8      14.8876      0.00000
      9      17.0925      0.00000
     10      17.6477      0.00000
     11      17.8926      0.00000
     12      23.9038      0.00000

 k-point    68 :       0.4429    0.0000    0.4429
  band No.  band energies     occupation 
      1      -2.8315      2.00000
      2      -1.0666      2.00000
      3       3.0327      2.00000
      4       3.0327      2.00000
      5       6.4134      0.00000
      6       6.8237      0.00000
      7      15.1550      0.00000
      8      15.1550      0.00000
      9      17.3351      0.00000
     10      17.6188      0.00000
     11      17.9110      0.00000
     12      24.4540      0.00000

 k-point    69 :       0.4571    0.0000    0.4571
  band No.  band energies     occupation 
      1      -2.6265      2.00000
      2      -1.3013      2.00000
      3       3.0101      2.00000
      4       3.0101      2.00000
      5       6.4313      0.00000
      6       6.7380      0.00000
      7      15.4159      0.00000
      8      15.4159      0.00000
      9      17.5400      0.00000
     10      18.1356      0.00000
     11      24.8253      0.00000
     12      26.9808      0.00000

 k-point    70 :       0.4714    0.0000    0.4714
  band No.  band energies     occupation 
      1      -2.4167      2.00000
      2      -1.5325      2.00000
      3       2.9940      2.00000
      4       2.9940      2.00000
      5       6.4586      0.00000
      6       6.6625      0.00000
      7      15.6607      0.00000
      8      15.6607      0.00000
      9      17.7632      0.00000
     10      18.4628      0.00000
     11      24.4438      0.00000
     12      25.4950      0.00000

 k-point    71 :       0.4857    0.0000    0.4857
  band No.  band energies     occupation 
      1      -2.2021      2.00000
      2      -1.7598      2.00000
      3       2.9843      2.00000
      4       2.9843      2.00000
      5       6.4951      0.00000
      6       6.5969      0.00000
      7      15.8625      0.00000
      8      15.8626      0.00000
      9      18.0331      0.00000
     10      18.6319      0.00000
     11      19.0230      0.00000
     12      25.5319      0.00000

 k-point    72 :       0.5000    0.0000    0.5000
  band No.  band energies     occupation 
      1      -1.9831      2.00000
      2      -1.9831      2.00000
      3       2.9811      2.00000
      4       2.9811      2.00000
      5       6.5412      0.00000
      6       6.5412      0.00000
      7      15.9508      0.00000
      8      15.9514      0.00000
      9      16.8079      0.00000
     10      18.7791      0.00000
     11      25.6960      0.00000
     12      26.8734      0.00000

 k-point    73 :       0.5000    0.0000    0.5000
  band No.  band energies     occupation 
      1      -1.9831      2.00000
      2      -1.9831      2.00000
      3       2.9811      2.00000
      4       2.9811      2.00000
      5       6.5412      0.00000
      6       6.5412      0.00000
      7      15.9508      0.00000
      8      15.9508      0.00000
      9      16.8078      0.00000
     10      16.8078      0.00000
     11      18.8477      0.00000
     12      25.7347      0.00000

 k-point    74 :       0.5000    0.0071    0.5071
  band No.  band energies     occupation 
      1      -1.9828      2.00000
      2      -1.9828      2.00000
      3       2.9784      2.00000
      4       2.9784      2.00000
      5       6.5462      0.00000
      6       6.5462      0.00000
      7      15.9428      0.00000
      8      15.9438      0.00000
      9      16.7950      0.00000
     10      18.3637      0.00000
     11      18.8867      0.00000
     12      25.5372      0.00000

 k-point    75 :       0.5000    0.0143    0.5143
  band No.  band energies     occupation 
      1      -1.9819      2.00000
      2      -1.9819      2.00000
      3       2.9702      2.00000
      4       2.9702      2.00000
      5       6.5611      0.00000
      6       6.5611      0.00000
      7      15.9182      0.00000
      8      15.9205      0.00000
      9      16.7599      0.00000
     10      18.4202      0.00000
     11      18.9244      0.00000
     12      25.7829      0.00000

 k-point    76 :       0.5000    0.0214    0.5214
  band No.  band energies     occupation 
      1      -1.9804      2.00000
      2      -1.9804      2.00000
      3       2.9567      2.00000
      4       2.9567      2.00000
      5       6.5860      0.00000
      6       6.5860      0.00000
      7      15.8757      0.00000
      8      15.8772      0.00000
      9      18.4193      0.00000
     10      18.9792      0.00000
     11      25.0569      0.00000
     12      26.9374      0.00000

 k-point    77 :       0.5000    0.0286    0.5286
  band No.  band energies     occupation 
      1      -1.9783      2.00000
      2      -1.9783      2.00000
      3       2.9382      2.00000
      4       2.9382      2.00000
      5       6.6202      0.00000
      6       6.6202      0.00000
      7      15.8119      0.00000
      8      15.8123      0.00000
      9      16.6550      0.00000
     10      18.4920      0.00000
     11      19.0541      0.00000
     12      25.5451      0.00000

 k-point    78 :       0.5000    0.0357    0.5357
  band No.  band energies     occupation 
      1      -1.9757      2.00000
      2      -1.9757      2.00000
      3       2.9151      2.00000
      4       2.9151      2.00000
      5       6.6637      0.00000
      6       6.6637      0.00000
      7      15.7269      0.00000
      8      15.7295      0.00000
      9      18.4932      0.00000
     10      18.7138      0.00000
     11      19.1940      0.00000
     12      26.0023      0.00000

 k-point    79 :       0.5000    0.0429    0.5429
  band No.  band energies     occupation 
      1      -1.9725      2.00000
      2      -1.9725      2.00000
      3       2.8876      2.00000
      4       2.8876      2.00000
      5       6.7159      0.00000
      6       6.7159      0.00000
      7      15.6201      0.00000
      8      15.6203      0.00000
      9      16.5570      0.00000
     10      19.1130      0.00000
     11      24.6180      0.00000
     12      25.8917      0.00000

 k-point    80 :       0.5000    0.0500    0.5500
  band No.  band energies     occupation 
      1      -1.9687      2.00000
      2      -1.9687      2.00000
      3       2.8564      2.00000
      4       2.8564      2.00000
      5       6.7764      0.00000
      6       6.7764      0.00000
      7      15.4945      0.00000
      8      15.4946      0.00000
      9      16.5204      0.00000
     10      18.6389      0.00000
     11      19.4105      0.00000
     12      26.2257      0.00000

 k-point    81 :       0.5000    0.0571    0.5571
  band No.  band energies     occupation 
      1      -1.9645      2.00000
      2      -1.9645      2.00000
      3       2.8218      2.00000
      4       2.8218      2.00000
      5       6.8449      0.00000
      6       6.8449      0.00000
      7      15.3531      0.00000
      8      15.3532      0.00000
      9      16.4920      0.00000
     10      18.6343      0.00000
     11      24.9729      0.00000
     12      27.0754      0.00000

 k-point    82 :       0.5000    0.0643    0.5643
  band No.  band energies     occupation 
      1      -1.9597      2.00000
      2      -1.9597      2.00000
      3       2.7844      2.00000
      4       2.7844      2.00000
      5       6.9207      0.00000
      6       6.9207      0.00000
      7      15.1994      0.00000
      8      15.1994      0.00000
      9      16.4705      0.00000
     10      18.7122      0.00000
     11      19.8058      0.00000
     12      25.5432      0.00000

 k-point    83 :       0.5000    0.0714    0.5714
  band No.  band energies     occupation 
      1      -1.9545      2.00000
      2      -1.9545      2.00000
      3       2.7447      2.00000
      4       2.7447      2.00000
      5       7.0035      0.00000
      6       7.0035      0.00000
      7      15.0363      0.00000
      8      15.0363      0.00000
      9      16.4543      0.00000
     10      16.4543      0.00000
     11      18.6154      0.00000
     12      25.5529      0.00000

 k-point    84 :       0.5000    0.0786    0.5786
  band No.  band energies     occupation 
      1      -1.9489      2.00000
      2      -1.9489      2.00000
      3       2.7031      2.00000
      4       2.7031      2.00000
      5       7.0927      0.00000
      6       7.0927      0.00000
      7      14.8661      0.00000
      8      14.8661      0.00000
      9      16.4420      0.00000
     10      18.5968      0.00000
     11      20.1747      0.00000
     12      25.4076      0.00000

 k-point    85 :       0.5000    0.0857    0.5857
  band No.  band energies     occupation 
      1      -1.9429      2.00000
      2      -1.9429      2.00000
      3       2.6600      2.00000
      4       2.6600      2.00000
      5       7.1879      0.00000
      6       7.1879      0.00000
      7      14.6908      0.00000
      8      16.3960      0.00000
      9      18.5186      0.00000
     10      18.6461      0.00000
     11      20.4823      0.00000
     12      24.9521      0.00000

 k-point    86 :       0.5000    0.0929    0.5929
  band No.  band energies     occupation 
      1      -1.9365      2.00000
      2      -1.9365      2.00000
      3       2.6160      2.00000
      4       2.6160      2.00000
      5       7.2888      0.00000
      6       7.2888      0.00000
      7      14.5117      0.00000
      8      16.4192      0.00000
      9      18.6451      0.00000
     10      18.7524      0.00000
     11      20.5837      0.00000
     12      24.3498      0.00000

 k-point    87 :       0.5000    0.1000    0.6000
  band No.  band energies     occupation 
      1      -1.9299      2.00000
      2      -1.9299      2.00000
      3       2.5715      2.00000
      4       2.5715      2.00000
      5       7.3949      0.00000
      6       7.3949      0.00000
      7      14.3299      0.00000
      8      16.4179      0.00000
      9      18.6448      0.00000
     10      18.9053      0.00000
     11      21.1299      0.00000
     12      24.6242      0.00000

 k-point    88 :       0.5000    0.1071    0.6071
  band No.  band energies     occupation 
      1      -1.9230      2.00000
      2      -1.9230      2.00000
      3       2.5268      2.00000
      4       2.5268      2.00000
      5       7.5059      0.00000
      6       7.5059      0.00000
      7      14.1460      0.00000
      8      14.1460      0.00000
      9      16.4173      0.00000
     10      18.6880      0.00000
     11      25.1873      0.00000
     12      27.6039      0.00000

 k-point    89 :       0.5000    0.1143    0.6143
  band No.  band energies     occupation 
      1      -1.9159      2.00000
      2      -1.9159      2.00000
      3       2.4822      2.00000
      4       2.4822      2.00000
      5       7.6214      0.00000
      6       7.6214      0.00000
      7      13.9608      0.00000
      8      16.4125      0.00000
      9      18.6720      0.00000
     10      18.7578      0.00000
     11      21.2808      0.00000
     12      23.2467      0.00000

 k-point    90 :       0.5000    0.1214    0.6214
  band No.  band energies     occupation 
      1      -1.9087      2.00000
      2      -1.9087      2.00000
      3       2.4381      2.00000
      4       2.4381      2.00000
      5       7.7411      0.00000
      6       7.7411      0.00000
      7      13.7748      0.00000
      8      16.4153      0.00000
      9      18.6891      0.00000
     10      20.5862      0.00000
     11      23.3745      0.00000
     12      29.0104      0.00000

 k-point    91 :       0.5000    0.1286    0.6286
  band No.  band energies     occupation 
      1      -1.9013      2.00000
      2      -1.9013      2.00000
      3       2.3949      2.00000
      4       2.3949      2.00000
      5       7.8649      0.00000
      6       7.8649      0.00000
      7      13.5883      0.00000
      8      13.5883      0.00000
      9      16.4114      0.00000
     10      16.4114      0.00000
     11      18.7250      0.00000
     12      28.9059      0.00000

 k-point    92 :       0.5000    0.1357    0.6357
  band No.  band energies     occupation 
      1      -1.8940      2.00000
      2      -1.8940      2.00000
      3       2.3527      2.00000
      4       2.3527      2.00000
      5       7.9922      0.00000
      6       7.9922      0.00000
      7      13.4018      0.00000
      8      13.4018      0.00000
      9      16.4106      0.00000
     10      16.4106      0.00000
     11      18.7386      0.00000
     12      23.8853      0.00000

 k-point    93 :       0.5000    0.1429    0.6429
  band No.  band energies     occupation 
      1      -1.8866      2.00000
      2      -1.8866      2.00000
      3       2.3118      2.00000
      4       2.3118      2.00000
      5       8.1231      0.00000
      6       8.1231      0.00000
      7      13.2154      0.00000
      8      13.2154      0.00000
      9      16.4102      0.00000
     10      16.4102      0.00000
     11      18.7522      0.00000
     12      22.0070      0.00000

 k-point    94 :       0.5000    0.1500    0.6500
  band No.  band energies     occupation 
      1      -1.8794      2.00000
      2      -1.8794      2.00000
      3       2.2725      2.00000
      4       2.2725      2.00000
      5       8.2571      0.00000
      6       8.2571      0.00000
      7      13.0295      0.00000
      8      13.0295      0.00000
      9      16.4102      0.00000
     10      16.4102      0.00000
     11      23.2943      0.00000
     12      28.3939      0.00000

 k-point    95 :       0.5000    0.1571    0.6571
  band No.  band energies     occupation 
      1      -1.8723      2.00000
      2      -1.8723      2.00000
      3       2.2351      2.00000
      4       2.2351      2.00000
      5       8.3941      0.00000
      6       8.3941      0.00000
      7      12.8443      0.00000
      8      12.8443      0.00000
      9      16.4104      0.00000
     10      16.4104      0.00000
     11      23.4940      0.00000
     12      29.1751      0.00000

 k-point    96 :       0.5000    0.1643    0.6643
  band No.  band energies     occupation 
      1      -1.8654      2.00000
      2      -1.8654      2.00000
      3       2.1995      2.00000
      4       2.1995      2.00000
      5       8.5339      0.00000
      6       8.5339      0.00000
      7      12.6600      0.00000
      8      12.6600      0.00000
      9      16.4108      0.00000
     10      16.4108      0.00000
     11      18.7915      0.00000
     12      23.1784      0.00000

 k-point    97 :       0.5000    0.1714    0.6714
  band No.  band energies     occupation 
      1      -1.8587      2.00000
      2      -1.8587      2.00000
      3       2.1662      2.00000
      4       2.1662      2.00000
      5       8.6760      0.00000
      6       8.6760      0.00000
      7      12.4767      0.00000
      8      12.4767      0.00000
      9      16.4111      0.00000
     10      16.4111      0.00000
     11      22.5327      0.00000
     12      28.9656      0.00000

 k-point    98 :       0.5000    0.1786    0.6786
  band No.  band energies     occupation 
      1      -1.8525      2.00000
      2      -1.8525      2.00000
      3       2.1352      2.00000
      4       2.1352      2.00000
      5       8.8205      0.00000
      6       8.8205      0.00000
      7      12.2950      0.00000
      8      16.4116      0.00000
      9      18.7682      0.00000
     10      18.8429      0.00000
     11      22.8967      0.00000
     12      23.2722      0.00000

 k-point    99 :       0.5000    0.1857    0.6857
  band No.  band energies     occupation 
      1      -1.8466      2.00000
      2      -1.8466      2.00000
      3       2.1067      2.00000
      4       2.1067      2.00000
      5       8.9668      0.00000
      6       8.9668      0.00000
      7      12.1149      0.00000
      8      12.1149      0.00000
      9      16.4122      0.00000
     10      16.4122      0.00000
     11      18.8265      0.00000
     12      23.3264      0.00000

 k-point   100 :       0.5000    0.1929    0.6929
  band No.  band energies     occupation 
      1      -1.8411      2.00000
      2      -1.8411      2.00000
      3       2.0808      2.00000
      4       2.0808      2.00000
      5       9.1147      0.00000
      6       9.1147      0.00000
      7      11.9369      0.00000
      8      11.9369      0.00000
      9      16.4128      0.00000
     10      16.4128      0.00000
     11      24.0102      0.00000
     12      24.7029      0.00000

 k-point   101 :       0.5000    0.2000    0.7000
  band No.  band energies     occupation 
      1      -1.8362      2.00000
      2      -1.8362      2.00000
      3       2.0577      2.00000
      4       2.0577      2.00000
      5       9.2636      0.00000
      6       9.2636      0.00000
      7      11.7615      0.00000
      8      11.7615      0.00000
      9      16.4134      0.00000
     10      16.4134      0.00000
     11      24.3728      0.00000
     12      26.5976      0.00000

 k-point   102 :       0.5000    0.2071    0.7071
  band No.  band energies     occupation 
      1      -1.8318      2.00000
      2      -1.8318      2.00000
      3       2.0374      2.00000
      4       2.0374      2.00000
      5       9.4128      0.00000
      6       9.4128      0.00000
      7      11.5893      0.00000
      8      11.5893      0.00000
      9      16.4140      0.00000
     10      16.4140      0.00000
     11      23.0957      0.00000
     12      25.2529      0.00000

 k-point   103 :       0.5000    0.2143    0.7143
  band No.  band energies     occupation 
      1      -1.8280      2.00000
      2      -1.8280      2.00000
      3       2.0201      2.00000
      4       2.0201      2.00000
      5       9.5612      0.00000
      6       9.5612      0.00000
      7      11.4216      0.00000
      8      11.4216      0.00000
      9      16.4145      0.00000
     10      16.4145      0.00000
     11      24.9689      0.00000
     12      29.0728      0.00000

 k-point   104 :       0.5000    0.2214    0.7214
  band No.  band energies     occupation 
      1      -1.8248      2.00000
      2      -1.8248      2.00000
      3       2.0058      2.00000
      4       2.0058      2.00000
      5       9.7066      0.00000
      6       9.7066      0.00000
      7      11.2602      0.00000
      8      11.2602      0.00000
      9      16.4149      0.00000
     10      16.4149      0.00000
     11      24.6281      0.00000
     12      25.2315      0.00000

 k-point   105 :       0.5000    0.2286    0.7286
  band No.  band energies     occupation 
      1      -1.8223      2.00000
      2      -1.8223      2.00000
      3       1.9946      2.00000
      4       1.9946      2.00000
      5       9.8453      0.00000
      6       9.8453      0.00000
      7      11.1093      0.00000
      8      11.1093      0.00000
      9      16.4153      0.00000
     10      16.4153      0.00000
     11      18.8720      0.00000
     12      25.0629      0.00000

 k-point   106 :       0.5000    0.2357    0.7357
  band No.  band energies     occupation 
      1      -1.8205      2.00000
      2      -1.8205      2.00000
      3       1.9866      2.00000
      4       1.9866      2.00000
      5       9.9695      0.00000
      6       9.9695      0.00000
      7      10.9763      0.00000
      8      10.9763      0.00000
      9      16.4155      0.00000
     10      16.4155      0.00000
     11      18.8754      0.00000
     12      24.4057      0.00000

 k-point   107 :       0.5000    0.2429    0.7429
  band No.  band energies     occupation 
      1      -1.8194      2.00000
      2      -1.8194      2.00000
      3       1.9818      2.00000
      4       1.9818      2.00000
      5      10.0631      0.00000
      6      10.0631      0.00000
      7      10.8773      0.00000
      8      10.8773      0.00000
      9      16.4157      0.00000
     10      16.4157      0.00000
     11      24.4628      0.00000
     12      25.5058      0.00000

 k-point   108 :       0.5000    0.2500    0.7500
  band No.  band energies     occupation 
      1      -1.8190      2.00000
      2      -1.8190      2.00000
      3       1.9802      2.00000
      4       1.9802      2.00000
      5      10.0999      0.00000
      6      10.0999      0.00000
      7      10.8387      0.00000
      8      10.8387      0.00000
      9      16.4158      0.00000
     10      16.4158      0.00000
     11      18.8782      0.00000
     12      24.7332      0.00000

 k-point   109 :       0.5000    0.2500    0.7500
  band No.  band energies     occupation 
      1      -1.8190      2.00000
      2      -1.8190      2.00000
      3       1.9802      2.00000
      4       1.9802      2.00000
      5      10.0999      0.00000
      6      10.0999      0.00000
      7      10.8387      0.00000
      8      10.8387      0.00000
      9      16.4158      0.00000
     10      16.4158      0.00000
     11      22.5093      0.00000
     12      24.7101      0.00000

 k-point   110 :       0.4964    0.2536    0.7500
  band No.  band energies     occupation 
      1      -1.8514      2.00000
      2      -1.7870      2.00000
      3       1.9558      2.00000
      4       2.0062      2.00000
      5      10.0570      0.00000
      6      10.1214      0.00000
      7      10.8306      0.00000
      8      10.8702      0.00000
      9      16.3545      0.00000
     10      16.4736      0.00000
     11      18.8449      0.00000
     12      24.5093      0.00000

 k-point   111 :       0.4929    0.2571    0.7500
  band No.  band energies     occupation 
      1      -1.8829      2.00000
      2      -1.7564      2.00000
      3       1.9319      2.00000
      4       2.0348      2.00000
      5       9.9820      0.00000
      6      10.1369      0.00000
      7      10.8567      0.00000
      8      10.9090      0.00000
      9      16.2911      0.00000
     10      16.5262      0.00000
     11      18.9256      0.00000
     12      24.7724      0.00000

 k-point   112 :       0.4893    0.2607    0.7500
  band No.  band energies     occupation 
      1      -1.9134      2.00000
      2      -1.7274      2.00000
      3       1.9087      2.00000
      4       2.0660      2.00000
      5       9.8850      0.00000
      6      10.1469      0.00000
      7      10.9071      0.00000
      8      10.9547      0.00000
      9      16.2258      0.00000
     10      16.5725      0.00000
     11      24.4421      0.00000
     12      25.3971      0.00000

 k-point   113 :       0.4857    0.2643    0.7500
  band No.  band energies     occupation 
      1      -1.9430      2.00000
      2      -1.7000      2.00000
      3       1.8861      2.00000
      4       2.0996      2.00000
      5       9.7746      0.00000
      6      10.1522      0.00000
      7      10.9732      0.00000
      8      11.0064      0.00000
      9      16.1588      0.00000
     10      16.6114      0.00000
     11      22.3567      0.00000
     12      24.7984      0.00000

 k-point   114 :       0.4821    0.2679    0.7500
  band No.  band energies     occupation 
      1      -1.9717      2.00000
      2      -1.6741      2.00000
      3       1.8642      2.00000
      4       2.1357      2.00000
      5       9.6565      0.00000
      6      10.1536      0.00000
      7      11.0493      0.00000
      8      11.0635      0.00000
      9      16.0908      0.00000
     10      22.1863      0.00000
     11      24.1226      0.00000
     12      35.4021      0.00000

 k-point   115 :       0.4786    0.2714    0.7500
  band No.  band energies     occupation 
      1      -1.9995      2.00000
      2      -1.6496      2.00000
      3       1.8429      2.00000
      4       2.1741      2.00000
      5       9.5343      0.00000
      6      10.1518      0.00000
      7      11.1250      0.00000
      8      11.1320      0.00000
      9      16.0199      0.00000
     10      16.6617      0.00000
     11      24.1978      0.00000
     12      24.9707      0.00000

 k-point   116 :       0.4750    0.2750    0.7500
  band No.  band energies     occupation 
      1      -2.0264      2.00000
      2      -1.6267      2.00000
      3       1.8222      2.00000
      4       2.2148      2.00000
      5       9.4099      0.00000
      6      10.1476      0.00000
      7      11.1903      0.00000
      8      11.2194      0.00000
      9      15.9483      0.00000
     10      16.6709      0.00000
     11      22.6805      0.00000
     12      24.4175      0.00000

 k-point   117 :       0.4714    0.2786    0.7500
  band No.  band energies     occupation 
      1      -2.0523      2.00000
      2      -1.6052      2.00000
      3       1.8022      2.00000
      4       2.2577      2.00000
      5       9.2847      0.00000
      6      10.1414      0.00000
      7      11.2589      0.00000
      8      11.3102      0.00000
      9      15.8755      0.00000
     10      16.6683      0.00000
     11      24.4198      0.00000
     12      33.6511      0.00000

 k-point   118 :       0.4679    0.2821    0.7500
  band No.  band energies     occupation 
      1      -2.0772      2.00000
      2      -1.5851      2.00000
      3       1.7828      2.00000
      4       2.3026      2.00000
      5       9.1595      0.00000
      6      10.1339      0.00000
      7      11.3301      0.00000
      8      11.4036      0.00000
      9      15.8014      0.00000
     10      16.6534      0.00000
     11      24.3024      0.00000
     12      24.5270      0.00000

 k-point   119 :       0.4643    0.2857    0.7500
  band No.  band energies     occupation 
      1      -2.1013      2.00000
      2      -1.5664      2.00000
      3       1.7642      2.00000
      4       2.3493      2.00000
      5       9.0348      0.00000
      6      10.1254      0.00000
      7      11.4704      0.00000
      8      15.7269      0.00000
      9      16.6615      0.00000
     10      19.3880      0.00000
     11      22.2774      0.00000
     12      24.7556      0.00000

 k-point   120 :       0.4607    0.2893    0.7500
  band No.  band energies     occupation 
      1      -2.1244      2.00000
      2      -1.5490      2.00000
      3       1.7462      2.00000
      4       2.3979      2.00000
      5       8.9112      0.00000
      6      10.1161      0.00000
      7      11.4790      0.00000
      8      11.5965      0.00000
      9      15.6500      0.00000
     10      16.5876      0.00000
     11      23.9477      0.00000
     12      28.9684      0.00000

 k-point   121 :       0.4571    0.2929    0.7500
  band No.  band energies     occupation 
      1      -2.1466      2.00000
      2      -1.5329      2.00000
      3       1.7289      2.00000
      4       2.4480      2.00000
      5       8.7890      0.00000
      6      10.1063      0.00000
      7      11.5561      0.00000
      8      11.6954      0.00000
      9      15.5728      0.00000
     10      16.5379      0.00000
     11      23.5359      0.00000
     12      24.5748      0.00000

 k-point   122 :       0.4536    0.2964    0.7500
  band No.  band energies     occupation 
      1      -2.1678      2.00000
      2      -1.5179      2.00000
      3       1.7123      2.00000
      4       2.4996      2.00000
      5       8.6685      0.00000
      6      10.0963      0.00000
      7      11.6346      0.00000
      8      11.7956      0.00000
      9      15.4947      0.00000
     10      16.4785      0.00000
     11      18.6930      0.00000
     12      23.4446      0.00000

 k-point   123 :       0.4500    0.3000    0.7500
  band No.  band energies     occupation 
      1      -2.1882      2.00000
      2      -1.5042      2.00000
      3       1.6963      2.00000
      4       2.5523      2.00000
      5       8.5499      0.00000
      6      10.0862      0.00000
      7      11.7144      0.00000
      8      11.8970      0.00000
      9      15.4157      0.00000
     10      16.4104      0.00000
     11      18.7447      0.00000
     12      23.3330      0.00000

 k-point   124 :       0.4464    0.3036    0.7500
  band No.  band energies     occupation 
      1      -2.2075      2.00000
      2      -1.4915      2.00000
      3       1.6811      2.00000
      4       2.6061      2.00000
      5       8.4335      0.00000
      6      10.0760      0.00000
      7      11.7953      0.00000
      8      11.9995      0.00000
      9      15.3359      0.00000
     10      16.3348      0.00000
     11      18.8051      0.00000
     12      19.9742      0.00000

 k-point   125 :       0.4429    0.3071    0.7500
  band No.  band energies     occupation 
      1      -2.2260      2.00000
      2      -1.4799      2.00000
      3       1.6666      2.00000
      4       2.6607      2.00000
      5       8.3195      0.00000
      6      10.0660      0.00000
      7      11.8771      0.00000
      8      12.1029      0.00000
      9      15.2553      0.00000
     10      16.2529      0.00000
     11      19.8659      0.00000
     12      25.3049      0.00000

 k-point   126 :       0.4393    0.3107    0.7500
  band No.  band energies     occupation 
      1      -2.2435      2.00000
      2      -1.4692      2.00000
      3       1.6528      2.00000
      4       2.7159      2.00000
      5       8.2083      0.00000
      6      10.0562      0.00000
      7      11.9598      0.00000
      8      12.2074      0.00000
      9      15.1741      0.00000
     10      16.1655      0.00000
     11      23.2770      0.00000
     12      24.7495      0.00000

 k-point   127 :       0.4357    0.3143    0.7500
  band No.  band energies     occupation 
      1      -2.2600      2.00000
      2      -1.4595      2.00000
      3       1.6398      2.00000
      4       2.7714      2.00000
      5       8.0999      0.00000
      6      10.0467      0.00000
      7      12.0822      0.00000
      8      15.0899      0.00000
      9      16.0756      0.00000
     10      19.5191      0.00000
     11      22.2180      0.00000
     12      28.1252      0.00000

 k-point   128 :       0.4321    0.3179    0.7500
  band No.  band energies     occupation 
      1      -2.2756      2.00000
      2      -1.4507      2.00000
      3       1.6274      2.00000
      4       2.8268      2.00000
      5       7.9948      0.00000
      6      10.0375      0.00000
      7      12.1272      0.00000
      8      12.4188      0.00000
      9      15.0098      0.00000
     10      15.9775      0.00000
     11      20.0504      0.00000
     12      22.5057      0.00000

 k-point   129 :       0.4286    0.3214    0.7500
  band No.  band energies     occupation 
      1      -2.2903      2.00000
      2      -1.4426      2.00000
      3       1.6158      2.00000
      4       2.8821      2.00000
      5       7.8931      0.00000
      6      10.0287      0.00000
      7      12.2116      0.00000
      8      12.5256      0.00000
      9      14.9268      0.00000
     10      15.8781      0.00000
     11      19.1942      0.00000
     12      20.7185      0.00000

 k-point   130 :       0.4250    0.3250    0.7500
  band No.  band energies     occupation 
      1      -2.3040      2.00000
      2      -1.4354      2.00000
      3       1.6049      2.00000
      4       2.9366      2.00000
      5       7.7952      0.00000
      6      10.0203      0.00000
      7      12.2965      0.00000
      8      12.6332      0.00000
      9      14.8435      0.00000
     10      15.7761      0.00000
     11      19.2810      0.00000
     12      20.4628      0.00000

 k-point   131 :       0.4214    0.3286    0.7500
  band No.  band energies     occupation 
      1      -2.3168      2.00000
      2      -1.4289      2.00000
      3       1.5948      2.00000
      4       2.9903      2.00000
      5       7.7014      0.00000
      6      10.0124      0.00000
      7      12.3816      0.00000
      8      12.7414      0.00000
      9      14.7599      0.00000
     10      15.6719      0.00000
     11      19.3725      0.00000
     12      20.5946      0.00000

 k-point   132 :       0.4179    0.3321    0.7500
  band No.  band energies     occupation 
      1      -2.3286      2.00000
      2      -1.4230      2.00000
      3       1.5854      2.00000
      4       3.0426      2.00000
      5       7.6121      0.00000
      6      10.0050      0.00000
      7      12.4670      0.00000
      8      12.8503      0.00000
      9      14.6761      0.00000
     10      15.5658      0.00000
     11      20.1251      0.00000
     12      21.4156      0.00000

 k-point   133 :       0.4143    0.3357    0.7500
  band No.  band energies     occupation 
      1      -2.3395      2.00000
      2      -1.4178      2.00000
      3       1.5767      2.00000
      4       3.0931      2.00000
      5       7.5275      0.00000
      6       9.9981      0.00000
      7      12.5523      0.00000
      8      12.9597      0.00000
      9      14.5921      0.00000
     10      15.4580      0.00000
     11      19.5709      0.00000
     12      22.1340      0.00000

 k-point   134 :       0.4107    0.3393    0.7500
  band No.  band energies     occupation 
      1      -2.3495      2.00000
      2      -1.4132      2.00000
      3       1.5688      2.00000
      4       3.1415      2.00000
      5       7.4483      0.00000
      6       9.9917      0.00000
      7      12.6374      0.00000
      8      13.0696      0.00000
      9      14.5082      0.00000
     10      15.3490      0.00000
     11      19.6777      0.00000
     12      21.8479      0.00000

 k-point   135 :       0.4071    0.3429    0.7500
  band No.  band energies     occupation 
      1      -2.3585      2.00000
      2      -1.4091      2.00000
      3       1.5616      2.00000
      4       3.1873      2.00000
      5       7.3746      0.00000
      6       9.9859      0.00000
      7      12.7955      0.00000
      8      14.4024      0.00000
      9      15.2337      0.00000
     10      21.5097      0.00000
     11      21.9993      0.00000
     12      25.9241      0.00000

 k-point   136 :       0.4036    0.3464    0.7500
  band No.  band energies     occupation 
      1      -2.3665      2.00000
      2      -1.4055      2.00000
      3       1.5552      2.00000
      4       3.2300      2.00000
      5       7.3070      0.00000
      6       9.9807      0.00000
      7      12.8706      0.00000
      8      14.3362      0.00000
      9      15.1264      0.00000
     10      20.1385      0.00000
     11      21.2263      0.00000
     12      21.9586      0.00000

 k-point   137 :       0.4000    0.3500    0.7500
  band No.  band energies     occupation 
      1      -2.3736      2.00000
      2      -1.4025      2.00000
      3       1.5495      2.00000
      4       3.2691      2.00000
      5       7.2459      0.00000
      6       9.9761      0.00000
      7      12.8957      0.00000
      8      14.2542      0.00000
      9      15.0033      0.00000
     10      20.2008      0.00000
     11      21.2446      0.00000
     12      21.8267      0.00000

 k-point   138 :       0.3964    0.3536    0.7500
  band No.  band energies     occupation 
      1      -2.3798      2.00000
      2      -1.3999      2.00000
      3       1.5446      2.00000
      4       3.3043      2.00000
      5       7.1918      0.00000
      6       9.9720      0.00000
      7      12.9709      0.00000
      8      13.5123      0.00000
      9      14.1788      0.00000
     10      14.9057      0.00000
     11      21.1978      0.00000
     12      27.2802      0.00000

 k-point   139 :       0.3929    0.3571    0.7500
  band No.  band energies     occupation 
      1      -2.3850      2.00000
      2      -1.3977      2.00000
      3       1.5405      2.00000
      4       3.3349      2.00000
      5       7.1452      0.00000
      6       9.9686      0.00000
      7      13.0498      0.00000
      8      13.6228      0.00000
      9      14.1006      0.00000
     10      14.7945      0.00000
     11      20.4628      0.00000
     12      21.2256      0.00000

 k-point   140 :       0.3893    0.3607    0.7500
  band No.  band energies     occupation 
      1      -2.3893      2.00000
      2      -1.3960      2.00000
      3       1.5370      2.00000
      4       3.3607      2.00000
      5       7.1064      0.00000
      6       9.9658      0.00000
      7      13.1439      0.00000
      8      13.8443      0.00000
      9      14.6514      0.00000
     10      20.8355      0.00000
     11      21.4972      0.00000
     12      26.2137      0.00000

 k-point   141 :       0.3857    0.3643    0.7500
  band No.  band energies     occupation 
      1      -2.3926      2.00000
      2      -1.3946      2.00000
      3       1.5344      2.00000
      4       3.3812      2.00000
      5       7.0758      0.00000
      6       9.9636      0.00000
      7      13.1929      0.00000
      8      13.8404      0.00000
      9      13.9586      0.00000
     10      14.5758      0.00000
     11      20.4340      0.00000
     12      25.8614      0.00000

 k-point   142 :       0.3821    0.3679    0.7500
  band No.  band energies     occupation 
      1      -2.3950      2.00000
      2      -1.3937      2.00000
      3       1.5325      2.00000
      4       3.3961      2.00000
      5       7.0537      0.00000
      6       9.9620      0.00000
      7      13.2563      0.00000
      8      13.9091      0.00000
      9      14.4594      0.00000
     10      20.7089      0.00000
     11      21.4595      0.00000
     12      27.7124      0.00000

 k-point   143 :       0.3786    0.3714    0.7500
  band No.  band energies     occupation 
      1      -2.3964      2.00000
      2      -1.3931      2.00000
      3       1.5314      2.00000
      4       3.4051      2.00000
      5       7.0403      0.00000
      6       9.9610      0.00000
      7      13.2905      0.00000
      8      13.8632      0.00000
      9      14.2954      0.00000
     10      20.8649      0.00000
     11      21.6141      0.00000
     12      26.0289      0.00000

 k-point   144 :       0.3750    0.3750    0.7500
  band No.  band energies     occupation 
      1      -2.3969      2.00000
      2      -1.3929      2.00000
      3       1.5310      2.00000
      4       3.4081      2.00000
      5       7.0358      0.00000
      6       9.9607      0.00000
      7      13.3049      0.00000
      8      13.8471      0.00000
      9      14.0751      0.00000
     10      14.3403      0.00000
     11      20.6195      0.00000
     12      20.8612      0.00000

 k-point   145 :       0.3750    0.3750    0.7500
  band No.  band energies     occupation 
      1      -2.3969      2.00000
      2      -1.3929      2.00000
      3       1.5310      2.00000
      4       3.4081      2.00000
      5       7.0358      0.00000
      6       9.9607      0.00000
      7      13.3049      0.00000
      8      13.8471      0.00000
      9      14.0751      0.00000
     10      14.3403      0.00000
     11      20.6025      0.00000
     12      21.3640      0.00000

 k-point   146 :       0.3643    0.3643    0.7286
  band No.  band energies     occupation 
      1      -2.4993      2.00000
      2      -1.2878      2.00000
      3       1.4680      2.00000
      4       3.4817      2.00000
      5       7.1212      0.00000
      6      10.3949      0.00000
      7      13.0828      0.00000
      8      13.8626      0.00000
      9      14.0825      0.00000
     10      20.9931      0.00000
     11      21.4363      0.00000
     12      28.1490      0.00000

 k-point   147 :       0.3536    0.3536    0.7071
  band No.  band energies     occupation 
      1      -2.6147      2.00000
      2      -1.1742      2.00000
      3       1.4292      2.00000
      4       3.5602      2.00000
      5       7.2124      0.00000
      6      10.8330      0.00000
      7      12.7840      0.00000
      8      13.3289      0.00000
      9      13.7849      0.00000
     10      20.6712      0.00000
     11      21.2966      0.00000
     12      22.4592      0.00000

 k-point   148 :       0.3429    0.3429    0.6857
  band No.  band energies     occupation 
      1      -2.7418      2.00000
      2      -1.0521      2.00000
      3       1.4142      2.00000
      4       3.6436      2.00000
      5       7.3091      0.00000
      6      11.2669      0.00000
      7      12.5315      0.00000
      8      13.0896      0.00000
      9      13.4507      0.00000
     10      13.6796      0.00000
     11      20.4686      0.00000
     12      21.2593      0.00000

 k-point   149 :       0.3321    0.3321    0.6643
  band No.  band energies     occupation 
      1      -2.8792      2.00000
      2      -0.9216      2.00000
      3       1.4221      2.00000
      4       3.7313      2.00000
      5       7.4109      0.00000
      6      11.6740      0.00000
      7      12.2852      0.00000
      8      12.8956      0.00000
      9      13.2513      0.00000
     10      13.4762      0.00000
     11      20.2644      0.00000
     12      21.0313      0.00000

 k-point   150 :       0.3214    0.3214    0.6429
  band No.  band energies     occupation 
      1      -3.0249      2.00000
      2      -0.7827      2.00000
      3       1.4513      2.00000
      4       3.8231      2.00000
      5       7.5171      0.00000
      6      11.9732      0.00000
      7      12.0462      0.00000
      8      12.9037      0.00000
      9      13.2239      0.00000
     10      19.9587      0.00000
     11      20.6443      0.00000
     12      22.3542      0.00000

 k-point   151 :       0.3107    0.3107    0.6214
  band No.  band energies     occupation 
      1      -3.1773      2.00000
      2      -0.6354      2.00000
      3       1.5004      2.00000
      4       3.9186      2.00000
      5       7.6274      0.00000
      6      11.8119      0.00000
      7      12.0157      0.00000
      8      12.8707      0.00000
      9      13.0177      0.00000
     10      13.0982      0.00000
     11      20.2693      0.00000
     12      22.1033      0.00000

 k-point   152 :       0.3000    0.3000    0.6000
  band No.  band energies     occupation 
      1      -3.3344      2.00000
      2      -0.4799      2.00000
      3       1.5677      2.00000
      4       4.0173      2.00000
      5       7.7408      0.00000
      6      11.5854      0.00000
      7      11.8787      0.00000
      8      12.6927      0.00000
      9      12.9329      0.00000
     10      19.5138      0.00000
     11      20.1392      0.00000
     12      22.5809      0.00000

 k-point   153 :       0.2893    0.2893    0.5786
  band No.  band energies     occupation 
      1      -3.4946      2.00000
      2      -0.3161      2.00000
      3       1.6518      2.00000
      4       4.1188      2.00000
      5       7.8566      0.00000
      6      11.3660      0.00000
      7      11.6909      0.00000
      8      12.5207      0.00000
      9      12.7628      0.00000
     10      19.5722      0.00000
     11      22.7486      0.00000
     12      24.7151      0.00000

 k-point   154 :       0.2786    0.2786    0.5571
  band No.  band energies     occupation 
      1      -3.6562      2.00000
      2      -0.1441      2.00000
      3       1.7510      2.00000
      4       4.2225      2.00000
      5       7.9738      0.00000
      6      11.1538      0.00000
      7      11.4912      0.00000
      8      12.3596      0.00000
      9      12.6130      0.00000
     10      19.1159      0.00000
     11      19.9296      0.00000
     12      32.6157      0.00000

 k-point   155 :       0.2679    0.2679    0.5357
  band No.  band energies     occupation 
      1      -3.8179      2.00000
      2       0.0360      2.00000
      3       1.8642      2.00000
      4       4.3278      2.00000
      5       8.0912      0.00000
      6      10.9489      0.00000
      7      11.2908      0.00000
      8      12.2090      0.00000
      9      12.4758      0.00000
     10      18.9923      0.00000
     11      19.7609      0.00000
     12      23.3513      0.00000

 k-point   156 :       0.2571    0.2571    0.5143
  band No.  band energies     occupation 
      1      -3.9784      2.00000
      2       0.2241      2.00000
      3       1.9899      2.00000
      4       4.4340      2.00000
      5       8.2073      0.00000
      6      10.7514      0.00000
      7      11.0936      0.00000
      8      12.0701      0.00000
      9      12.3521      0.00000
     10      15.1955      0.00000
     11      18.6623      0.00000
     12      22.9709      0.00000

 k-point   157 :       0.2464    0.2464    0.4929
  band No.  band energies     occupation 
      1      -4.1369      2.00000
      2       0.4201      2.00000
      3       2.1272      2.00000
      4       4.5405      2.00000
      5       8.3206      0.00000
      6      10.5615      0.00000
      7      10.9016      0.00000
      8      11.9443      0.00000
      9      12.2422      0.00000
     10      15.6064      0.00000
     11      18.5392      0.00000
     12      19.2386      0.00000

 k-point   158 :       0.2357    0.2357    0.4714
  band No.  band energies     occupation 
      1      -4.2923      2.00000
      2       0.6240      2.00000
      3       2.2751      2.00000
      4       4.6466      2.00000
      5       8.4290      0.00000
      6      10.3792      0.00000
      7      10.7156      0.00000
      8      11.8327      0.00000
      9      12.1474      0.00000
     10      15.9684      0.00000
     11      18.1539      0.00000
     12      22.2437      0.00000

 k-point   159 :       0.2250    0.2250    0.4500
  band No.  band energies     occupation 
      1      -4.4439      2.00000
      2       0.8356      2.00000
      3       2.4325      2.00000
      4       4.7515      2.00000
      5       8.5304      0.00000
      6      10.2047      0.00000
      7      10.5361      0.00000
      8      11.7366      0.00000
      9      12.0680      0.00000
     10      16.2578      0.00000
     11      17.7503      0.00000
     12      21.6792      0.00000

 k-point   160 :       0.2143    0.2143    0.4286
  band No.  band energies     occupation 
      1      -4.5911      2.00000
      2       1.0548      2.00000
      3       2.5986      2.00000
      4       4.8544      2.00000
      5       8.6228      0.00000
      6      10.0380      0.00000
      7      10.3634      0.00000
      8      11.6573      0.00000
      9      12.0049      0.00000
     10      16.4534      0.00000
     11      19.1329      0.00000
     12      23.8838      0.00000

 k-point   161 :       0.2036    0.2036    0.4071
  band No.  band energies     occupation 
      1      -4.7333      2.00000
      2       1.2815      2.00000
      3       2.7726      2.00000
      4       4.9545      2.00000
      5       8.7040      0.00000
      6       9.8791      0.00000
      7      10.1977      0.00000
      8      11.6001      0.00000
      9      16.5738      0.00000
     10      17.4634      0.00000
     11      24.6661      0.00000
     12      33.2886      0.00000

 k-point   162 :       0.1929    0.1929    0.3857
  band No.  band energies     occupation 
      1      -4.8701      2.00000
      2       1.5155      2.00000
      3       2.9536      2.00000
      4       5.0510      2.00000
      5       8.7720      0.00000
      6       9.7281      0.00000
      7      10.0389      0.00000
      8      11.5507      0.00000
      9      11.9300      0.00000
     10      16.3167      0.00000
     11      16.5566      0.00000
     12      20.5647      0.00000

 k-point   163 :       0.1821    0.1821    0.3643
  band No.  band energies     occupation 
      1      -5.0010      2.00000
      2       1.7566      2.00000
      3       3.1408      2.00000
      4       5.1432      2.00000
      5       8.8255      0.00000
      6       9.5850      0.00000
      7       9.8870      0.00000
      8      11.5237      0.00000
      9      16.4049      0.00000
     10      16.9008      0.00000
     11      21.2825      0.00000
     12      26.0086      0.00000

 k-point   164 :       0.1714    0.1714    0.3429
  band No.  band energies     occupation 
      1      -5.1257      2.00000
      2       2.0045      2.00000
      3       3.3333      2.00000
      4       5.2304      2.00000
      5       8.8641      0.00000
      6       9.4500      0.00000
      7       9.7422      0.00000
      8      11.5062      0.00000
      9      11.9270      0.00000
     10      15.4170      0.00000
     11      16.3865      0.00000
     12      27.4999      0.00000

 k-point   165 :       0.1607    0.1607    0.3214
  band No.  band energies     occupation 
      1      -5.2440      2.00000
      2       2.2591      2.00000
      3       3.5301      2.00000
      4       5.3121      2.00000
      5       8.8878      0.00000
      6       9.3230      0.00000
      7       9.6042      0.00000
      8      11.5001      0.00000
      9      15.0151      0.00000
     10      16.2554      0.00000
     11      18.6363      0.00000
     12      21.9308      0.00000

 k-point   166 :       0.1500    0.1500    0.3000
  band No.  band energies     occupation 
      1      -5.3555      2.00000
      2       2.5198      2.00000
      3       3.7303      2.00000
      4       5.3878      2.00000
      5       8.8980      0.00000
      6       9.2041      0.00000
      7       9.4729      0.00000
      8      11.4877      0.00000
      9      11.9983      0.00000
     10      15.8329      0.00000
     11      17.3100      0.00000
     12      26.6561      0.00000

 k-point   167 :       0.1393    0.1393    0.2786
  band No.  band energies     occupation 
      1      -5.4601      2.00000
      2       2.7864      2.00000
      3       3.9328      2.00000
      4       5.4571      2.00000
      5       8.8963      0.00000
      6       9.0931      0.00000
      7       9.3484      0.00000
      8      11.4647      0.00000
      9      12.0620      0.00000
     10      14.2555      0.00000
     11      15.8764      0.00000
     12      23.9083      0.00000

 k-point   168 :       0.1286    0.1286    0.2571
  band No.  band energies     occupation 
      1      -5.5575      2.00000
      2       3.0583      2.00000
      3       4.1362      2.00000
      4       5.5198      2.00000
      5       8.8847      0.00000
      6       8.9903      0.00000
      7       9.2302      0.00000
      8      11.4135      0.00000
      9      12.1432      0.00000
     10      13.9542      0.00000
     11      15.6694      0.00000
     12      23.9218      0.00000

 k-point   169 :       0.1179    0.1179    0.2357
  band No.  band energies     occupation 
      1      -5.6477      2.00000
      2       3.3347      2.00000
      3       4.3392      2.00000
      4       5.5760      2.00000
      5       8.8654      0.00000
      6       8.8957      0.00000
      7       9.1185      0.00000
      8      11.3187      0.00000
      9      12.2416      0.00000
     10      13.7164      0.00000
     11      15.4521      0.00000
     12      16.9926      0.00000

 k-point   170 :       0.1071    0.1071    0.2143
  band No.  band energies     occupation 
      1      -5.7304      2.00000
      2       3.6149      2.00000
      3       4.5401      2.00000
      4       5.6256      2.00000
      5       8.8093      0.00000
      6       8.8400      0.00000
      7       9.0131      0.00000
      8      11.1700      0.00000
      9      12.3560      0.00000
     10      13.5494      0.00000
     11      15.2295      0.00000
     12      23.9473      0.00000

 k-point   171 :       0.0964    0.0964    0.1929
  band No.  band energies     occupation 
      1      -5.8055      2.00000
      2       3.8976      2.00000
      3       4.7369      2.00000
      4       5.6689      2.00000
      5       8.7310      0.00000
      6       8.8103      0.00000
      7       8.9139      0.00000
      8      10.9680      0.00000
      9      12.4841      0.00000
     10      14.9861      0.00000
     11      16.9967      0.00000
     12      23.1544      0.00000

 k-point   172 :       0.0857    0.0857    0.1714
  band No.  band energies     occupation 
      1      -5.8730      2.00000
      2       4.1811      2.00000
      3       4.9274      2.00000
      4       5.7062      2.00000
      5       8.6610      0.00000
      6       8.7770      0.00000
      7       8.8210      0.00000
      8      10.7242      0.00000
      9      12.6240      0.00000
     10      14.7891      0.00000
     11      16.9166      0.00000
     12      17.5751      0.00000

 k-point   173 :       0.0750    0.0750    0.1500
  band No.  band energies     occupation 
      1      -5.9327      2.00000
      2       4.4632      2.00000
      3       5.1090      2.00000
      4       5.7379      2.00000
      5       8.5991      0.00000
      6       8.7345      0.00000
      7       8.7405      0.00000
      8      10.4552      0.00000
      9      12.7730      0.00000
     10      14.5815      0.00000
     11      17.2852      0.00000
     12      28.2778      0.00000

 k-point   174 :       0.0643    0.0643    0.1286
  band No.  band energies     occupation 
      1      -5.9846      2.00000
      2       4.7407      2.00000
      3       5.2786      2.00000
      4       5.7642      2.00000
      5       8.5455      0.00000
      6       8.6550      0.00000
      7       8.7002      0.00000
      8      12.9257      0.00000
      9      13.4205      0.00000
     10      14.3901      0.00000
     11      17.2335      0.00000
     12      18.0606      0.00000

 k-point   175 :       0.0536    0.0536    0.1071
  band No.  band energies     occupation 
      1      -6.0286      2.00000
      2       5.0086      2.00000
      3       5.4328      2.00000
      4       5.7857      2.00000
      5       8.5001      0.00000
      6       8.5833      0.00000
      7       8.6547      0.00000
      8       9.9108      0.00000
      9      13.0793      0.00000
     10      13.4478      0.00000
     11      14.2183      0.00000
     12      17.0312      0.00000

 k-point   176 :       0.0429    0.0429    0.0857
  band No.  band energies     occupation 
      1      -6.0647      2.00000
      2       5.2601      2.00000
      3       5.5676      2.00000
      4       5.8027      2.00000
      5       8.4630      0.00000
      6       8.5208      0.00000
      7       8.6015      0.00000
      8       9.6683      0.00000
      9      13.4198      0.00000
     10      14.0698      0.00000
     11      17.1712      0.00000
     12      28.4145      0.00000

 k-point   177 :       0.0321    0.0321    0.0643
  band No.  band energies     occupation 
      1      -6.0928      2.00000
      2       5.4845      2.00000
      3       5.6788      2.00000
      4       5.8155      2.00000
      5       8.4341      0.00000
      6       8.4689      0.00000
      7       8.5395      0.00000
      8       9.4678      0.00000
      9      13.3566      0.00000
     10      13.9520      0.00000
     11      17.1766      0.00000
     12      29.1976      0.00000

 k-point   178 :       0.0214    0.0214    0.0429
  band No.  band energies     occupation 
      1      -6.1129      2.00000
      2       5.6668      2.00000
      3       5.7622      2.00000
      4       5.8245      2.00000
      5       8.4134      0.00000
      6       8.4297      0.00000
      7       8.4732      0.00000
      8       9.3225      0.00000
      9      13.4606      0.00000
     10      13.5331      0.00000
     11      13.8646      0.00000
     12      17.1188      0.00000

 k-point   179 :       0.0107    0.0107    0.0214
  band No.  band energies     occupation 
      1      -6.1249      2.00000
      2       5.7884      2.00000
      3       5.8139      2.00000
      4       5.8298      2.00000
      5       8.4010      0.00000
      6       8.4053      0.00000
      7       8.4185      0.00000
      8       9.2374      0.00000
      9      13.5291      0.00000
     10      13.5479      0.00000
     11      13.8112      0.00000
     12      17.1078      0.00000

 k-point   180 :       0.0000    0.0000   -0.0000
  band No.  band energies     occupation 
      1      -6.1289      2.00000
      2       5.8315      2.00000
      3       5.8315      2.00000
      4       5.8315      2.00000
      5       8.3969      0.00000
      6       8.3969      0.00000
      7       8.3969      0.00000
      8       9.2097      0.00000
      9      13.5530      0.00000
     10      13.7930      0.00000
     11      17.0859      0.00000
     12      17.0865      0.00000


--------------------------------------------------------------------------------------------------------


 soft charge-density along one line, spin component           1
         0         1         2         3         4         5         6         7         8         9
 total charge-density along one line
 
 pseudopotential strength for first ion, spin component:           1
 18.413  25.689  -0.000  -0.000  -0.000  -0.000  -0.000  -0.000
 25.689  35.845  -0.000  -0.000  -0.000  -0.000  -0.000  -0.000
 -0.000  -0.000   4.178  -0.000  -0.000   7.786  -0.000  -0.000
 -0.000  -0.000  -0.000   4.178  -0.000  -0.000   7.786  -0.000
 -0.000  -0.000  -0.000  -0.000   4.178  -0.000  -0.000   7.786
 -0.000  -0.000   7.786  -0.000  -0.000  14.519  -0.000  -0.000
 -0.000  -0.000  -0.000   7.786  -0.000  -0.000  14.519  -0.000
 -0.000  -0.000  -0.000  -0.000   7.786  -0.000  -0.000  14.519
 total augmentation occupancy for first ion, spin component:           1
  2.000   0.000   0.000   0.000   0.000   0.000   0.000   0.000
  0.000   0.000   0.000   0.000   0.000   0.000   0.000   0.000
  0.000   0.000   0.667   0.000   0.000   0.000   0.000   0.000
  0.000   0.000   0.000   0.667   0.000   0.000   0.000   0.000
  0.000   0.000   0.000   0.000   0.667   0.000   0.000   0.000
  0.000   0.000   0.000   0.000   0.000   0.000   0.000   0.000
  0.000   0.000   0.000   0.000   0.000   0.000   0.000   0.000
  0.000   0.000   0.000   0.000   0.000   0.000   0.000   0.000


------------------------ aborting loop because EDIFF is reached ----------------------------------------





 total charge

# of ion       s       p       d       tot
------------------------------------------
    1        0.708   0.993   0.000   1.701
    2        0.708   0.993   0.000   1.701
--------------------------------------------------
tot          1.415   1.986   0.000   3.402
 
    CHARGE:  cpu time      0.0114: real time      0.0114
    FORLOC:  cpu time      0.0003: real time      0.0003
    FORNL :  cpu time      0.0090: real time      0.0090
    STRESS:  cpu time      0.0456: real time      0.0456
    FORCOR:  cpu time      0.0099: real time      0.0099
    FORHAR:  cpu time      0.0017: real time      0.0017
    OFIELD:  cpu time      0.0000: real time      0.0000

  FORCE on cell =-STRESS in cart. coord.  units (eV):
  Direction    XX          YY          ZZ          XY          YZ          ZX
  --------------------------------------------------------------------------------------
  Alpha Z     3.36415     3.36415     3.36415
  Ewald     -76.18788   -76.18788   -76.18788    -0.00000     0.00000    -0.00000
  Hartree     5.30372     5.46653     5.40411     0.33294     0.12954     0.14694
  E(xc)     -25.54393   -25.26604   -25.39005     0.14452     0.05549     0.05482
  Local     -32.64042   -27.54942   -29.88675     2.25312     0.79110     0.79107
  n-local    78.95559    75.04466    76.70443    -1.84309    -0.67901    -0.67897
  augment   -11.48586   -11.02246   -11.24467     0.26673     0.09528     0.09528
  Kinetic    59.35759    58.29725    60.70472    -1.63385    -0.75096    -0.75097
  Fock        0.00000     0.00000     0.00000     0.00000     0.00000     0.00000
  -------------------------------------------------------------------------------------
  Total       1.12297     2.14679     3.46805    -0.47962    -0.35854    -0.34183
  in kB      44.95108    85.93322   138.82150   -19.19861   -14.35204   -13.68298
  external pressure =       89.90 kB  Pullay stress =        0.00 kB


 VOLUME and BASIS-vectors are now :
 -----------------------------------------------------------------------------
  energy-cutoff  :      400.00
  volume of cell :       40.03
      direct lattice vectors                 reciprocal lattice vectors
     0.000000000  2.715000000  2.715000000    -0.184162063  0.184162063  0.184162063
     2.715000000  0.000000000  2.715000000     0.184162063 -0.184162063  0.184162063
     2.715000000  2.715000000  0.000000000     0.184162063  0.184162063 -0.184162063

  length of vectors
     3.839589822  3.839589822  3.839589822     0.318978049  0.318978049  0.318978049


 FORCES acting on ions
    electron-ion (+dipol)            ewald-force                    non-local-force                 convergence-correction
 -----------------------------------------------------------------------------------------------
   0.630E+00 0.630E+00 0.802E+00   -.117E-14 0.219E-14 0.383E-14   -.667E+00 -.667E+00 -.122E+01   -.244E-01 -.244E-01 0.360E-01
   -.629E+00 -.630E+00 -.802E+00   0.135E-14 -.221E-14 -.373E-14   0.667E+00 0.667E+00 0.122E+01   0.244E-01 0.244E-01 -.360E-01
 -----------------------------------------------------------------------------------------------
   0.134E-03 0.106E-03 0.224E-03   0.184E-15 -.290E-16 0.102E-15   -.714E-04 -.647E-04 -.204E-03   -.169E-04 -.104E-04 0.225E-05
 
 
 POSITION                                       TOTAL-FORCE (eV/Angst)
 -----------------------------------------------------------------------------------
      0.00000      0.00000      0.00000        -0.061711     -0.060904     -0.384739
      1.35750      1.35750      1.35750         0.061711      0.060904      0.384739
 -----------------------------------------------------------------------------------
    total drift:                                0.000045      0.000031      0.000022


--------------------------------------------------------------------------------------------------------



  FREE ENERGIE OF THE ION-ELECTRON SYSTEM (eV)
  ---------------------------------------------------
  free  energy   TOTEN  =        -8.84909079 eV

  energy  without entropy=       -8.84909079  energy(sigma->0) =       -8.84909079
 


--------------------------------------------------------------------------------------------------------


    POTLOK:  cpu time      0.0100: real time      0.0100


--------------------------------------------------------------------------------------------------------


 writing wavefunctions
     LOOP+:  cpu time      4.9843: real time      4.9851
    4ORBIT:  cpu time      0.0000: real time      0.0000



 total charge

# of ion       s       p       d       tot
------------------------------------------
    1        0.708   0.993   0.000   1.701
    2        0.708   0.993   0.000   1.701
--------------------------------------------------
tot          1.415   1.986   0.000   3.402
 

 total amount of memory used by VASP MPI-rank0    43049. kBytes
=======================================================================

   base                                    :      30000. kBytes
   nonl-proj                               :       2183. kBytes
   fftplans                                :       1675. kBytes
   grid                                    :       2380. kBytes
   one-center                              :          3. kBytes
   wavefun                                 :       6808. kBytes
 
  
  
 General timing and accounting informations for this job:
 ========================================================
  
                  Total CPU time used (sec):        5.630
                            User time (sec):        5.084
                          System time (sec):        0.546
                         Elapsed time (sec):        6.082
  
                   Maximum memory used (kb):      159052.
                   Average memory used (kb):          N/A
  
                          Minor page faults:        16884
                          Major page faults:            1
                 Voluntary context switches:         1144
